108
#Comment!
LJ           2.34377        -4.14198         2.20854
LJ         -0.965892         4.20258        -5.77152
LJ          -4.75598         4.46213        -4.47581
LJ         -0.125758      -0.0710035        -6.15174
LJ          -4.43447         4.95194       -0.560365
LJ          -2.63856        0.591659        -3.47161
LJ           2.49399       0.0461091        -4.02045
LJ          -3.78056         5.95082          0.4614
LJ           3.08893         3.54451        -1.12412
LJ           1.50811        0.338396        -4.83177
LJ          -1.04918           1.597        -6.01928
LJ            4.5169         5.24483       -0.209124
LJ          0.157108        -5.89414        -3.85845
LJ           1.84956         5.61511        -2.96635
LJ          0.710733        0.967291        -6.00819
LJ           5.55148        -2.64872         6.24413
LJ           4.78125        -2.77674        -4.32226
LJ         -0.223176        -3.03499        0.525436
LJ           4.03652        -1.95669         1.28518
LJ          -1.85745        -0.91699         2.40395
LJ          -1.96474        0.688432        -5.98373
LJ          -5.37057        -4.59543        -2.38933
LJ           5.59201         3.11075          2.6481
LJ           3.37638        -3.19156         4.16162
LJ           5.13501         2.06467        -4.20771
LJ            5.5824         6.00821         0.29988
LJ           5.51685        -2.57513         4.94383
LJ         -0.137495        -5.02427        -6.01485
LJ          -4.29904        -5.24282         3.31129
LJ           1.68913          3.0547          4.8154
LJ           2.14446       -0.052369        -2.59214
LJ           1.63804         1.86553         1.97542
LJ          -1.56629         4.74818        -3.00825
LJ          -2.12863         6.35107         4.68545
LJ          -1.22467         5.75702         1.35166
LJ          0.403037         -5.8289        -5.76233
LJ            -1.796         2.58163        0.131608
LJ           -2.9867        -1.08775        -6.24054
LJ          -4.40477        -3.70412         2.80533
LJ          -4.30769       -0.577527        -5.31522
LJ          -3.58346        -3.11192        -6.19542
LJ          -1.87858          1.6416         1.04917
LJ         -0.248007        -1.05747        -3.62369
LJ          -6.04703        -5.57521         4.96577
LJ       -0.00704509         4.47126        -4.92828
LJ          -5.60025         5.79482          1.5975
LJ          0.228106        -2.75972        -5.60502
LJ          -4.87789        -5.79403       -0.557491
LJ           1.12127        -4.90623         4.84737
LJ         -0.160472          2.2123         1.57547
LJ           3.19101       -0.893173         1.85239
LJ          -4.48288        -4.11732         1.15095
LJ           4.77866         1.19682         5.16904
LJ           5.92617        -4.27239        0.476658
LJ          -6.33329        0.437911       -0.705076
LJ           3.62357        -0.28334        -4.88218
LJ           5.96534        -6.05183        -4.85699
LJ          0.962621        -3.84935        -1.90778
LJ           4.05946         4.63118        -3.10352
LJ           6.42942          4.7222         4.42986
LJ           5.75659         2.49434        -3.14048
LJ           2.10178        -6.37808          1.6562
LJ          0.659446        -4.77883        -3.45525
LJ          -1.74948        -5.53783        -1.08179
LJ          -1.46053         4.42088         4.63027
LJ          -1.64521        -4.33392        -3.91481
LJ           4.70431        -3.86181         6.34333
LJ          -1.00715         2.57987         2.52994
LJ          -2.16835        -1.84621         2.01455
LJ          0.386473         5.85164          6.0153
LJ           2.10777         1.08216        -3.90456
LJ          -3.21325        -3.82005          2.2026
LJ           4.34232         2.24494         3.03961
LJ          -6.21397         4.51649        -5.04081
LJ          -3.51901        -1.33879        -3.47905
LJ         -0.763862         3.69221        -2.61442
LJ          -2.46078        -5.29022         4.25149
LJ          -1.10224       -0.370487         -3.0873
LJ            3.0569         1.44341         6.12574
LJ           -0.6354        -1.60361        -2.11687
LJ            6.3331          -5.643          -1.142
LJ          0.162224        -5.13818        -4.73392
LJ          -2.66528        -4.94508       -0.766692
LJ           2.16714         1.85558       -0.860848
LJ           4.62468        0.372981         3.95508
LJ          -5.58761         4.63237        -6.45492
LJ          -2.31114         -3.2428        -1.46719
LJ          -2.82254        -4.13398          3.8945
LJ            1.6619         3.51724        0.178966
LJ           4.15617         1.39263         1.83843
LJ           4.47544       -0.607175         -4.2733
LJ          -2.60967         2.59211        -2.29076
LJ          -1.07894         -2.8061         4.31182
LJ           5.51163         3.01278         4.30776
LJ           5.29476        -1.68452        0.227176
LJ          -4.76653        -4.16321         4.97527
LJ           2.62982         4.31991        -4.24927
LJ          0.847915      -0.0053733        -2.38147
LJ          -3.65808        -6.27274        -4.36723
LJ          0.131727          4.3214        -2.55997
LJ             6.216         4.48383         5.94151
LJ            3.3387         4.12823        -6.12545
LJ           1.75341        -2.30858          1.2645
LJ          0.783626        -2.65301        0.120086
LJ          -5.46305         3.54764        -5.35739
LJ          -4.07596         6.44643         4.31758
LJ           5.80757         2.78172       0.0724696
LJ           5.58168         4.17528        0.316682
