108
#Comment!
LJ           3.85818         1.55722        -4.06772
LJ          -2.40214        -4.67879         -1.2977
LJ           4.40276        -1.79748        -6.05132
LJ          -1.38477         2.86687         5.62189
LJ           5.56522        -3.17716         2.23491
LJ          -4.31225        -6.18003         4.77593
LJ           1.88275         3.88273        -1.13759
LJ           4.57505         4.65655        -6.17641
LJ          0.287575        -5.80019         2.74979
LJ          -6.22553        -5.63649         -1.2461
LJ          -1.12251       -0.322117        0.291407
LJ           2.96915       -0.467113         2.90768
LJ           3.82683        -4.69982        -2.10162
LJ           6.37729         -1.2698        -1.45696
LJ          -2.37122        -3.39794        -1.29453
LJ           6.29474         1.00888         -2.5884
LJ          -4.07324         5.75323        -0.28362
LJ           -2.8597        -4.08766      -0.0340745
LJ          -1.59324        -3.70017        0.225113
LJ         0.0917206        -6.34273        0.867161
LJ           2.32627        -1.35084        -6.04018
LJ          -2.89724       -0.866301         2.43809
LJ           -2.2645        0.574174        -1.99364
LJ          0.386857       -0.667654       -0.120806
LJ          -5.13773         1.61315        -1.64331
LJ            4.1634         1.63645        -1.77002
LJ          -1.72826         2.26913         4.00045
LJ          -5.08166         4.96868        -1.03662
LJ          -2.08068        -1.13752        -5.41638
LJ           2.82474        -5.74286        -5.72172
LJ           -6.3415       0.0912588         6.20017
LJ          -5.61688         1.13401         3.08673
LJ          -1.71734        -2.42485        0.951954
LJ           5.79675         1.23255        -3.68852
LJ          -2.08034        -6.41544        -2.57861
LJ          -4.83397         3.72664        0.632136
LJ           -5.3611         1.96331        -3.43304
LJ           5.06726        -2.32019        -4.93036
LJ          -1.50139        -3.92751         2.61865
LJ          -3.30536         2.54364         4.93351
LJ          -6.12058         1.36427        -5.94866
LJ           5.31987        -1.09496        -2.45401
LJ           3.98166         5.22566        -2.86379
LJ          -6.44134        -5.93073        -5.15168
LJ            1.2388        -2.38772         1.13891
LJ         -0.297326         1.37871         6.09247
LJ          -2.78125        -5.64929        -2.35638
LJ          -1.60389         6.37197         1.91593
LJ          -2.07406        -1.42221         5.23743
LJ            3.1884         5.41065         4.46544
LJ          -1.50416         3.15656       -0.414838
LJ           4.96285        -2.80522        -5.98711
LJ           1.21985        -2.06628        -5.45611
LJ         0.0959802         2.69981         -5.7775
LJ           4.47482        0.620074        -4.91376
LJ          -5.73587         -5.4035        -2.23759
LJ          -3.30269        -1.66791         5.44706
LJ          0.699767        -4.02352          -4.113
LJ          -3.27842         5.38942         4.18952
LJ          -5.96534       -0.895436         3.04759
LJ         -0.745384          3.4442        0.556815
LJ           5.85088         4.42722        -5.63912
LJ          -1.74611          3.1414         -1.7778
LJ          -2.43645         4.80537         5.47285
LJ          -5.43428         4.86472         1.86953
LJ          -2.97086        -5.01001        -4.34561
LJ           1.08456         2.28591        0.496987
LJ          0.984158       -0.313039        -4.68546
LJ          -3.06694       -0.929464        0.357098
LJ           1.71911      -0.0573844         -1.2176
LJ           5.86743          5.1707         -4.8003
LJ           3.52332         6.20502         -1.6571
LJ         -0.439711      -0.0365787        -4.25289
LJ           4.36595         -2.9396        -3.88988
LJ          -3.55433         1.83238        -4.55642
LJ           5.56015         4.92462         5.10867
LJ           4.50473        -5.42755        0.624834
LJ           5.89968          -3.382        -3.90644
LJ           5.50944          5.3512         2.55386
LJ           2.81347        -4.93393         4.55734
LJ          -1.41339        -1.46166        -4.55118
LJ          -4.07948         2.59389         3.86074
LJ           -5.4427        -6.04124        0.357496
LJ          -2.72197        0.141007         2.70604
LJ         -0.745178         5.64934         4.58495
LJ          -1.97305         -1.1816         1.98519
LJ           1.49763        -3.94826         2.05159
LJ           5.43116        -5.39594        -1.89331
LJ           2.61406         2.45454        -0.30174
LJ          -5.08609         6.36222        -3.79675
LJ           3.91311        -2.82438        -6.37599
LJ           -5.9023        0.834184        -1.49789
LJ          -4.38367         2.40872        -2.82701
LJ           4.10234        -3.93743        0.106223
LJ           2.84066        -3.12946         6.01624
LJ          -5.76865         5.12085         4.97817
LJ           4.04575        -2.65111         -5.3249
LJ          -5.20754         2.52692         3.74592
LJ           3.97263        -6.11042        -5.26742
LJ           2.16029        -4.45661         5.79683
LJ          -3.31032         6.12157         2.48662
LJ          -3.09791        -1.35661         3.75509
LJ           4.65945        -4.92965         -2.7497
LJ          -3.35647        -2.02453         1.36959
LJ           1.28049        -1.41672       0.0602255
LJ           3.78382        -4.79739        -5.89593
LJ          -6.02043         2.26594         2.65142
LJ          -5.41533        -6.35737       -0.892519
