108
#Comment!
LJ           2.06384         3.95189        -3.56627
LJ           5.27951         5.28435        -6.24099
LJ          -2.02419        0.256917         5.64747
LJ            5.8115         6.01253         4.67074
LJ           -4.0819        0.221512         1.93331
LJ          -1.79178        -4.38513        -4.76236
LJ          -4.11894         -1.1256        -2.99356
LJ           6.27038         3.68444        0.924041
LJ          -3.31889         3.53176         1.03572
LJ           5.93896        -4.46185        0.160054
LJ         -0.598984        -1.10568         -3.1386
LJ           3.72275        -4.68679         1.97207
LJ           5.33277         6.34228        -4.71915
LJ           1.09147        -3.26566         3.84951
LJ           4.92094        -5.79847         4.71174
LJ          -4.78178         4.17626         6.25773
LJ           1.50211        0.741713        -1.79307
LJ          -2.06639        -4.20453        0.491957
LJ           6.30936         5.19938          5.3238
LJ          -3.75629        -2.65292         1.67854
LJ         -0.279711        -1.12173         6.29696
LJ          -4.93656        -6.29184        -5.83911
LJ         -0.873386        -2.86757        -1.87749
LJ          -5.48213         5.79462        0.325181
LJ           -5.4007        -1.50856       -0.483487
LJ           3.28348        -5.56404        -2.40897
LJ           2.05743         5.56175         6.05293
LJ           5.38838         1.13606         1.39601
LJ           1.79712        -5.24436         3.75429
LJ           3.07421         2.09789         5.91141
LJ          -2.83581         2.73829        -4.10938
LJ         -0.825234         2.94513         2.53636
LJ         0.0212904          4.7029          5.1032
LJ           5.28213         -2.2855      -0.0776485
LJ           4.14052         3.32794        -5.34526
LJ          -3.13849        -5.03726         3.07504
LJ          -5.60339         3.75461         5.02717
LJ            -3.315       -0.341684        -4.18438
LJ         -0.764104        0.505471         6.17359
LJ          -4.31237         1.41813       -0.691134
LJ           2.27101         6.24983        0.159467
LJ          0.516384         2.67477         4.52025
LJ           -5.4968         2.86526        -2.78158
LJ           4.17009         4.40825        -5.17848
LJ          -1.87491        -1.90006       -0.615235
LJ          -5.23123       -0.249194         2.35299
LJ           6.07449          6.2797        -0.44797
LJ           6.44957         1.32343        -1.11129
LJ           5.91777         6.01008         3.53176
LJ          0.648724         4.10278        -5.85379
LJ            2.2175        -2.70021       0.0717942
LJ           3.69475        -3.03822         5.32882
LJ           2.61511        -2.06123        -2.96694
LJ           4.36628         1.21529        -1.80106
LJ          -2.63215       -0.309693         -2.1852
LJ           3.17427        -0.46413        -1.63465
LJ           4.52189        -2.85479        -4.93901
LJ           2.30983        -3.30298        -3.47097
LJ           3.43707        -1.75089        -5.11442
LJ           -4.4734         5.95969         4.66708
LJ          -3.95191         4.22732         4.16728
LJ          -6.30392         5.19076        -2.68343
LJ         -0.893017        -4.87019        -0.22973
LJ          -5.62349        -4.49984        -1.87021
LJ        -0.0521153         5.06817        -4.34736
LJ          -5.39784        -5.69224        -2.05083
LJ           3.95244         -1.9789        -2.21953
LJ          -3.51913         2.82879        -3.09646
LJ          -3.62586        -1.49157        -6.27299
LJ           5.36455         3.95072        -3.72208
LJ          -2.51079         1.75027        -3.80446
LJ           4.91797         3.80865         1.38906
LJ          -1.06257         4.91584        -3.85748
LJ          -5.07281        -3.40703         2.36971
LJ           2.04535        -3.53931        -1.44563
LJ          -4.09136         4.50674        -2.03824
LJ           1.08265         1.63789         2.05891
LJ           1.21883        -3.37572        0.379316
LJ          -5.85668        0.392896        -1.48259
LJ           2.47675        -3.03055         5.07083
LJ          -3.78537         5.95242        -6.24976
LJ           1.84368        -2.17516          5.4843
LJ         -0.113502          -5.592       -0.555413
LJ           2.69632         3.81912         4.99214
LJ          -3.04916           -4.49        -2.02755
LJ          -2.96366         1.01675         6.12379
LJ         -0.359603         2.74733        -1.67999
LJ          -4.90822         5.97214       -0.581823
LJ           3.00774      -0.0100584        0.155823
LJ          -1.56611          3.4264         1.11346
LJ           2.85563        0.339298         2.05185
LJ         -0.852783        -5.06699         2.55767
LJ         -0.584811        -4.93953        -2.22167
LJ          -2.94794        -0.44752         6.27116
LJ           5.07491         3.36719        -6.22683
LJ           1.98398         4.22103        -4.57067
LJ           2.86029       -0.168869           5.823
LJ           2.72188       -0.796353         2.00396
LJ           3.13072        -4.91677         3.25164
LJ          0.606598        -5.58619         5.45521
LJ           4.70971         1.90839        -2.52741
LJ          0.256311         4.08845         4.23266
LJ          -4.33808       -0.695753         1.36898
LJ          -2.40139         5.30459       -0.867964
LJ          -3.25679         5.49301         2.81592
LJ          -1.04057         -5.6054         5.63225
LJ           4.02855        -3.11128         3.51838
LJ          -5.43715         -5.5615       -0.413508
