108
#Comment!
LJ          -2.27846         1.28049        -1.07781
LJ           1.12275       -0.134167       -0.132405
LJ          0.173448        0.779726         1.38307
LJ           1.55902        -1.18093        -3.42738
LJ          0.362159        -1.36329         4.54654
LJ           5.35773        0.565194         4.55221
LJ           2.94274          3.0894         1.77507
LJ           4.68925         2.47727         1.33299
LJ          -1.18374       -0.097266        -6.24267
LJ           -3.3467          -5.228         3.03273
LJ          -2.55737        -3.19113         4.88942
LJ         -0.267503        -5.81628       -0.700089
LJ          -1.41289         3.70305       -0.406337
LJ           6.46243        -2.50417         2.97467
LJ          -3.28371         5.36323        -4.06079
LJ           0.89638       -0.970774          2.2826
LJ             1.732        -3.71371        -2.80205
LJ          -6.41977         5.08092        -5.91591
LJ           1.50858         0.82253       0.0609656
LJ          -1.51239        -5.44536       -0.259177
LJ          -1.81152        -1.64333        -4.04068
LJ          -3.25482        0.253896         -4.6294
LJ           6.25026       -0.397496        -3.95242
LJ           3.60967         2.06223          6.1248
LJ          -4.94082        -6.24269         5.47504
LJ           6.19605         2.45071          2.2539
LJ         0.0947662        -1.72958         2.56373
LJ          -5.39844        -2.85642        -4.34356
LJ          -5.58304           4.867        0.256285
LJ           -3.3332         1.25675        -1.82464
LJ           3.66834        0.681872          4.0093
LJ          -2.55578         1.64851         4.50637
LJ          -6.17783         -1.8031        -2.89305
LJ           5.21482         3.46604         2.30107
LJ           6.08807         4.51602         3.16596
LJ          -4.26909        0.654272        -5.51535
LJ           5.00897         2.19394         3.36162
LJ          -1.87094        -1.91261         6.28282
LJ           -4.8448        -5.32538        0.814093
LJ         -0.565241        -6.09663         1.41656
LJ          -1.28708         2.77311       -0.134474
LJ          -3.03229         4.11738        0.769332
LJ          0.478738         6.04082         1.59172
LJ          -2.69207        -6.25435        0.353483
LJ           1.33874       -0.651162        -4.63622
LJ           1.97611         1.37798        -3.17429
LJ          -1.19604        -4.14217         3.68563
LJ           1.56023       -0.326989         5.38586
LJ          -6.37176         5.39638        -4.44889
LJ          -1.72802        -6.20782        -4.06805
LJ           4.99108         4.96027         4.25042
LJ          -4.19384         -4.2554        -5.26107
LJ           -2.0553        -4.80311         -5.7461
LJ           -6.4401         4.88661        -2.40889
LJ          -4.42165        -4.78003        -6.11484
LJ         -0.313238        0.301542         2.89422
LJ          -3.00679         4.57551         2.13992
LJ         -0.346694         2.00754        -3.35366
LJ            2.6089        -3.62817         3.55827
LJ           2.12055        -4.44823          4.6183
LJ          0.465371         2.14938      -0.0251763
LJ          -0.29036        -5.12811        -5.93816
LJ          -6.42386        -3.18474        -4.34549
LJ            3.7998         4.68694         3.88752
LJ          -1.44988         2.25937        -2.19036
LJ           4.79022       -0.831596        0.355328
LJ         -0.159677         6.21991        0.801903
LJ           -2.7887         2.97766          2.6563
LJ           3.22981       -0.683635         3.36692
LJ          0.591169        -3.29167        -6.07977
LJ          -3.28193         6.32537         3.17247
LJ          -5.51782       -0.115347        -3.64757
LJ           4.07498         5.78601         4.19429
LJ          -4.45684        -3.28331         -4.1857
LJ          -3.21681          1.4678         -6.3909
LJ           3.88898         4.45169         2.62983
LJ          -2.95807         4.75394         3.41424
LJ          -5.43556        -2.46386        -2.16579
LJ          -1.56141         1.34612         3.44277
LJ           2.61166        -2.98524        -1.38019
LJ         0.0283662         2.90122         1.31828
LJ         -0.348332         5.91041         2.15342
LJ         0.0286885         3.13769        -4.09706
LJ          -4.20017        -2.48784         2.84035
LJ          -5.41685       0.0470284        -2.43981
LJ          -4.26275          1.8232          2.6981
LJ            2.3707        -3.78635         6.39743
LJ          -3.72586        -4.92519        0.614527
LJ          -4.50492       0.0794985        -2.40073
LJ           0.78134        -2.32766        -4.44598
LJ           3.56412         2.28167       -0.458576
LJ          -2.29057          -6.322         5.69503
LJ          -1.61002        -0.19917         2.43738
LJ          -1.09037         4.46966        -3.79736
LJ          -2.34049         1.93196         2.68959
LJ          -4.85954         5.31989        -1.36403
LJ           5.39162         5.72398       -0.286955
LJ          0.817199         5.98634        -5.96106
LJ          -4.00121         1.54406        -3.10034
LJ          -6.41683          3.9848        -1.39601
LJ           1.25164         4.14338        -4.92996
LJ         -0.452157        -4.43994        -4.72857
LJ           1.05934        -3.33715         4.06904
LJ           5.86314         2.64329          1.2729
LJ          -2.06097         1.04641        -4.65388
LJ           2.65598         4.67072         -3.5859
LJ           4.12796         3.80476        -5.09654
LJ          -4.96203        -1.80194        -3.90774
