108
#Comment!
LJ           4.11004        -3.94674        -3.97608
LJ         -0.783687        -3.79697         5.67926
LJ           5.16203         1.93621       -0.228877
LJ          -6.39003         1.92983        -2.28525
LJ          -5.76513       0.0317015       -0.631135
LJ         -0.442282         5.08042         5.71675
LJ          -5.27439         3.61357        -2.86451
LJ           4.09998        -5.00154        -2.04816
LJ          -4.19667        0.895989         4.45442
LJ           4.92608         2.76232        0.296742
LJ         -0.249683        0.032855        -3.18265
LJ           2.41041       -0.567851         1.96479
LJ          -1.16311         4.08346        -4.12821
LJ          -3.36421         4.99656         5.45082
LJ          -1.85111        -4.05911        -3.01782
LJ           2.89325         5.41588         4.40549
LJ          -3.69214         1.23721       -0.746789
LJ          0.161916       0.0621042         5.93572
LJ          -4.89416        -2.82108        -4.07571
LJ          -2.40559         5.13965        0.386255
LJ          0.747816         0.41623          1.0163
LJ          -1.10086         6.23136        -2.27542
LJ          -6.28489         5.36772         1.33937
LJ          -6.36191         4.04367        -1.75778
LJ          -6.08758        -6.33272        -5.77762
LJ          -3.03662         2.78507        -3.70489
LJ          0.575319         2.59963       -0.486618
LJ         -0.736422         0.82516         1.10683
LJ          -1.31619        -5.57401         3.28107
LJ          -1.73586        -0.19465       -0.339864
LJ          -6.14949         5.45228         2.95078
LJ           1.86326        -6.06111         3.38513
LJ          -5.18969        -1.81327        -6.28359
LJ            3.7542         1.73208         5.99333
LJ           1.23643         5.02247         4.33293
LJ           4.64558        -5.88149        0.588359
LJ          -1.31196        -4.18111        -5.58916
LJ           5.38818         3.48537         4.96316
LJ          -4.44417        -2.16948         2.98959
LJ            3.6458        -4.88786         2.41162
LJ          -5.02033       -0.770023        -6.16831
LJ           4.46139         1.68539         1.09599
LJ          -1.59084         2.51937         3.81469
LJ           4.83086       -0.614083        -2.60329
LJ          -3.97067       -0.969293         5.17602
LJ           6.30334        0.550896       -0.336142
LJ           2.99444        -5.90325         2.09023
LJ           -2.7274       -0.535427         2.05442
LJ          -4.36568        -4.04064         5.27148
LJ          -3.45282         4.08001        -1.86089
LJ          -4.23827        0.803628         2.01688
LJ          -1.30377         6.15785         4.28168
LJ          -2.61013        -3.40741        -4.21975
LJ           -3.0419         2.91091        0.472029
LJ          -5.05011        -1.41974          5.2277
LJ           2.97006       0.0224366       -0.465791
LJ          -2.01597         4.13152        -5.21617
LJ          -3.74607        -2.60757        -5.34153
LJ          -5.25316         4.56118         2.91912
LJ          0.762389       -0.586896        -3.57378
LJ          -2.18369         2.92895         2.86045
LJ           4.13265         3.48105         2.82227
LJ          -2.13208         5.50326       -0.870897
LJ          -4.07813         4.60285         4.69168
LJ           1.74193         3.73243         2.27872
LJ           4.25756         4.63247         3.25805
LJ            4.6713         4.60441         6.28843
LJ           3.30665         4.73915         6.08704
LJ           1.82911        -5.43493         0.86405
LJ          -1.17071         2.52906        -1.63972
LJ          -1.03269        -6.15389        -4.29213
LJ          -3.82746         3.25018         -3.2257
LJ         -0.896568        -3.37815        -2.85812
LJ         -0.677596           4.856       0.0630055
LJ           -2.0584         2.79555        -3.44285
LJ          -2.88168        0.548915        -5.85242
LJ          -5.95763        -3.89337         2.28831
LJ           5.51761        -6.35552        -2.44697
LJ          -1.60782          -1.403         5.34568
LJ           5.56617        -2.80615        -2.27212
LJ          -1.00829       0.0259582        -2.44801
LJ          -1.28298         5.33679        -5.51472
LJ          -2.89709         2.16401        -1.97201
LJ          0.710533        -6.42383         2.08857
LJ           2.79894         1.12797        -5.36863
LJ          0.480862        -5.71046        0.639951
LJ          -5.12582        -4.87343         5.15039
LJ          -4.44181        -3.03049         1.09232
LJ          0.101639        -0.80341        -4.45549
LJ           2.91765        -2.34845        -5.82817
LJ           1.06383          2.4188          3.4418
LJ           2.29623        -3.65715          1.5069
LJ         -0.642429         3.15812        -4.45188
LJ          -4.09654         3.05331         5.42496
LJ          -5.93217        -2.24178        -3.59864
LJ           1.69387        -5.11776       -0.771489
LJ         -0.636133         2.08656       -0.243801
LJ           3.09771         0.89205        -6.27208
LJ          -1.83236        -2.63747         1.10451
LJ          -5.86625        -4.63717        0.427075
LJ           4.31855       -0.317827         4.56307
LJ           3.19103          1.3112         1.10193
LJ           3.50907        0.102122         5.29141
LJ          -3.47686         6.01961         5.39735
LJ          -0.72566        -5.05008        -5.58487
LJ           4.80851        -2.26467        -5.11478
LJ           3.45495        -3.97806        -4.99809
LJ           1.04158        -4.91581         2.48909
