108
#Comment!
LJ           3.42526         3.65754        -4.23446
LJ          -4.55347        -1.96145        -6.31397
LJ           4.73164         1.81506        -1.90979
LJ          -4.86047       -0.721622         5.79838
LJ         -0.486389        -5.51817         5.40988
LJ           3.72924         4.82817         3.55373
LJ           -4.0061        -6.15513       -0.165942
LJ           4.09223          3.8128         3.02631
LJ           1.36122         3.95147         3.80297
LJ          0.932929        -2.42791        -1.14613
LJ          -5.36762         -5.9176        -3.10766
LJ           -5.6529         4.44677        -3.33606
LJ          -5.54028        -0.10394        -6.20736
LJ           2.48125         2.77584         5.63009
LJ          -5.80903         2.65401        -2.98472
LJ          -1.03566        -6.22388         3.75746
LJ          0.800786         6.37289         4.02105
LJ           4.90693         5.22683         4.44752
LJ            1.4588         6.39351         1.72257
LJ           2.95354        -2.20038        -5.48343
LJ           2.22641        -6.07168         3.92144
LJ          -1.56468         6.21199         -3.6527
LJ           3.00618        -4.64651      -0.0728072
LJ           5.09767        0.507187       -0.774908
LJ           3.88766         6.01617         2.21427
LJ          -4.58286       -0.445632        -6.12724
LJ         -0.323016        -2.70742        -2.55786
LJ         -0.594342         2.27263         4.29357
LJ          -4.22237        -2.10388         2.34849
LJ           1.80291        0.596236         2.07193
LJ           1.47504         3.29475        -1.72063
LJ           1.02686          1.3558         2.17373
LJ           1.54077         3.49101         1.73859
LJ           5.07713         4.34817        -3.00292
LJ        -0.0802445         -5.1829       -0.744919
LJ          -1.86145        -3.73324        -0.49488
LJ           6.34581         1.56823        0.331744
LJ          -5.55839         4.28586        -1.46548
LJ          -5.32186        -5.35551       -0.830047
LJ         -0.611301        -4.64438        -2.84134
LJ          -2.50138        -5.42809        -3.66381
LJ           1.91449         3.69739        -5.93516
LJ          -5.37065         3.36569         1.95384
LJ           3.84602         4.27513         5.75443
LJ          -4.60731         4.68398         2.80218
LJ           5.98395        -4.26477         2.16114
LJ           5.61325        -0.95335        -1.81193
LJ          -5.60409        -6.07707        -1.69377
LJ          -3.53797         -5.7565        -4.25349
LJ          -1.68826         1.42251       -0.256569
LJ         -0.183889        -1.08285         2.49863
LJ           6.09626        -2.02019        -1.09917
LJ          0.762598        -5.08086          3.2991
LJ           2.33242         1.33233         1.75768
LJ          -3.79095        -1.19251       -0.482695
LJ          -1.24514         5.20126        -2.07543
LJ          -1.98567        -2.13366       -0.196929
LJ           3.31958        0.768885        -3.20396
LJ          -6.03326         5.46626       -0.201494
LJ           6.28477         5.54816         6.39496
LJ            5.9026        -6.09838        -2.96565
LJ          0.392535        0.793607         4.89395
LJ          -2.34409       -0.729947         4.73461
LJ          -4.12628        -4.09047        -1.85121
LJ          0.630231         -1.4883         -4.0779
LJ          -5.52064        -2.00458        -5.90312
LJ          -3.96364        -5.04615        -1.77486
LJ           2.41898           1.502         3.16031
LJ           5.03687        -6.08646         1.65484
LJ           4.66815        -4.74483         2.12126
LJ            6.2128        -4.85527         -3.8506
LJ          -1.12712        -5.37773         -4.7536
LJ           2.84088         -4.0769        -1.71622
LJ           5.28216        -2.60448         5.63624
LJ          -6.22236        -6.36821        0.566442
LJ           2.91614        -4.73789          6.2218
LJ         0.0744657        -6.44696         1.76056
LJ           3.27144        -3.39463        -4.91403
LJ          -1.64863        -3.07006         2.64722
LJ          -2.55667         2.19903         1.37628
LJ          0.311051          5.9067         5.38594
LJ           6.40896         3.63124        -3.42565
LJ        -0.0149509         4.27541        -5.74577
LJ           3.41235          4.4761        -2.96005
LJ           2.60219         3.02007        -4.82553
LJ          -5.71521         2.45783       0.0308645
LJ          -5.27527        -4.39137         5.16855
LJ          -5.45226         2.21674         6.09125
LJ          -0.20227         5.07777         5.84575
LJ           4.30173         4.16369         4.37476
LJ          -2.01013         4.85041       -0.684069
LJ          -6.41637        -5.52459         2.77727
LJ           3.66799        -4.53565         1.06461
LJ          -4.16208        -3.66139         2.70511
LJ          -1.98123         2.15632         4.37986
LJ          -5.23601        -5.18123        -4.52204
LJ           -5.3973         6.19761         3.19291
LJ           -1.0667        -4.47544        -4.11172
LJ          -5.00434        -2.31626         5.77725
LJ          0.776557       -0.530197         5.27922
LJ           1.89845         6.12946        -3.81963
LJ          0.684038        -2.21729         1.41578
LJ          -3.85955        0.727521        -4.16517
LJ           3.08168         2.30925         3.38002
LJ          0.383114        0.142233         1.45703
LJ           1.46636       -0.018085         2.98927
LJ           1.22649         3.30476         -6.4419
LJ          -3.42428        -2.85169       -0.563064
