108
#Comment!
LJ          -4.53492         1.00438        -1.98867
LJ          0.695001         2.61652       -0.396217
LJ          -2.65692         6.46268          2.3654
LJ          0.662719         -1.8523         -6.0775
LJ           1.03552        0.151647         4.69078
LJ          -5.57172       -0.491545         3.58322
LJ           2.60308         4.24789        0.759688
LJ           4.20882         4.47177         2.20844
LJ           1.18391       0.0789672        -3.99758
LJ          -4.92254        -4.76384        -4.71574
LJ          -6.11443        -5.30921        -2.51212
LJ           1.73746          4.1366          2.5995
LJ           1.23762        -4.46517       -0.701036
LJ            4.8636        -2.33763         1.23184
LJ          -2.37328         5.90742        -1.53158
LJ           3.89718         2.57859        0.674316
LJ         -0.441338        -3.27038        -1.97308
LJ          -6.25875        -5.70953        -4.64795
LJ          -4.96017         4.57662        -1.51794
LJ          -1.16687        -1.11299        0.252348
LJ          -4.00772        -2.16347         1.69867
LJ            2.5872        -1.25514        -2.61966
LJ          -5.00742        0.500148        -3.39829
LJ           4.26922         1.98977        -6.35435
LJ           5.18291         2.51931          4.1924
LJ            5.5874         3.80563        0.518174
LJ           4.53628        0.464627         2.97909
LJ          -5.53127        -4.25841        -2.28034
LJ           3.82828         4.25727        -1.92624
LJ          -5.88451          4.4376        -4.01447
LJ          -6.36072        -1.41088          2.0908
LJ           1.89464         1.13683         3.24946
LJ          -4.60556         -3.4529        -2.39806
LJ           5.46926         1.93541        0.622626
LJ          -6.38686         2.74147        0.675864
LJ          -5.10813         2.12412         6.09097
LJ           6.44074        -4.36475         4.88726
LJ          -4.38043         -2.8048        -3.54694
LJ           -4.3503        -3.71936        0.972645
LJ          -1.71627         4.86601         3.11365
LJ          -1.61612         5.19892        -1.96589
LJ          -0.57559        -6.13191       -0.181182
LJ           2.98687        -2.87729       -0.380059
LJ          -5.50817        -5.81857        -1.85731
LJ           2.18807       -0.482632         4.63699
LJ           3.64683         6.27348        -4.29376
LJ          -2.21595        -3.37088        0.163717
LJ           6.02463         2.66359          5.6478
LJ          -2.98872         2.89908         6.17148
LJ          -4.76766         5.36124          1.0878
LJ          -4.11065         5.10728         2.04905
LJ          -4.31772          -3.832        -4.16482
LJ          -1.29029        -2.59939        -5.70648
LJ          -4.22828         2.60468        -5.99376
LJ           4.87161         4.65713       -0.335771
LJ          -3.02654          2.1031        0.791679
LJ         -0.986964        0.362227        -1.75053
LJ          -1.20461        -1.43877        -2.38201
LJ           4.72877        -5.89074          1.9378
LJ            3.3142        -2.42016         3.59875
LJ          -6.04282         3.70403         1.37163
LJ            3.3287        -5.34651        -5.97278
LJ          -1.84571         5.54269        -4.03275
LJ            3.1486         3.86308         1.68875
LJ           1.45244        -1.17936        -6.13821
LJ           1.09337        -2.34728         4.42016
LJ          0.368161       -0.689484         0.99948
LJ          -6.38173        0.970974         5.59044
LJ           -1.0216       -0.213073         -4.4391
LJ          -5.48215         -3.3416        -5.52019
LJ           1.83404         4.43213         3.56436
LJ           5.46237         1.50777        -3.84412
LJ           3.46298        -3.52715        -5.42375
LJ           -3.7566        -2.88303        -4.43688
LJ          -4.34281         2.44536         5.18466
LJ           3.64635         4.20374         3.43407
LJ          -1.20359        -5.52446         1.21474
LJ          -4.33355        -1.87404        -2.53768
LJ          0.114244       -0.997298        -5.08363
LJ         0.0711449        -3.63235        0.155561
LJ         -0.552435         2.04794         5.39891
LJ          -1.79426         5.39047         4.14113
LJ            4.3498       -0.262125         4.90821
LJ          -4.69987        -6.06461        -1.22222
LJ           3.57756         2.71283        -5.79797
LJ          -2.93595        0.522125         1.65601
LJ           1.48726        -4.14421        -2.81292
LJ          -3.94229        -5.67541        -2.15304
LJ           1.52985         3.90816        -2.41871
LJ           -2.6532        -3.20347        -4.26789
LJ            3.0604         6.27384        -2.27648
LJ          -5.19306         3.23743         3.97226
LJ          -3.99839         2.59824         1.45114
LJ          0.406266         5.28582        -5.98971
LJ          0.669978         5.13852         2.54555
LJ          -5.68535         5.56808        0.260573
LJ           1.98652        0.802824        -1.37108
LJ         -0.275854         5.14996         4.95787
LJ          -6.15964          3.5406         -3.0817
LJ           4.16707         4.80203        -2.97783
LJ           4.38086         5.34381         6.43166
LJ           -1.5581        -4.65515        0.841789
LJ           5.64729        0.929471         1.65357
LJ          -6.25446        0.495604           1.772
LJ          0.983642        -1.63499        -1.57095
LJ           3.75183         4.90185        -3.99379
LJ           0.65772         1.07113         4.87385
LJ          -5.66246        -4.12591       -0.911062
