108
#Comment!
LJ           6.04126        0.846601         -3.1101
LJ         -0.749492          4.5185       -0.285491
LJ          -5.03419         -4.0981         4.43438
LJ         -0.216207       -0.239147         5.86135
LJ           2.45004         -1.4405         3.77818
LJ          -4.86962        -2.45399         3.76098
LJ           2.90549         4.64681       -0.299218
LJ           4.39004         4.96357          4.0572
LJ            2.1403         1.82851         -4.3151
LJ          -4.85504        -5.63679         -2.0497
LJ           2.76516        -3.22401       -0.267566
LJ           2.72856         1.00761         2.75632
LJ           2.91454        -3.73411        -1.66161
LJ           3.90163        -2.04621        0.229972
LJ          -2.53598        -4.57548       -0.623907
LJ           6.00866         1.97318       -0.574316
LJ          -1.39215        -4.44781        -1.32967
LJ          -4.57815        -4.65044        -2.58812
LJ          -1.16718        -5.43326         -2.4497
LJ         -0.898838         3.13984        0.132457
LJ           5.14324        -1.84416         5.01605
LJ           5.98949        -1.18484       -0.276498
LJ           -4.3022         1.82258        -2.25111
LJ           3.29894        0.677883        -3.47551
LJ           6.05318         1.55938         1.19885
LJ           6.01047         3.53995       -0.503764
LJ          -4.80565         1.78508         2.60561
LJ          -5.45239         -5.9861        -1.13292
LJ          -5.89469         2.04531        -3.54696
LJ           4.99857         5.24574        -4.73611
LJ          -4.76527        -2.00745         2.26292
LJ           4.49152        0.719224         3.17826
LJ          -3.80605         -4.1423       -0.165393
LJ            5.7922         1.38254        -1.52637
LJ          -5.03638          2.6792        -1.44257
LJ          -5.75502         3.80215         5.11368
LJ          -5.83177         4.36567         6.05209
LJ          -5.74982        -2.57346        -3.80973
LJ          -3.71991        -2.76958         1.43252
LJ          -3.05055          3.7988         4.36715
LJ           2.26407         3.06671        -3.86506
LJ          -4.25289        -3.02807       -0.147523
LJ           2.38254         1.37993         -2.9569
LJ            -6.414        -5.97773        -3.73638
LJ            2.5227       -0.421085         2.85864
LJ          -5.07351        -3.18906        -5.83145
LJ          -2.61441        -3.70843        -1.82022
LJ            -4.469         4.40945         3.74229
LJ          -2.81083         1.01568         4.92258
LJ           5.65214         5.25754         3.24404
LJ          -3.23993         3.51928         1.81694
LJ          -5.73725        -3.49643        -4.64964
LJ          0.180941        -2.10775        -5.74034
LJ          -2.73513        0.246228         6.15554
LJ           3.74907         2.29423         3.55659
LJ             -4.45         3.99474       -0.619016
LJ          -1.29774        -1.54143        -4.25276
LJ         -0.631424        -2.65471         -3.1188
LJ          -6.43701         5.72898         1.93389
LJ           4.71673        -1.40989         3.25692
LJ           2.57561         4.13687         1.74803
LJ           4.01664          5.5292        -5.95108
LJ           5.51891         4.42825        -2.91283
LJ           1.76251         4.80715         2.83685
LJ           4.07713         -4.7101         4.70921
LJ          -1.25909        -3.57496         -6.2603
LJ          0.443616        -4.98012        0.864148
LJ           4.27434       0.0382144        -5.49782
LJ          -2.14543       -0.490385        -2.18556
LJ           4.66024        -1.50816        -4.36353
LJ            4.0089         5.12532         5.46968
LJ           4.29212          2.5486        -3.56292
LJ           1.76382        -1.01275         -4.2933
LJ          -6.32769        -2.56613        -5.18198
LJ          -3.45449         2.33982         5.48971
LJ           4.27574         3.84109         3.12473
LJ           1.44145        -6.36018        0.743052
LJ          -5.41209          -2.315        -2.80485
LJ           1.62362        -3.52361        -1.56634
LJ           1.99772        -4.04908         2.29562
LJ         -0.939195        0.832708        -5.99787
LJ          -2.05823         4.18322          4.7327
LJ           6.14313         -3.0521         2.65151
LJ          -4.05621         5.55279       -0.503598
LJ           1.50384         4.13438         6.14238
LJ          -2.29095       -0.213213         1.65319
LJ           1.27649        -4.09978       0.0191962
LJ          -5.75111        -6.31982        -2.20381
LJ           2.37872         3.74665       -0.897297
LJ          -3.12954        -4.40116        -4.40137
LJ           3.33923        -4.66497        -4.00089
LJ          -5.80717         2.64239         1.13306
LJ          -5.07058         3.23552       -0.320623
LJ           1.79122         5.76748         3.25946
LJ           1.01695        -5.10961         2.62325
LJ          -5.28426         5.39849         2.64578
LJ           1.27634        -2.32726        -3.13118
LJ          -1.83839         4.60527         3.60237
LJ           5.86038         5.84107        -3.75944
LJ           3.42042        -6.18343         -3.8046
LJ          -6.40472         6.24475         4.76382
LJ          -2.33608        -2.26245         3.87454
LJ           5.04195          4.0705        0.124599
LJ          -4.45148        -1.21824         1.29256
LJ            2.8085        -2.21956       0.0393448
LJ            3.5353        -6.44809        -5.07341
LJ          -2.97383         2.35211         4.64817
LJ          -5.84939        -5.03027       -0.378293
