108
#Comment!
LJ           5.16235         1.00038        -3.54938
LJ          -1.51934         5.88546       -0.454078
LJ           6.42474        -3.38238         5.57845
LJ         -0.527258         0.96814         5.68724
LJ           3.48165        -1.93196         3.10214
LJ          -4.64301        -3.76418         4.12503
LJ           3.09258         5.26459       -0.130363
LJ           4.49106         4.83353          4.9288
LJ           1.73081         3.74082        -6.33981
LJ          -5.43116         -5.5302        -1.91145
LJ          0.672033        -2.60252        0.395366
LJ           2.75887        0.218832         2.80719
LJ            3.2901        -4.01876         -1.8949
LJ           4.65224        -1.77667       -0.280927
LJ          -2.73559        -3.33288       -0.505617
LJ           6.08049          1.5895        -1.16182
LJ          -2.36425        -5.14784       -0.850293
LJ           -3.6902        -4.55433         -1.3085
LJ        -0.0387138        -4.19027        -2.39806
LJ         -0.656035          4.5649        0.302139
LJ           3.35391         -1.5249         6.20286
LJ          -5.51156        -1.17786        0.855355
LJ          -3.94201         1.81893        -1.87824
LJ            2.2374        0.181197        -2.25792
LJ          -6.20455         1.49062       -0.311895
LJ           5.06477         3.27029        -1.38177
LJ          -3.28882         2.34652         2.48305
LJ          -5.37614          6.2015       -0.763958
LJ          -4.51124        0.896215         -4.1728
LJ           4.22486         5.85054        -4.82285
LJ          -5.30802        -1.25231         3.68159
LJ           5.47726         0.55186          3.1388
LJ           -3.0766         -3.6328        0.662393
LJ           6.08139         1.44552        -2.39774
LJ          -3.83382           3.882         -1.9874
LJ          -5.86364         3.79907         3.57914
LJ          -5.84766         3.38635        -5.55218
LJ           6.43018        -2.47589        -4.24252
LJ          -2.57078        -3.01419          1.2603
LJ          -3.31182         3.31486          4.9612
LJ           4.12411         2.49779        -4.47816
LJ          -5.42346        -2.33124         -1.0562
LJ           2.73832          2.7797        -2.87373
LJ          -6.38274        -6.00003        -4.26472
LJ           2.21333        -1.71013         2.25017
LJ          -3.27983        -1.41644        -6.01315
LJ          -2.60159        -4.30243        -2.28892
LJ          -3.33531         5.09996         3.07919
LJ          -2.72804        0.318922          4.7593
LJ           4.50295         5.32945         3.73829
LJ          -2.83667         2.89875         1.60538
LJ          -6.27475        -3.37692        -5.09041
LJ          0.649662        -2.04387        -5.73236
LJ          -1.94743       -0.170388         5.55717
LJ            3.9903         1.69112         5.12583
LJ          -4.79552         5.18586        -1.45312
LJ          -1.96236        -1.76717        -5.30961
LJ         -0.288822        -3.03581        -3.52936
LJ          -5.31318         4.86333         2.48878
LJ           5.52301       -0.914553         3.16721
LJ           1.30809         3.77193         1.40945
LJ           4.46009         4.71481        -5.79546
LJ           2.88372         4.04039        -2.51341
LJ          0.171105         4.79167         3.70364
LJ           5.24216        -6.32587          3.7676
LJ          -2.28197        -4.34414        -5.35172
LJ          0.748238         6.03572        0.702334
LJ           3.18566       -0.327013         -4.7792
LJ          -2.52542       -0.738281        -1.15578
LJ           3.51978       -0.743586        -3.68046
LJ           4.89558         5.44016         6.32766
LJ           4.23936         3.34786        -2.79823
LJ           1.50522        -0.96807         -4.7946
LJ           5.56066        -2.59662         -5.2698
LJ          -3.49428         2.15109        -6.36617
LJ           5.03421         4.40579         3.41804
LJ           2.55131         6.27909        0.622577
LJ          -5.91182        -2.65746        -3.04493
LJ           3.15771        -4.94743       -0.101832
LJ           2.52977        -4.45077         3.20726
LJ          -1.07953        0.181393        -5.55613
LJ          -2.30771         3.57749          4.4678
LJ          -6.02204        -4.24938         1.74231
LJ          -3.75766         3.64115        0.582783
LJ          0.597677         4.76678         5.68927
LJ           -2.0174       -0.554723           1.646
LJ           1.43238        -3.82755         1.42005
LJ          -6.38675        -5.96393        -2.17475
LJ           2.44631         3.21718       -0.670089
LJ          -3.40407        -4.92279         -4.4469
LJ           3.55555        -4.05127        -4.78953
LJ          -5.80589         2.16642        0.698221
LJ          -4.57478         2.49665        -1.33164
LJ           2.53359        -6.33132         1.65902
LJ           1.48339        -3.75151         2.50605
LJ          -5.47112          5.2528         3.78895
LJ           1.10441        -3.78385        -3.34507
LJ          -2.98185         4.08534         3.44827
LJ           5.01154         6.42032        -4.43673
LJ           2.97268        -5.02166        -4.58145
LJ          -5.25907        -6.41632         3.99437
LJ          -2.37211       -0.962121         4.64496
LJ            4.2682         5.46536       -0.769703
LJ           -3.7259        -1.76993        0.677538
LJ           2.36305        -1.98797        0.936682
LJ           3.65461        -5.84931        -5.38334
LJ          -4.17122          2.9544          3.7691
LJ          -5.74515        -5.52184       -0.424392
