108
#Comment!
LJ           -6.1814         5.64502         6.12785
LJ          -4.24554        -3.49684         5.93646
LJ          -6.03165        -4.39392        -5.29276
LJ          -4.24162        -6.18839        -5.15439
LJ          -1.79557        -5.09227        -6.45765
LJ          0.372032        -3.63036        -6.29568
LJ          -2.41419        -4.77214         -3.6679
LJ         -0.177462        -6.20936        -4.77264
LJ           1.75816        -6.22408         6.28065
LJ           4.20458        -4.88943        -5.61119
LJ           2.38348        -5.12924        -4.20074
LJ           4.60681         6.12021        -3.75671
LJ           6.00343        -1.81168        -5.68906
LJ          -4.52672        0.291017         6.40579
LJ           6.34466        0.772172        -3.76723
LJ          -4.57898        -1.58686        -4.31897
LJ          -2.46736        -1.46016         5.96672
LJ          0.356343        -1.01146        -5.78863
LJ          -1.86527        0.392636        -4.35967
LJ          0.769772        -2.33216        -3.56758
LJ           3.48111        -2.36748         6.28667
LJ           5.22177         0.67884        -6.31336
LJ           3.32508        0.158422        -4.96327
LJ           3.42669        -2.67227        -3.90802
LJ           -5.5944         3.08146        -6.28292
LJ          -3.69749         4.30089          6.3297
LJ          -5.40534          4.6818        -3.98215
LJ          -3.92246         2.70099        -4.15989
LJ          -1.79358         1.61281         6.18328
LJ          -1.18058         4.72704        -6.11929
LJ          -2.50261         4.86878        -3.76025
LJ         -0.189098         3.30255        -4.05746
LJ           2.25609         2.37346        -6.04077
LJ           4.38435         3.80213         6.04849
LJ           2.34601         4.71239        -4.83626
LJ           4.31793         3.09926         -4.0346
LJ          -5.67512         6.24827        -1.92898
LJ          -5.44804        -3.84307        -2.90742
LJ           -5.4697        -4.45166       -0.486189
LJ          -4.51738         6.02042        0.517486
LJ          -2.62544        -6.36035        -1.49118
LJ         -0.266564         -4.9618        -2.36297
LJ          -2.57399        -3.87461     -0.00292466
LJ         -0.367229         6.38746        0.372408
LJ            2.1529         5.85318        -2.18008
LJ           5.16062        -4.20305        -2.22528
LJ           2.52545        -5.51229         0.53367
LJ           4.76823        -6.36492       -0.429616
LJ           6.15212        -1.53671         -2.5478
LJ           -4.3673         1.00589        -1.77304
LJ           6.18469       0.0767478       -0.310565
LJ          -4.71889        -1.87845       -0.583293
LJ          -1.92698        -2.08013        -3.15997
LJ          0.502091        0.659507        -3.41484
LJ          -2.04252       -0.326729        -1.00846
LJ          0.103416        -3.46841      -0.0545639
LJ           2.45634        -4.15291        -1.62804
LJ            3.8746        0.413033        -2.50954
LJ           1.65231       -0.697074       -0.443553
LJ           4.10037        -1.57904       -0.245724
LJ           6.16858          2.6587         -1.9267
LJ          -4.40161         3.71368        -1.43039
LJ           6.37524         4.03846        0.663261
LJ          -4.59454         1.93523        0.854055
LJ          -1.76727         2.52899        -1.71101
LJ         -0.682201         4.80073        -1.73667
LJ          -1.97978         4.14475        0.598836
LJ          0.306085          2.0793       -0.111685
LJ           1.88324         2.98512        -2.30297
LJ            3.8526         4.06049        -1.36386
LJ           2.00067         4.25823        0.256658
LJ           3.73478         1.79846        0.120531
LJ           6.34556        -6.26703         1.93069
LJ           -4.5747        -4.50478         1.93344
LJ           6.39526        -4.87612         4.30975
LJ          -4.11493         6.43255         4.02105
LJ          -1.96643         -5.7631         2.48402
LJ           0.22862        -4.64254         2.46314
LJ          -1.85571        -3.13702         3.84239
LJ          -0.58603        -6.19042         4.73919
LJ           2.21711         5.96165         2.69292
LJ           4.00266        -4.37642         2.17787
LJ           2.64373        -4.25762         4.45096
LJ           4.00338        -6.46289         5.02439
LJ           6.27041        -2.51817         1.05847
LJ          -5.45465       -0.414325         2.05811
LJ          -6.44212        0.598123         4.08997
LJ          -4.78581        -2.44431         3.74525
LJ          -2.87366        -1.67253         1.72462
LJ         -0.259456        -1.61418         1.82899
LJ          -1.30591        0.504707         3.60711
LJ           1.01729        -1.93677         4.22708
LJ           2.45902        -2.40139         1.65679
LJ            3.8334       -0.081245         2.03272
LJ           2.45274       0.0389102         5.23214
LJ           4.88994        -2.25144          4.2821
LJ           6.02775         1.74084         1.75942
LJ          -4.87043         4.37899         2.44503
LJ           5.93909         4.11642         3.85241
LJ          -3.93295         1.87457         4.11786
LJ          -1.74869         1.27525         1.01696
LJ        -0.0841578         4.25639         2.43736
LJ          -1.87168         4.02986         4.08571
LJ         0.0010148         2.20529         4.83218
LJ           1.55377        0.860423         2.90602
LJ           3.89138         3.79595         2.03045
LJ           1.38495         4.53891         4.71942
LJ           3.74671         1.84762         4.13783
