108
#Comment!
LJ           5.03288        -2.17877        -1.92332
LJ         -0.880456        -3.40632         3.35656
LJ           4.67022         5.21236       -0.530748
LJ           5.22123         1.63652         1.39211
LJ          -4.50405        -2.61587         0.71566
LJ           -1.4848         4.22555          5.8369
LJ          -6.08233         3.92479        -4.16098
LJ           5.49622          1.4532       -0.472246
LJ          -1.05949         1.10813          1.0433
LJ          0.285496         4.50316         2.86497
LJ            0.0168       -0.973786         1.21931
LJ           1.26149        -2.52205         3.23185
LJ           3.15133         5.82487        -1.74752
LJ          -4.27891        -4.56144         6.23763
LJ          -5.55663        -4.33121        -1.47862
LJ           1.06591         4.75885         5.19224
LJ          -4.35674        -2.18382         -2.4036
LJ           1.34304          3.7934         5.62686
LJ         -0.917913        -1.56576        -1.33693
LJ          -2.60275         4.52885        -1.16252
LJ          -1.75967         3.41882         2.71959
LJ          -3.60206         5.13727        0.288845
LJ          -4.67361         2.25706        -1.30528
LJ            5.7665          2.7784         -4.3958
LJ          -5.85287         4.87716          4.0555
LJ          -2.25815         2.54701         5.78892
LJ          -4.21906       -0.388651        -2.43636
LJ          -2.60983            2.13        -4.87402
LJ          0.149692          -4.546         3.09346
LJ          -2.78837       -0.165987       -0.220754
LJ          -2.05138          5.6566         5.02205
LJ           4.35271        -3.71542        0.149503
LJ          -4.98657        -4.03844        -6.17822
LJ            4.2407       -0.517403         3.62191
LJ           4.43258        -4.48911         3.94976
LJ          -6.09793         -4.1945        -0.69714
LJ        -0.0207604        -2.32163         -5.9075
LJ          -3.63964          5.0291         4.60276
LJ          -4.74099        0.497869         2.79782
LJ           2.55502        -1.39634         3.80295
LJ          -3.94908         2.74907         2.84694
LJ          -3.62983        0.328179        0.617543
LJ          -2.16759        0.760687        -5.70887
LJ           4.41474        0.135579        -1.83834
LJ          -4.44124        -2.21236         5.43941
LJ          -4.68235         1.51569       -0.170298
LJ           5.12033         3.97648        0.071418
LJ          -3.78272         -1.1822       -0.913978
LJ           5.67253        -5.04754        -5.08056
LJ          -6.04519          5.3946         1.06701
LJ          -0.36245         2.00506        0.837819
LJ          -4.24793        -5.82638         3.96619
LJ          -1.48367       -0.115211        -2.06606
LJ            -5.412        0.246639         1.99428
LJ          -4.77585       -0.556487         4.20929
LJ           1.45072         2.42345         -2.6507
LJ           2.09347         4.66014          6.1239
LJ          -1.75914       -0.968396        -3.88181
LJ          -3.47104         6.12901         4.96785
LJ           2.85423        -2.11254        -5.08443
LJ          -5.60493         3.71063         2.43974
LJ          0.848502         2.67586          0.9606
LJ          -2.81066         3.97193       0.0570914
LJ          -1.56299         2.64227         5.02641
LJ          0.146721         2.55757       -0.245297
LJ           1.58201         2.63144         4.97404
LJ           5.85533         3.09262        -6.07462
LJ           2.70254         5.48097         2.14449
LJ           2.26759        -5.49574         3.01926
LJ          -2.25449          1.1415        -2.88448
LJ           1.62575        -4.39893         5.71091
LJ          -3.86461         0.96066        -1.15715
LJ          -1.13913         -2.8333        -1.79752
LJ          -4.09665         6.13378         3.76607
LJ          -2.44799         3.00275        -5.93974
LJ          -1.80666       -0.047254         5.74884
LJ          -4.44881        -4.47941       -0.935806
LJ           4.67412        -5.06406        -3.02609
LJ           -4.3899        -2.23848        -5.35513
LJ           3.94633        -3.82584        -4.29059
LJ          -1.57723       -0.696577        0.279215
LJ          -3.55928         4.73744        -5.26821
LJ          -4.57107        0.742913        -2.28333
LJ           2.80881         5.97198         3.88373
LJ             1.712         4.40097        -3.08719
LJ          -4.52376         5.07543          2.5243
LJ          -6.18295        -5.35924        -4.97307
LJ          -4.33778        -3.20896         2.37589
LJ          -3.48337         3.43685        -4.21152
LJ           -5.1572        -2.04441         6.17054
LJ         -0.711762         1.53603         3.25404
LJ           1.83722        -4.04068       -0.254365
LJ           1.03741         4.07487        -5.62444
LJ          -2.30285         5.09873        -2.84479
LJ          -5.83744        -1.78038        -1.29917
LJ           5.41425        -6.04482       -0.842035
LJ          -1.88524       -0.412745       -0.941133
LJ           2.54088        -3.86301        -4.52913
LJ           -1.6207        -5.64868         4.66796
LJ           4.66794          6.3397         1.25882
LJ           5.88659       -0.057875         2.75811
LJ           2.65656         2.14093        -2.66647
LJ           6.34913        -1.61024         4.73595
LJ          -5.42349        -3.88674         5.66897
LJ          -3.11903          3.5923         4.28724
LJ           2.29391        -3.90565        -3.02834
LJ          -5.49847         5.72946          4.6539
LJ           3.46575        -5.72008         4.77445
