108
#Comment!
LJ           5.05137        -2.16118        -1.90376
LJ         -0.874243        -3.40103         3.33225
LJ           4.66601         5.24578       -0.521785
LJ            5.2059         1.67322         1.37858
LJ          -4.48605        -2.64308        0.730593
LJ          -1.49604         4.21133         5.83827
LJ          -6.09601         3.92282        -4.17656
LJ           5.51216         1.52672       -0.456044
LJ          -1.03037         1.10214          1.0034
LJ          0.233388         4.51282         2.89865
LJ         0.0124402       -0.983429         1.27399
LJ           1.25025         -2.5441         3.24735
LJ           3.20342         5.84291        -1.71752
LJ          -4.30189        -4.51988         6.25469
LJ          -5.58591        -4.34133        -1.46102
LJ           1.05118         4.75135         5.21304
LJ          -4.36432        -2.21995        -2.41941
LJ            1.3639         3.84134         5.61818
LJ         -0.882782        -1.54118        -1.32167
LJ          -2.58895         4.53313        -1.15801
LJ          -1.80099         3.45724         2.75484
LJ          -3.63494           5.118        0.313629
LJ          -4.65058         2.21465        -1.33207
LJ           5.76261         2.76914        -4.42621
LJ          -5.84609         4.86489         4.02341
LJ          -2.28528         2.54183         5.81038
LJ          -4.29123       -0.405552        -2.45024
LJ          -2.61746         2.16257        -4.93646
LJ          0.168605        -4.52894         3.09064
LJ          -2.79444       -0.167074        -0.22478
LJ          -2.02164         5.64951         5.04151
LJ           4.37445        -3.69463        0.109356
LJ           -4.9832        -4.06136        -6.16168
LJ           4.24383       -0.537537         3.60114
LJ           4.45671        -4.45422          3.9418
LJ           -6.0798        -4.17235       -0.692169
LJ       0.000512304        -2.30345        -5.92092
LJ          -3.62005         5.06869         4.59661
LJ          -4.74397        0.533871         2.77866
LJ           2.52065        -1.37552         3.79983
LJ          -3.93629         2.79138         2.80308
LJ          -3.57337        0.318706        0.610797
LJ          -2.16405        0.732178        -5.68355
LJ           4.43431        0.161636         -1.8055
LJ          -4.45013        -2.22251         5.45744
LJ          -4.65628         1.52884       -0.172897
LJ           5.14234         3.94801       0.0369101
LJ           -3.7879        -1.18182       -0.950694
LJ           5.65185         -5.0685        -5.05195
LJ          -6.07875         5.40626         1.09938
LJ         -0.313281         2.02632        0.815328
LJ           -4.2793        -5.81365          3.9576
LJ          -1.47765      -0.0719839         -2.0317
LJ          -5.44017        0.208067         2.00319
LJ          -4.76795       -0.554154         4.20229
LJ           1.44778         2.44746        -2.67289
LJ            2.1264          4.6576         6.09607
LJ           -1.7348       -0.949536        -3.86113
LJ          -3.43559         6.16329         5.00994
LJ           2.85472        -2.14285        -5.11812
LJ          -5.67618         3.70125         2.43475
LJ           0.80478         2.66997        0.923421
LJ          -2.82777         3.94982       0.0541622
LJ          -1.52591         2.64864         5.00961
LJ          0.129059         2.54026        -0.26433
LJ           1.54858          2.6144         5.00151
LJ           5.86896         3.07538        -6.06726
LJ           2.68737         5.49828         2.10341
LJ            2.2295        -5.48621         3.06609
LJ          -2.27088         1.11462        -2.91383
LJ           1.65565        -4.37876         5.67641
LJ          -3.87232        0.918374        -1.14293
LJ          -1.14222        -2.84806         -1.7963
LJ          -4.13034         6.12682         3.78405
LJ          -2.45898         3.00192        -5.97533
LJ          -1.79593      -0.0475056         5.73756
LJ          -4.43896        -4.48316       -0.979806
LJ           4.66389        -5.04761         -3.0328
LJ          -4.37475        -2.25335         -5.2972
LJ           3.91461        -3.83361          -4.308
LJ          -1.57959       -0.679132        0.333352
LJ          -3.58179         4.72336        -5.26285
LJ          -4.58627        0.731998        -2.27303
LJ           2.84533         5.95016         3.88316
LJ           1.69898         4.43789         -3.0609
LJ          -4.58568         5.04602         2.56267
LJ          -6.20742        -5.35303        -4.94307
LJ          -4.33844        -3.21145         2.38819
LJ          -3.51956         3.47673        -4.21385
LJ          -5.14968        -2.04113         6.12434
LJ         -0.700921         1.50456         3.22217
LJ           1.82981        -4.04442       -0.279892
LJ           1.06031         4.08957         -5.6438
LJ          -2.29238         5.12872        -2.78226
LJ          -5.83315        -1.77535        -1.27336
LJ           5.45746         -6.0555       -0.841751
LJ          -1.90899       -0.457959       -0.952937
LJ             2.539        -3.91095         -4.5004
LJ          -1.62713        -5.68795         4.70473
LJ           4.68586         6.31432         1.24847
LJ           5.91236       -0.101119         2.79026
LJ           2.65459         2.15601        -2.72223
LJ           6.41765         -1.6097         4.75058
LJ          -5.44006        -3.86085         5.66082
LJ          -3.12602         3.53367         4.24971
LJ           2.26667         -3.9376        -3.02041
LJ           -5.4485         5.68586         4.61234
LJ           3.52014        -5.70065         4.81911
