108
#Comment!
LJ           4.54509        -5.26306         5.41894
LJ           1.99707        -1.10019         5.75155
LJ           1.22826         1.28817       0.0870745
LJ          -3.43767         3.32232         4.26748
LJ           6.34174         2.19445        -1.07159
LJ         -0.266249         -6.2947         5.02727
LJ          -4.47834         5.63791       -0.665765
LJ           2.11198       -0.953545        -3.80378
LJ           4.91197       -0.386383        -3.61141
LJ          -1.13191        0.138673        -2.33004
LJ           1.42611         3.44858         -3.3172
LJ           5.02359         3.65316         1.22385
LJ         0.0597855         4.92016        -4.37201
LJ          -1.50136        0.306885        -5.26988
LJ           1.16292         6.05872        -2.96799
LJ          -5.61579         6.15934         2.39422
LJ          -2.07816         4.33379         2.08899
LJ          -1.40531        -5.98586         5.28892
LJ           4.67739         6.42838         6.01264
LJ          0.903266        -4.62289         1.77249
LJ          -3.00934        -2.25827         3.81242
LJ           1.48928        -6.36984        -6.30945
LJ           2.43322        -4.49537         3.99555
LJ          -1.39386         3.09887         1.82294
LJ          -4.94879        -4.44358        -2.04475
LJ          -4.38744      -0.0443121        -2.46721
LJ           2.56273        -6.20778         3.09679
LJ           2.72299        -1.98788        -5.17797
LJ          -2.20618        -4.68112         2.49585
LJ         -0.141112         2.03817       -0.708999
LJ           3.71724         3.65714        -3.75281
LJ          -2.89994         5.06452        -5.72923
LJ             5.069        -4.41288         3.89586
LJ          -5.29619        -4.71896         -5.8922
LJ           -3.8574         1.01751         5.34836
LJ           4.17619        -6.28509         4.40491
LJ          -5.16351         4.97062         2.27507
LJ           3.78416         1.06038         5.95291
LJ          -4.76267        -5.58052        0.142721
LJ           3.30862         2.47286        -1.12086
LJ          -6.35295       -0.104483         1.06806
LJ           4.72833        -4.14684        -2.08125
LJ           3.54075          2.5693        -5.19292
LJ          -5.87328          2.9129       -0.378529
LJ          -6.30601      -0.0139323        -3.58349
LJ          -2.41023        -2.71219        0.441192
LJ         -0.213928       -0.540117         1.96451
LJ          -2.44326        0.523416        -5.96316
LJ          -2.78573        -3.50136        0.891829
LJ          -6.04851          5.8324        -4.17949
LJ           2.08042        -1.34968         3.62554
LJ           2.49784         1.39682        -6.28633
LJ           4.81004        -3.21275        -5.18302
LJ          -0.20642         5.69439        -1.56517
LJ          -3.39745        -3.87567        -4.23255
LJ           1.55665        -2.04388        -0.42161
LJ           2.85817         2.71493         3.09569
LJ           5.99737        -4.58502        -5.89471
LJ          -4.48225         4.98903         5.50129
LJ          -2.98556        -3.24175        -2.94126
LJ          -6.22209        -5.33722         3.01521
LJ          -5.57353         4.23503       -0.167315
LJ          -4.09418        -5.90955        -2.72846
LJ           4.92852         4.63771          5.3847
LJ           1.60552         3.85975         2.54056
LJ           1.94521        -6.34561         1.99893
LJ           1.57865         5.36067         5.31784
LJ           2.01182        -3.92005       -0.560544
LJ          -1.03749        -1.24281         1.56888
LJ           3.19092         4.76158       -0.629282
LJ          -4.05492         5.67218         -2.3853
LJ          -4.82507         6.25616        -1.45065
LJ          0.138609        -2.47868        -5.31148
LJ           4.07113         1.81693        -6.12395
LJ         -0.324665         3.28977        -3.12448
LJ          -5.11446         1.70135        -2.97102
LJ           5.55218       -0.920923         4.69255
LJ          -6.31236         5.30847        -1.75058
LJ           4.38121       -0.564043         4.27682
LJ           5.16243        -3.29553        -2.30643
LJ          -1.18787         4.02406        -3.51906
LJ           1.74665         5.53631        -6.35056
LJ          -3.96741         1.25001        -1.14496
LJ           3.60719         0.23074         2.47352
LJ           2.87364        -2.16649        -4.08656
LJ         -0.316269         5.63545       -0.419712
LJ           -1.7283        -3.50303        0.438068
LJ          -4.21109        -3.62415        -0.82366
LJ          -3.78546        -1.97518         4.87409
LJ           2.98481         5.98235        -3.83043
LJ           4.05692         5.63701         2.98516
LJ           1.80451        -4.17661         1.46373
LJ          -3.98014          3.5951        -2.32669
LJ            4.9897         2.69623         6.26352
LJ          -5.93083        -4.15248         6.08034
LJ          -3.93966         -2.1691       -0.986715
LJ           2.98943         3.69203        0.322231
LJ          -1.70944         3.77805        -5.90572
LJ          -2.98689         2.11243        -4.31427
LJ         -0.212006       -0.965572        -1.25781
LJ           2.64315         -2.5393          5.5681
LJ           1.17178         -2.8033         6.25283
LJ            6.1637        0.485957        -6.10587
LJ         -0.616841        0.976143         3.83017
LJ           -6.3433        -3.14869        0.165511
LJ          -3.28479        -5.19575         4.12688
LJ          -1.76217       -0.376367        0.391545
LJ          -2.16505        -5.27833        -1.02454
