108
#Comment!
LJ           2.71476         5.82405        -1.92143
LJ           3.25017         4.27371        -6.01453
LJ          -3.17584         2.23803         5.84633
LJ          -5.97541         3.63629         3.59188
LJ          -2.71996        -1.70335         5.14339
LJ          -1.45251         5.27459        -4.90012
LJ           5.97829       -0.470755        -2.50334
LJ          -5.98771         3.74547         2.56777
LJ          -3.68584         4.74764       -0.714364
LJ           5.92186        -3.19252         1.60767
LJ          0.481875        0.908765        -3.66436
LJ           4.39019        -6.15739         1.30956
LJ          -5.20273        -5.84948        -4.97668
LJ           0.67388        -4.33923          1.1386
LJ           3.77428        -3.48435          5.8145
LJ           -5.5756         5.71586         5.74784
LJ          0.862672         -1.0007        0.892546
LJ          -1.22048        -3.76992         0.48925
LJ           4.93839         2.98027         4.98922
LJ          -1.30797        -1.94255         1.93703
LJ         -0.930741        -4.27793         6.27457
LJ          -4.41567          5.7097        -4.68947
LJ          -2.53376        -4.11442       -0.374886
LJ           5.94355        -4.22414          1.1939
LJ          -6.28738       -0.655938        -1.69147
LJ           4.39672        -6.12053         -2.8272
LJ           2.48912        -5.99483          4.7455
LJ           3.72259       -0.889309         3.17007
LJ           2.14009         5.51426         4.80762
LJ           2.09374         4.51256         5.30679
LJ          -2.02107         1.68493        -3.56178
LJ         -0.148065         2.57683         2.36268
LJ         0.0205405         3.78734        -6.43792
LJ          -4.63397        -3.25726         1.11858
LJ           1.88503         2.58703        -3.90592
LJ           6.19666         -6.2545         1.17631
LJ          -4.80067         5.08877         3.79368
LJ          -3.32943       -0.253099        -5.21197
LJ          -2.82389        0.209265         6.04285
LJ          -4.49378         1.22908        -2.21419
LJ            4.3139         3.70889        -2.08572
LJ          0.155936         3.46832         4.74405
LJ          -3.40225         5.80206        -2.54578
LJ           1.42303         5.85164         -4.6066
LJ          -1.26059        -3.45125          1.9043
LJ          -4.24628         2.78699        0.994899
LJ           3.82659         6.35788        -1.89815
LJ          -4.30974         3.24113        -1.96156
LJ           5.38198         5.74457         3.82372
LJ          0.999945         4.05515         -4.8023
LJ           2.76961        -1.44383        0.977613
LJ           6.25477        -4.78027         3.69426
LJ           3.70664          -1.085        -1.74216
LJ           4.29779         3.48279       -0.752424
LJ          -4.21087       -0.335749        -1.80309
LJ           2.76273        -0.28794        -2.58243
LJ           5.05614         -4.2031        -4.27563
LJ           2.36327        -2.89175        -3.14018
LJ           3.59055        0.169881        -4.60363
LJ          -4.91793         5.74753         4.70886
LJ          -4.54987         4.79313          1.2362
LJ            6.1122         5.05075        -1.54331
LJ          -2.44871        -5.70464       -0.310068
LJ          -4.44344        -4.32262        -1.79242
LJ          0.747367         4.68446         6.05958
LJ           5.16264        -5.38735        -1.77053
LJ           4.15105        -2.90817        0.680968
LJ          -3.00819         3.74244        -3.58557
LJ          -3.38618        -1.13855        -3.98518
LJ           3.63703         5.17177        -4.42226
LJ         -0.952451         1.82956        -3.21939
LJ           5.78202         5.65094         2.71995
LJ          0.317542         4.92851        -5.89098
LJ          -4.98557        -4.65121         4.08598
LJ           6.36479        -3.13175        -3.55222
LJ          -3.43901         4.33254        -2.27298
LJ           3.79704         3.35908         2.61017
LJ           0.12716        -2.94039        -1.73219
LJ           5.72036         0.76676        0.545107
LJ            5.0619        -3.08173        -6.17433
LJ          -3.80774        -5.62325        -4.21171
LJ           1.07499        -2.84978         6.42956
LJ         -0.383541        -6.37133         2.12421
LJ           2.23413         3.08815         2.63046
LJ          -2.24146        -3.36435        -3.39919
LJ          -4.07548         1.06673        -5.83333
LJ          -1.10794         0.21823        -1.55248
LJ          -4.75827         6.26374        -3.10974
LJ           3.06544       -0.346087         0.46957
LJ          -4.29928          2.6526         2.41965
LJ           3.37565        0.830362       0.0852912
LJ         -0.687947         6.11308         5.23443
LJ          -1.01541        -3.49389        -3.01776
LJ          -1.28631       -0.118874          4.9843
LJ           6.04066         2.74151         3.89158
LJ          -0.47462          4.9816        -4.00851
LJ           2.79092         1.30043        -6.08899
LJ           1.76925        0.360157        0.313976
LJ           4.39521        -4.73247        0.784901
LJ         -0.498805         6.10963        -5.73391
LJ          -6.24918        0.589134        -4.16347
LJ          0.357309         6.21277         3.06302
LJ          -3.70256        -3.13615        0.791775
LJ          -2.61875         5.16644       -0.147952
LJ          -5.28064           4.757       -0.575471
LJ          -2.14845        -5.95241         5.21347
LJ           4.42338        -5.06966            3.17
LJ          -5.43877         5.96608        0.116622
