108
#Comment!
LJ          -3.81613         5.42752         6.18936
LJ           6.35494        -3.50307         5.96503
LJ          -3.72483        -4.43597        -5.32304
LJ           6.37739         -6.1509        -5.18778
LJ          0.522447        -4.91159        -6.42817
LJ          -1.94183        -3.83546        -6.32001
LJ        -0.0973352        -4.86986        -3.32709
LJ          -2.49632        -6.16514        -4.75688
LJ           4.08214        -6.25062         5.95131
LJ           1.88445        -4.99708        -5.35707
LJ           4.70192        -5.11391        -4.42101
LJ             2.271         6.12585        -3.70826
LJ          -4.61221         -1.7705        -5.42473
LJ           6.08481        0.283174         6.41093
LJ          -4.27739        0.790023        -3.73497
LJ           6.01856        -1.62335        -4.53158
LJ         -0.127444         -1.3732         6.21541
LJ          -1.97068        -1.09952        -6.02311
LJ          0.316882        0.193795         -4.9845
LJ          0.392288         -2.9725        -4.61216
LJ           5.79791        -2.37375         6.24342
LJ           2.88716        0.583285        -6.15272
LJ           5.63869         0.26345        -5.23608
LJ           1.07964        -2.69005        -3.91365
LJ          -3.26725         3.55943         -6.3622
LJ          -6.02812         4.09998         6.41447
LJ          -3.08564          4.6413        -3.99686
LJ          -6.23313         2.72641        -4.15868
LJ          0.513802         1.70766         5.94852
LJ          -3.52789         4.70015        -6.11284
LJ         -0.192391         4.75625        -3.76912
LJ          -2.51413          3.4423        -4.02264
LJ            4.5852          2.4263        -6.08158
LJ           2.05208         3.76623         6.02403
LJ           4.65999         4.69342        -4.78283
LJ           1.99744          3.1543        -4.01985
LJ          -3.35871         6.23246        -1.91862
LJ           5.10185        -3.85028        -2.91444
LJ          -3.13564        -4.45923       -0.462771
LJ           6.08964         6.05845        0.676163
LJ          -0.30099        -6.35764        -1.51138
LJ          -2.58722        -4.98433        -2.68515
LJ          -2.44085        -5.00628        0.126282
LJ          -2.67828         6.39608        0.335042
LJ           4.47959         5.84626        -2.24884
LJ            4.3612        -4.32163        -3.56062
LJ           4.83364        -5.74097        0.271596
LJ           2.45147        -6.12126       -0.177984
LJ          -4.46056        -1.54212        -2.58253
LJ           6.23221         1.06038         -1.7428
LJ          -4.42912       0.0937962       -0.354663
LJ           5.89086        -1.86995       -0.533258
LJ          -1.50093        -1.43075         -2.1207
LJ          -1.67959        0.828192         -2.8143
LJ          0.259477       -0.315218        -1.00902
LJ        -0.0695831        -2.35015       -0.184458
LJ           3.32639        -4.06953       -0.332523
LJ           1.57489        0.414246        -2.50093
LJ           3.61249        0.200073       -0.645768
LJ           2.14545        -2.47535     -0.00714246
LJ          -4.38866         2.76101        -1.83632
LJ           6.16893         3.51292        -1.50441
LJ          -4.23839         4.04917        0.718012
LJ           6.31358         2.13246      -0.0237792
LJ          0.548576         2.51774        -1.61704
LJ          -3.00052         4.86908        -1.75121
LJ            0.3339         4.14592        0.635191
LJ          -2.01544         1.93689       0.0519132
LJ           4.20541         3.20024        -2.17628
LJ           1.52526         3.90043        -1.43894
LJ           4.32105         4.22646          0.1816
LJ           1.41998         1.80142        0.126336
LJ          -4.25575        -6.27699         1.80096
LJ           6.04123        -4.57175         1.92624
LJ          -4.21478        -4.96349         4.29072
LJ          -6.43597        -6.40781         4.02421
LJ          0.397186        -5.75134         2.48289
LJ          -2.14182        -4.63846         2.47174
LJ          0.473861        -2.88182         3.90299
LJ          -2.88772        -6.16951         4.75419
LJ           4.51788         5.95128         2.69439
LJ           1.69578        -4.36922          2.1549
LJ           4.95024        -4.24315         4.44431
LJ           1.68802        -6.40492         5.39093
LJ          -4.33233        -2.48721        0.995759
LJ           5.17266       -0.394184         2.05286
LJ           -4.1333        0.938783         4.07823
LJ           5.83912        -2.45947         3.74792
LJ          -3.38099        -1.87661         1.37412
LJ          0.248502        -1.43646         2.19064
LJ            1.0131        0.533111         3.61984
LJ          -1.32089        -2.19007         4.15078
LJ           4.76214        -2.40483         1.63762
LJ            1.5118        0.185757         2.28069
LJ           4.77521        0.105201         5.31923
LJ           2.58241        -2.28007           4.323
LJ          -4.88106         1.53288         2.64142
LJ           5.74006         4.33948         2.61803
LJ           -4.6689         4.16624         3.60187
LJ          -6.25115         1.54039         4.09297
LJ          0.575321          1.4592        0.742424
LJ          -2.39736         4.24029         2.49791
LJ           0.44365         4.01366         3.98442
LJ          -2.31012         2.11444         5.03333
LJ           3.88505        0.666042         2.76283
LJ           1.58301          3.8193         1.97347
LJ           3.71152         4.52261         4.81387
LJ           1.42007         1.73209         4.04895
