108
#Comment!
LJ           3.68003         5.93046        -5.84608
LJ         -0.856854        -2.16622         6.14842
LJ          -4.88346        -1.54806        -3.76439
LJ         -0.546823        -1.88577        -5.63872
LJ          -5.59141        -2.64064         6.15305
LJ           4.82232       -0.523787         3.84214
LJ          -5.73722        -4.57287        -1.75741
LJ          -5.79457         4.74192       -0.548024
LJ          -2.34299         4.03432         5.37134
LJ           4.89783         -4.7702         4.10852
LJ           4.79827        -6.35369        -5.77799
LJ          -4.98518         4.89525        -3.32515
LJ           3.07114       -0.860181        -5.40249
LJ        -0.0110307        -1.11229        -6.14809
LJ           3.07919         1.58024        -2.55648
LJ           1.29631        -4.95715         0.39119
LJ           2.56412         2.39126         5.56032
LJ           4.15253         -4.4525         5.64901
LJ           1.53696         -4.0922        -1.83459
LJ           2.30675        -5.25166         4.64784
LJ          0.037051        -3.89458         5.95241
LJ          0.977119         5.99969         1.78728
LJ         -0.216279         -2.1483        -3.19109
LJ          -4.99649        -1.03057        -1.92435
LJ          0.903728         5.79061         4.99076
LJ          0.139313         1.31108        -5.93824
LJ           0.27674        -3.66892        -3.76732
LJ           0.94069         1.19449         5.60889
LJ          -5.24507        0.334752         4.64887
LJ           4.49486         1.42762       -0.798509
LJ          -4.25601         3.44396        -3.01292
LJ           5.46732         2.00247       -0.764123
LJ          -1.71895         2.58517         3.94789
LJ          0.963544         2.39005        -4.13578
LJ          -2.97068         6.26515         3.10146
LJ          -1.92758         -1.7858        -2.14352
LJ           4.09926         4.41714        -1.96106
LJ           -3.1867        -6.14521        -3.51075
LJ           3.50505        -4.14701       -0.315662
LJ          0.176036        -5.22233       -0.563684
LJ          -5.63042        -5.97328        -1.82364
LJ           3.78064        -6.33949        -4.78851
LJ          -3.97187         4.54564        0.726904
LJ           3.32972         5.10662         4.44016
LJ           -4.7441         5.65558         5.93875
LJ           5.12041        -5.05554         2.98296
LJ          -5.38237         2.86683         -1.0748
LJ          -4.64771        -6.28388       -0.378246
LJ            3.4234        -3.31316        -3.51786
LJ           1.18337         2.50296         4.40405
LJ          -1.55947        -5.84174         1.98775
LJ            -1.698       -0.886644       -0.508462
LJ         -0.611157        -3.78523         0.67374
LJ           4.55484         1.89546        0.136349
LJ           6.12082        -1.07574        -0.24268
LJ          -6.31468         3.82988        -1.99815
LJ          0.953671        -3.87851        -5.45621
LJ          -5.85018        0.628416        -2.91423
LJ           5.02321         4.39087         0.54576
LJ          -2.31045        -6.09888         -2.1196
LJ          -4.76835         5.02008         -1.6198
LJ           6.15654         1.39084         3.38335
LJ          -2.37437        -4.56921        -3.31784
LJ         -0.394575        0.533396        -3.45834
LJ           3.53618        -5.89908        -2.74869
LJ          -4.84087         3.28861          2.8341
LJ          -6.24073         5.44231         5.49812
LJ           3.50646         1.50554         1.44398
LJ           5.80396          6.1302         3.86669
LJ           2.76699        -2.04716       -0.481346
LJ            5.8706         5.79984        -2.44875
LJ         -0.821533         4.78765        -2.57658
LJ            1.6096         -5.6961         5.67061
LJ           4.83749         -3.1152        -2.86488
LJ          -2.64608        -5.35544         3.01457
LJ           2.98228         1.30029         4.57983
LJ           2.59229        -5.34716         3.18349
LJ           3.56525        -4.60806         3.83358
LJ          -1.97012        -3.69908         1.81709
LJ           2.51155        -1.71089         2.91078
LJ         -0.954158         5.97028         3.70292
LJ          -5.20279         -6.1704         1.92351
LJ         -0.462613        -4.06608         4.78713
LJ          -5.68975         6.28114        -5.51635
LJ          -1.50178         4.88027        -4.72053
LJ          -2.46609        0.671872         1.44579
LJ           3.66845         5.06503         5.97773
LJ          -1.91423       -0.694465          4.4695
LJ          -2.70055         3.11632         3.58077
LJ           5.94316       -0.763524          5.6984
LJ          -5.65912          2.8527         1.16612
LJ            5.8261        -4.86605         3.86374
LJ         -0.499136        -2.60513         1.60637
LJ          -3.75475        0.511269         2.29624
LJ          -3.28256         1.68652         3.67396
LJ           4.23598         3.73501         5.85026
LJ          -4.06652         3.33044         5.29416
LJ          0.310763         6.07046       -0.361462
LJ          -3.55622        -5.42705         5.29149
LJ         0.0418245         -3.2963         4.62992
LJ           1.29934        -3.05836        -6.00813
LJ          -1.89915        0.344296      -0.0639294
LJ          -6.39809         2.01606        -6.43635
LJ           4.76704         1.45472         4.74581
LJ          -1.51977        0.377495         2.64654
LJ           1.98547         2.28458         2.97655
LJ          -1.53991         4.83739         5.66447
LJ          -3.30865        -1.01237         2.55802
