108
#Comment!
LJ          -2.96123         1.06375        -1.74089
LJ           1.18541         1.47729       -0.447079
LJ          -1.83422         4.14053         1.79844
LJ          0.996708        -1.87504        -5.13499
LJ          0.863874       -0.521143         4.37259
LJ            -6.064      -0.0120319         4.15102
LJ           2.58366         4.17854        0.708083
LJ           4.18584         4.32127         1.73483
LJ          0.327137       0.0388566        -4.04632
LJ          -6.04975        -5.06445         6.40435
LJ          -4.87571        -4.68652          -4.774
LJ            1.2092         5.16166         1.03108
LJ        -0.0870439        -5.44724       -0.455384
LJ           5.46481        -2.46396         1.85164
LJ          -3.28288         5.90959        -2.16977
LJ           2.63027         1.75603        0.916529
LJ          0.264408        -3.35669        -1.91134
LJ           6.21993        -6.09136        -5.64694
LJ           5.58377         3.06297       -0.941918
LJ          -1.23901        -3.76261        0.174401
LJ          -1.81398        -2.16429       -0.661699
LJ         0.0911092        -1.24792        -3.73263
LJ          -5.61796       -0.225393         -3.6455
LJ           3.82905         2.10999         5.93495
LJ           5.67758         3.71876         5.18818
LJ           5.22003         3.55263         1.24426
LJ           2.57631       -0.251201         3.08938
LJ          -5.81273        -3.99694        -3.07454
LJ           2.65511         4.72154       -0.364921
LJ          -4.78155         3.56442        -3.11248
LJ            5.4926        -0.61806         2.58847
LJ          0.207193         1.26642         3.47422
LJ          -5.36074        -2.42659        -2.84935
LJ           5.10647         2.41303         1.56721
LJ           5.93822         3.76456         2.15066
LJ          -4.77132         1.49352        -6.26439
LJ           5.89678        -1.78106         4.21075
LJ          -2.99235        -2.83311        -3.64335
LJ          -4.62899        -4.19889        0.869789
LJ         -0.994872          5.7084         2.41596
LJ          -1.38815         4.26032        -2.16372
LJ           1.01945         5.04519        -0.22029
LJ           3.31497        -5.56135         1.16169
LJ          -4.59223        -6.11177        -1.07494
LJ           1.99858       -0.534447         6.07813
LJ           1.96156         4.11885        -3.48516
LJ          -1.76485        -3.56026         1.47081
LJ           4.50825         1.32224         6.29372
LJ          -4.00568         3.84425        -5.87029
LJ          -3.38805         5.65841         -0.7498
LJ          -4.99533         6.16006         1.67966
LJ          -3.63493         -3.9187        -3.86254
LJ          -2.40506        -3.12677        -5.24317
LJ          -5.04521         3.76632        -5.63527
LJ           6.25227          6.0146        -2.50797
LJ          -1.81425         1.15875         1.44619
LJ          -1.71894         2.20234       -0.216632
LJ          -1.47919       0.0858176        -2.24898
LJ           3.72512        -5.20955         2.00827
LJ            2.6663        -3.03229         3.95314
LJ          -3.87075         2.78071        0.435222
LJ           2.15697        -5.05386        -5.98673
LJ           1.36817        -6.15609        -4.32494
LJ           3.39361         3.78425         2.17924
LJ          0.368872         1.16657        -4.71847
LJ           2.50866        -1.99043         2.69407
LJ          0.260399         1.85488        0.962511
LJ          -4.90475         1.75993         4.58655
LJ          0.325991       -0.341859        -6.06473
LJ          -3.28589        -3.65915        -6.27875
LJ        -0.0291112         4.81952         3.71466
LJ           6.38093         1.10128        -3.87316
LJ           5.58371        -5.20439         -6.4303
LJ          -3.27701        -3.00282        -4.83923
LJ          -4.24791         2.04209         5.35905
LJ           4.49148         4.49762          3.0235
LJ          -2.11657         6.40436         1.68992
LJ          -4.34893        -1.96118        -2.44685
LJ         -0.630761       -0.242026           5.753
LJ         -0.482815         -2.9284        -1.03126
LJ        -0.0570532         2.57062         4.08234
LJ          -1.19356         5.95497         3.51055
LJ           3.16019         1.46396         6.26204
LJ          -4.53498        -6.17843         1.10856
LJ           4.97366         1.73065        -5.03022
LJ          -3.59752        0.900558          1.7963
LJ           1.84352        -3.93615        -4.18443
LJ          -3.65633        -4.94015        -1.24002
LJ          0.412186         3.63878        -3.09395
LJ          -1.16288        -2.81139        -4.13448
LJ           3.03128         4.79435         -1.3266
LJ          -4.24576         4.23003         5.64565
LJ          -3.02207         1.98442         2.33897
LJ         -0.389719         4.48159        -4.15136
LJ          -0.39182         3.75568         2.83238
LJ          -5.52307         5.40563       -0.346461
LJ            2.7892         2.53068       -0.101545
LJ          0.140174         5.46493         5.74728
LJ          -5.45379         2.53215        -3.04988
LJ           5.03352         4.45274        -2.46942
LJ           3.19448         4.78771        -5.38599
LJ          -1.76255        -3.94054        -2.06534
LJ            4.0574       -0.762653         2.77666
LJ          -6.40066         1.60462         1.12756
LJ          0.043069       -0.767018        -2.57195
LJ           3.18102         4.53062        -4.16657
LJ           1.94015         2.22862         5.79124
LJ          -5.23078        -3.72625        -2.02998
