108
#Comment!
LJ         -0.678105         5.96586          5.2185
LJ            2.9577        -3.01561         6.06575
LJ          -1.98792        -4.04697        -5.01289
LJ           3.07898        -5.14018         -4.9773
LJ           3.68734        -4.41985        -5.64483
LJ          -5.34673        -4.28441         6.42854
LJ           3.17961        -5.09738        -2.40959
LJ          -4.93133         6.44558        -4.02385
LJ          -5.75087         6.27589         4.90416
LJ           0.23378        -5.51663        -5.91158
LJ          -5.88888        -5.04874        -5.83669
LJ          -1.15953         5.80663        -3.54478
LJ          -1.26444        -1.44915        -5.14492
LJ           2.80429         0.18568        -5.81946
LJ         -0.802841        0.835481         -3.1343
LJ           3.04843        -1.99398        -4.67058
LJ           2.92983        -1.03733        -6.24416
LJ          -5.26645        -1.84977         6.44165
LJ           1.21719        -1.80797        -4.36676
LJ           1.38969        -5.47991         5.17688
LJ          -3.73795        -2.91101          6.0853
LJ           1.61179          2.3807         4.96389
LJ          -3.78988        0.558215        -6.41558
LJ          -1.73979         -2.3993        -3.20887
LJ         -0.454744          5.9971        -6.29519
LJ           3.72534         3.49854        -6.27977
LJ         -0.365932         5.35016        -4.24532
LJ           3.46559         2.09569        -5.10897
LJ           3.65111         1.63365         5.54521
LJ          -5.92611         2.86537        -4.48798
LJ           3.18848         4.27746        -3.75432
LJ          -5.56762         3.96057        -3.45056
LJ          -5.17181         2.46795         6.19309
LJ          -1.32623         3.71297         5.75705
LJ          -5.23735         4.90722         -5.3733
LJ         -0.705493         2.54024        -3.64133
LJ        -0.0419481         5.49822        -1.83735
LJ           1.32986        -4.36988        -3.26133
LJ        -0.0997516        -4.11905       -0.766915
LJ           2.70404        -6.37466         0.96898
LJ           3.08828        -6.11944        -1.65173
LJ          -5.80927        -5.31374         -3.7428
LJ          -3.31988         6.05519        0.125241
LJ           6.09815         5.54213         1.18589
LJ          -6.04843         6.31371         -3.3524
LJ           4.90653        -4.64792           6.311
LJ          -5.00934         6.39812       -0.565438
LJ         -0.935833        -5.67119        0.408857
LJ          -1.00691        -1.54602        -2.70444
LJ           4.11357         1.72305        -3.63085
LJ          -2.22429         2.01521        0.298738
LJ           2.50532        -1.76915       -0.386411
LJ          -1.77066        -1.46764       -0.402954
LJ          -4.67454         1.20242        -1.46973
LJ            3.2883       -0.539553       -0.928725
LJ           2.26514         0.67548       -0.748808
LJ           2.56822        -3.58404          3.1906
LJ          -1.84072        0.378226        -2.31688
LJ           4.85969         2.75212        0.540366
LJ         -0.110703        -4.52626        0.632016
LJ          -2.17633         3.25517         -1.6746
LJ           6.15276         2.61821        0.775716
LJ          -2.32633         4.34814        0.439781
LJ           3.37573         2.03967        -2.14441
LJ           3.83924          4.0769        -2.70624
LJ          -5.27529         5.38009       -0.958881
LJ           3.61747         3.90678         1.49576
LJ          -5.25127          1.4539        0.413015
LJ           4.53026         4.06732        -4.25209
LJ         -0.268393         2.19077        -1.46437
LJ          -5.56466         4.40901       -0.125608
LJ          0.415737          2.9762        -1.32333
LJ         -0.735454        -6.41459         1.79985
LJ           3.74271        -4.50506         1.08969
LJ          -0.93175        -6.06874         4.55173
LJ           3.10724        -6.28361         3.86897
LJ           2.93004        -5.62202         2.98897
LJ          -5.54272        -4.75948         2.49979
LJ        -0.0455313        -3.69667         2.08581
LJ          -6.02411        -5.06155         4.40218
LJ          -5.03383         5.85118         2.96723
LJ          -1.55929           -4.92         2.22885
LJ          -4.57011        -4.13018         4.55187
LJ          -1.57518        -6.20332        -6.37365
LJ          -3.98558        -5.50697       -0.946679
LJ            1.7587       -0.166655         1.89658
LJ         -0.714466         2.54136         4.68444
LJ           2.45733        -2.59763          3.7401
LJ          -3.54646        0.698787         2.31357
LJ            3.5269        -1.05209         3.40627
LJ           4.02628          1.3338         2.98549
LJ          -4.54999        -3.25854         3.88767
LJ          -4.82319        -2.38211         1.62764
LJ          -1.44902        0.779476         2.53237
LJ          -5.10377        0.443475         5.27471
LJ           2.98914       -0.349086         5.75145
LJ           -2.7416         1.14333         5.08826
LJ           2.62315         4.88927          2.6308
LJ          -2.24221         4.23293         5.12582
LJ           3.54339        0.111977         3.98198
LJ          0.822529       -0.057928         3.60032
LJ          -4.13363         4.14479        0.396362
LJ           3.65302         3.58008         4.21765
LJ          -5.50198         1.38852         4.84329
LJ          -5.76706        0.111579         2.48891
LJ           -0.3657         3.83295         1.72634
LJ          -5.81927         4.43822         5.33295
LJ          -2.02444        0.950824         4.45882
