108
#Comment!
LJ          -5.95656        0.873053        -2.53799
LJ          -0.11225         3.68029       -0.332006
LJ          -3.55011        -4.71473         3.24748
LJ        0.00408528        -1.41131         6.17988
LJ           1.68231        -0.82265         4.33799
LJ          -5.15312        -1.19365         3.28149
LJ           2.71014         4.43281       0.0944042
LJ           4.29552         4.84403         3.29076
LJ           1.90843      -0.0381088        -4.10405
LJ          -4.43797        -5.40606        -2.63706
LJ           4.61557        -4.21971        -1.20037
LJ           2.64789         2.67906         2.82674
LJ           2.22122        -3.43825        -1.02387
LJ           4.34457          -2.173        0.694836
LJ          -2.40961        -5.68411       -0.976945
LJ           5.56675         2.41001     -0.00442007
LJ          -0.95833         -3.6062        -1.80109
LJ          -5.54503        -5.16582        -3.59778
LJ          -2.81814         6.09283        -2.06568
LJ          -1.01839          1.2411        0.182744
LJ          -6.05598        -2.16077         3.72677
LJ           4.58368        -1.20274        -1.37697
LJ          -4.48467         1.24907        -2.84755
LJ           3.96592           1.421        -4.60993
LJ           5.64079         1.90107         2.58941
LJ           6.28069         3.84246       0.0226125
LJ          -6.42212         1.20894         2.80952
LJ          -5.45907        -5.18777        -1.44098
LJ           5.61641         3.07693        -2.85952
LJ           5.83533         4.84003        -4.58729
LJ          -5.33291        -1.97106         1.80679
LJ           3.39815        0.924883         3.20134
LJ          -4.22314        -4.49392        -1.14607
LJ           5.56971         1.42593        -0.56567
LJ          -6.09713         2.48153       -0.432858
LJ          -5.48193         3.04501         5.72787
LJ           -5.9952         6.18751         5.51173
LJ          -5.24807        -2.64395        -3.76152
LJ             -4.06        -3.20584         1.07377
LJ          -2.55671          4.1947         3.71269
LJ          0.531072         4.01663        -3.03265
LJ          -2.76106        -4.21582        0.261232
LJ           2.65103       -0.408993        -1.93101
LJ          -6.12902        -5.83978        -3.05621
LJ           2.45924       -0.420594         3.51376
LJ           5.95972        -4.77689        -5.23356
LJ          -2.48219        -3.43632        -1.00675
LJ          -5.60005         3.72521         4.44194
LJ          -2.89746         1.89481          5.4024
LJ          -6.20961         5.21156         2.55054
LJ          -3.58631         4.22205         1.92962
LJ          -5.05959        -3.71218        -4.50113
LJ         -0.319933        -2.16918        -5.79683
LJ          -3.43697         1.19104         -6.2284
LJ           3.91807         3.13124          1.8306
LJ          -3.74966         3.17687      -0.0166121
LJ         -0.575159        -1.31191        -3.17186
LJ          -0.90668        -2.32668        -2.71927
LJ           5.64947         6.40247         1.86648
LJ           3.96597        -1.88009         3.37925
LJ           4.45422         4.22604         1.71015
LJ           3.69665        -6.42722        -6.05033
LJ          -4.85337          4.8658        -3.42594
LJ           2.65059         4.42171          2.2866
LJ           2.93528        -3.14315         5.63097
LJ         -0.226023        -2.75212         5.83968
LJ          0.429247        -3.07954        0.974339
LJ           5.28811        0.446666        -6.32259
LJ          -1.74962       -0.278393        -3.21666
LJ             5.841        -2.30869        -4.89401
LJ           3.16941          4.7677         4.61878
LJ            4.6188         1.89137         -3.8593
LJ           2.26357         -1.2071        -4.35277
LJ          -5.14152         -2.6451        -4.91669
LJ           -3.8498         2.36067         5.32256
LJ           3.51904         3.67129         3.10716
LJ          0.261468        -5.98523        0.940455
LJ          -4.87598        -1.98939        -2.46692
LJ          0.483555        -2.02026        -2.98289
LJ            1.1088        -3.83215         1.33808
LJ         -0.775468         1.39332         6.36057
LJ          -2.09588         4.79029         4.61568
LJ           5.39566        -1.81479         3.62838
LJ          -4.47184        -5.61028        -1.31193
LJ           2.40465         3.51595         -6.3424
LJ          -2.57757        0.111852         1.66011
LJ           1.20484        -4.26836        -1.36777
LJ          -4.93755         6.43626        -2.31018
LJ           2.03911         3.86923        -1.55032
LJ          -2.86719        -3.87764         -4.3452
LJ           3.18782        -5.47142        -3.22917
LJ          -6.12103         2.85249         1.59256
LJ          -5.13597          3.0582         0.68861
LJ           1.17497         5.56752         4.91983
LJ          0.865926        -6.30393         2.62587
LJ          -5.36849         5.53895         1.36995
LJ           1.62565       -0.779382        -2.69344
LJ          -0.88331         4.87152         4.16102
LJ           6.27891         4.86963        -3.31822
LJ           3.78619         5.78411        -3.18218
LJ           5.45924         5.85617         5.48091
LJ          -2.40494        -3.78575         2.82465
LJ            6.0602         2.63663         1.03918
LJ           -5.1585         -0.6239         2.00508
LJ           2.02705        -2.46814       -0.817839
LJ           3.58344         5.71323         -4.7165
LJ          -1.25116         1.80104         4.59483
LJ          -5.85301        -4.57856       -0.553573
