108
#Comment!
LJ           4.03182         5.25076        -5.73213
LJ          -1.89761        -2.29652         6.19154
LJ          -5.74787       -0.761784        -3.29642
LJ          -1.98706        -1.41649        -6.06393
LJ          -3.94068        -3.49798         6.07117
LJ           3.96608        0.817802         3.37084
LJ          -4.58945        -4.74349        -1.43227
LJ           6.40041         4.37715         0.48691
LJ         -0.999281         3.69318          5.9373
LJ           3.85931        -3.84561         2.66988
LJ           5.50091          6.3886        -4.57516
LJ          -6.03059         4.53351        -2.89645
LJ           4.30333       -0.685361         -5.6191
LJ          0.448565        0.151773        -6.38284
LJ           4.17904         1.94103        -2.68885
LJ          0.777959        -5.81539          1.9591
LJ            2.1327         3.64477         4.97328
LJ           3.21017        -5.42019         5.16838
LJ           1.62623        -4.52219        -1.04418
LJ           2.24597        -4.18885         5.57991
LJ          0.817328        -4.54836         5.40709
LJ        -0.0220249        -6.23707        0.649848
LJ          0.768729        -3.12718        -2.00001
LJ          -5.97174       -0.608319        -1.63976
LJ           1.41794          5.7109         4.35874
LJ         -0.851031        0.467939        -6.03406
LJ          0.251363        -3.00671        -3.42596
LJ          0.467136         1.43535         5.20125
LJ          -4.09846       -0.383139         4.21512
LJ           3.58612        0.780552       -0.373806
LJ          -2.66109         3.38083        -2.65775
LJ           4.48338         1.45467        0.205322
LJ         -0.863207          2.9381         3.41034
LJ           2.10577         2.87209         -3.7671
LJ          -2.16325        -6.05613         1.72567
LJ          -2.21259        -3.09355        -1.68513
LJ           5.37487         4.11898        -2.00532
LJ          -4.35091          6.3637        -3.24509
LJ           4.28193        -4.10254       -0.384534
LJ        -0.0415154        -4.95531        -1.19198
LJ          -4.37112           -5.82        -2.06327
LJ           3.13541         5.87513        -5.05443
LJ          -4.33747         4.29495          1.1513
LJ            3.8114         4.40258         5.07913
LJ          -4.39727         5.55912         5.09595
LJ           5.22403        -4.84784         2.53085
LJ          -5.62461         1.81438        -1.18677
LJ          -5.18863        -6.01993        -1.05007
LJ           4.90161          -4.108        -3.65135
LJ          0.422855         2.33445         2.85891
LJ          -1.57272        -4.28879         2.59086
LJ          -3.11061        -1.03966       -0.836196
LJ         -0.312269         -4.2851         1.30643
LJ           3.88601         2.40179        0.766382
LJ          -5.96274        -1.21139      -0.0625016
LJ          -4.59769         4.53837        -2.28738
LJ          0.136032        -4.05217        -3.84544
LJ           5.92293        0.654322        -3.07149
LJ           5.21256         4.72796        0.364024
LJ          -3.22545         6.32418        -3.45718
LJ          -5.45054         5.40041        -1.79058
LJ           4.67453         1.34334         4.16428
LJ          -2.16939        -3.57349        -4.54279
LJ          -1.42334       -0.740629        -3.02365
LJ           2.64238        -4.68096        -3.03508
LJ          -5.04141         1.91081         3.96244
LJ          -5.48294         6.26569        -5.96629
LJ           2.28136         1.64562         1.93654
LJ             6.238        -6.30499         2.50886
LJ           3.68796        -3.36525      -0.0887936
LJ           6.33944         6.26199        -2.61745
LJ          -1.19991         5.33166        -2.96364
LJ           2.07745        -5.38897        -5.64766
LJ           5.01245        -2.81663        -4.12353
LJ          -3.73202         -5.5323         2.39072
LJ           3.02309       -0.379378         5.02756
LJ           1.94454         -5.5535           2.795
LJ           3.68171        -4.25891         4.86428
LJ          -2.37683         -3.4412         1.78552
LJ           1.03432        -0.84245          2.4983
LJ          0.199688         6.14335         3.95049
LJ          -6.18129         6.27761         1.64871
LJ         -0.302337        -5.75301         5.64727
LJ           5.91197          5.9057        -5.60695
LJ         -0.752058         4.17847        -5.83307
LJ          -3.49098          1.0654         1.20419
LJ           5.17662         5.89906         6.38486
LJ          -3.14641      -0.0783851         4.73651
LJ          -2.09025          4.0259         3.93909
LJ             5.645        0.519114          5.4037
LJ          -4.63329         3.31869         0.58959
LJ           6.26084        -5.62574         3.30885
LJ          0.720595        -3.13207         1.41898
LJ          -3.52442       -0.593651         2.19852
LJ          -2.92832         1.82122         3.86048
LJ            4.5296         4.92776         6.29817
LJ          -4.68829         3.94931         4.69116
LJ         -0.228009        -6.41318        -1.43523
LJ          -4.07462        -4.54119         5.25714
LJ          0.239126        -2.50272         4.77832
LJ           1.36273        -3.99757        -5.45999
LJ          -1.18859       -0.477598        0.264661
LJ          -5.69449         1.66899        -5.79772
LJ           4.32049         2.18131         4.69927
LJ         -0.450306        0.752462         2.59812
LJ           2.45155         1.65022         3.21054
LJ         -0.655267         4.77846         5.39639
LJ          -3.38447        -1.49265          1.6027
