108
#Comment!
LJ           2.58225         4.98418        -3.23912
LJ           4.39125         4.70229        -6.35729
LJ          -2.70437         1.36341         5.65812
LJ           6.32157         4.58264         4.16221
LJ          -3.14774       -0.660193         3.78258
LJ          -1.62769         -6.1034         -4.8232
LJ          -5.70651       -0.499014        -2.97616
LJ          -6.41482         3.72748         1.80787
LJ          -3.45625         4.16736       -0.235295
LJ           6.03015        -3.67553        0.862089
LJ        -0.0175271      -0.0478006        -3.42251
LJ            4.1526        -5.63782         1.52035
LJ          -6.36769        -6.16902        -4.85219
LJ          0.872512        -3.83036         2.41444
LJ           4.33387        -4.57435         5.41907
LJ           -5.2017         4.99277         6.04798
LJ           1.40111       -0.318171       -0.565301
LJ          -1.55417        -4.06992         0.52696
LJ           5.34504         4.10985         5.44095
LJ          -2.40507        -2.36144         1.79421
LJ         -0.635175        -2.79764         6.28777
LJ          -4.72201         6.05684        -5.23758
LJ          -1.63813        -3.67994        -1.30285
LJ           6.34157        -5.55709        0.690908
LJ          -5.85751        -1.08914        -1.09756
LJ           3.86151        -5.84349        -2.67128
LJ           2.30157         6.25506         5.38543
LJ           4.52236       0.0627701          2.3483
LJ           1.36207          6.2738         4.06773
LJ           2.56653         3.35473          5.6141
LJ          -2.52727         2.21498        -3.90616
LJ         -0.466843         2.74687         2.44264
LJ          0.281048         3.90337         5.99456
LJ          -6.13826        -2.95313        0.594342
LJ           2.94252         2.95683        -4.57766
LJ          -5.06247        -6.07582         2.67603
LJ          -5.10863         4.41014         4.36459
LJ          -3.42108      -0.0781225        -4.90138
LJ          -1.75233         0.23774         6.07918
LJ          -4.52197         1.47671        -1.50228
LJ           3.34379         4.91347        -1.03736
LJ          0.282311         3.33749         4.91799
LJ           -4.4705         4.48476        -2.64402
LJ           2.80885         5.03488        -4.18745
LJ          -1.56988        -2.62728        0.700995
LJ          -4.67145          1.3437         1.60527
LJ           5.07285         6.29722       -0.978018
LJ          -5.21658         2.23157        -1.55986
LJ           5.61424         5.94892         3.56094
LJ          0.793821         3.89322         -5.5405
LJ           2.45667        -1.45431        0.713114
LJ           5.06682         -3.9318         4.28639
LJ           3.14027        -1.46556        -2.36607
LJ           4.32503         2.39962         -1.2112
LJ           -3.4513       -0.340315        -1.97854
LJ           2.67207       -0.284191        -1.97152
LJ           4.87328        -3.48444        -4.41476
LJ           2.30532        -3.10602        -3.32961
LJ           3.52046       -0.732381        -4.84367
LJ           -4.6577         6.27911         4.06102
LJ          -4.20218         4.56509         2.41097
LJ            6.3411         5.09962        -2.08815
LJ          -1.76106        -5.28319       -0.208271
LJ          -4.97384        -4.34997        -1.82898
LJ          0.359786         5.11468        -5.83058
LJ           6.26605        -5.53836        -1.93497
LJ           4.08538         -2.4696       -0.662608
LJ          -3.25444         3.35807         -3.3797
LJ          -3.51041        -1.21481        -5.15762
LJ           4.20781         4.67601        -4.19751
LJ          -1.53006         1.69545        -3.43263
LJ           5.44808         4.76358         2.10987
LJ         -0.548457         4.97752        -4.88532
LJ          -5.02432        -4.05569         3.28339
LJ           4.28711        -3.43825        -2.72649
LJ          -3.73548         4.45534        -1.84805
LJ           2.50386         2.53889         2.32972
LJ          0.638457        -3.15207       -0.738606
LJ           6.33518        0.566423       -0.390706
LJ           3.78177        -3.11266         5.92081
LJ           -3.6986        -6.17915        -5.16039
LJ           1.42234        -2.51535         5.98891
LJ         -0.174861        -6.04983         1.04578
LJ           2.46957         3.45716         3.72886
LJ          -2.55269        -3.90882        -2.75502
LJ          -3.54669        0.744249        -5.91683
LJ         -0.751592         1.40638        -1.59355
LJ          -4.72594         6.06308        -1.93615
LJ           3.20062       -0.344195        0.135137
LJ          -3.39216         3.60774         1.75933
LJ            2.9113        0.500589          1.1249
LJ         -0.484657        -6.16388         3.76968
LJ          -1.00875        -3.98068        -2.49564
LJ          -2.28766       -0.438242         5.39854
LJ           5.68714         3.07864         5.16238
LJ          0.691051         4.47194        -4.34814
LJ           2.82146        0.611847         6.35359
LJ           2.40589       -0.480572         1.09446
LJ           3.68555        -4.67868         1.99757
LJ         0.0354405        -6.17905         6.36945
LJ           5.83301        0.932908        -3.21061
LJ           0.55213         5.75972         3.83019
LJ          -4.01796        -1.90331          1.1133
LJ          -2.56984         5.20406       -0.549863
LJ          -3.97808         4.47404         1.37182
LJ          -1.66882        -5.77785         5.41028
LJ           4.31026        -4.10021         3.47402
LJ          -5.34786        -6.25148       -0.151114
