108
#Comment!
LJ           2.07482         3.97417        -3.56184
LJ           5.26793         5.27054        -6.25185
LJ          -2.04183        0.271887         5.64493
LJ           5.82415         5.97912         4.66422
LJ          -4.08403        0.173381         1.94752
LJ          -1.78839        -4.42046        -4.76361
LJ          -4.15235        -1.11315         -2.9931
LJ            6.2687         3.68863        0.944342
LJ          -3.32419         3.54481         1.00799
LJ           5.94131        -4.44583        0.174609
LJ         -0.586928        -1.08388        -3.14453
LJ           3.73418         -4.7074         1.95791
LJ           5.35796         6.35121        -4.72166
LJ           1.08671        -3.27711         3.81975
LJ           4.90842        -5.77351         4.72698
LJ          -4.78953          4.1933         6.25545
LJ           1.51192        0.715779          -1.774
LJ          -2.05582         -4.2053        0.490741
LJ             6.281         5.18309          5.3332
LJ          -3.72783        -2.64738         1.68122
LJ          -0.28702         -1.1567         6.29687
LJ          -4.93511        -6.30217        -5.82564
LJ           -0.8866        -2.88662         -1.8698
LJ          -5.52653         5.82391        0.321178
LJ          -5.40986        -1.50043       -0.496138
LJ           3.29541        -5.56993        -2.41442
LJ           2.06283          5.5761         6.03942
LJ           5.37081         1.11398         1.41575
LJ           1.78773         -5.2735         3.76076
LJ           3.06386         2.12308         5.90591
LJ          -2.83168         2.72782        -4.10354
LJ         -0.817604          2.9408         2.53478
LJ         0.0272068         4.68225         5.11525
LJ           5.31235        -2.29885      -0.0636013
LJ           4.11594         3.34538        -5.32463
LJ          -3.17834        -5.06476         3.07652
LJ          -5.59365          3.7665         5.01185
LJ          -3.31683       -0.335406        -4.19866
LJ         -0.778929        0.500568         6.17381
LJ          -4.31484         1.41918       -0.707439
LJ           2.29307         6.22224        0.134853
LJ           0.51145         2.68894         4.53174
LJ          -5.47732         2.89798        -2.77957
LJ           4.14746         4.39381        -5.15976
LJ          -1.86862        -1.91433       -0.587974
LJ          -5.20788       -0.215877         2.33789
LJ           6.07031         6.28014       -0.443209
LJ          -6.45273         1.34613        -1.12078
LJ           5.91075         6.01073         3.52907
LJ          0.653399         4.09778        -5.84399
LJ            2.2243        -2.67387       0.0848755
LJ           3.72699        -3.05652         5.30749
LJ           2.62525        -2.04698        -2.95533
LJ           4.36554          1.2416        -1.78965
LJ           -2.6486       -0.310254        -2.18059
LJ           3.15125       -0.455297        -1.63597
LJ           4.52972        -2.86833        -4.92819
LJ           2.30848         -3.3009        -3.47012
LJ           3.43843         -1.7293        -5.10901
LJ          -4.47688         5.97305         4.64503
LJ          -3.95673         4.23301         4.13074
LJ             -6.31         5.18878        -2.67132
LJ         -0.897903        -4.88712       -0.229407
LJ          -5.60924        -4.49161        -1.86917
LJ        -0.0513429         5.07123        -4.37455
LJ          -5.42508        -5.69299        -2.05086
LJ           3.95722        -1.98898        -2.18628
LJ          -3.51209         2.83894        -3.10435
LJ          -3.62479        -1.48848        -6.24979
LJ           5.33456         3.96761        -3.73327
LJ          -2.48904         1.74927        -3.79701
LJ           4.93544         3.82487         1.40177
LJ          -1.04705         4.91822        -3.88136
LJ          -5.07222        -3.42044         2.38874
LJ           2.09167        -3.53852        -1.47122
LJ          -4.08295         4.50615        -2.03373
LJ           1.11177         1.65666         2.06446
LJ           1.20479        -3.37261        0.356554
LJ          -5.87203        0.393134        -1.46002
LJ           2.50177        -3.03379         5.08827
LJ          -3.78033         5.96761        -6.22812
LJ           1.83233        -2.17985         5.49571
LJ         -0.127812        -5.59035       -0.519612
LJ           2.69178         3.81224         4.96524
LJ          -3.03964        -4.47812        -2.04284
LJ          -2.98053         1.01592         6.14564
LJ         -0.367618         2.71974         -1.6781
LJ          -4.90175         5.97175       -0.611877
LJ            3.0129      -0.0167459        0.153713
LJ          -1.60379         3.43273         1.12723
LJ           2.85713         0.34621         2.03424
LJ         -0.845331        -5.08953         2.58253
LJ         -0.595134        -4.91737        -2.22408
LJ          -2.93043       -0.442617         6.24863
LJ           5.08841         3.35882        -6.25933
LJ           1.95752         4.22263        -4.56722
LJ           2.85951       -0.152762         5.83387
LJ           2.71429       -0.792883         1.98693
LJ            3.1397        -4.91157         3.22955
LJ          0.595956        -5.59824         5.47435
LJ           4.73254         1.88656        -2.54094
LJ          0.261257         4.12612          4.2268
LJ          -4.32236       -0.690388         1.38728
LJ          -2.40424         5.30296       -0.861419
LJ          -3.26924          5.4701         2.78675
LJ          -1.05496        -5.60884         5.62759
LJ           4.03583        -3.13056         3.51673
LJ          -5.43245        -5.57089       -0.407543
