108
#Comment!
LJ          0.188672        -1.98818         1.63304
LJ          -2.33526        -5.48387        -5.95683
LJ           5.70528         2.48563         -3.9184
LJ          -5.89455         -4.0895       -0.713628
LJ           3.21048         -3.4723        -4.28637
LJ          -5.08769         1.71298       -0.764721
LJ           3.03778        0.343361       -0.157032
LJ           2.15768          3.6857          2.2229
LJ          -3.96401        0.646825         2.69307
LJ           5.31298        -5.14426         4.49486
LJ           -2.1683         1.32053         5.50415
LJ           4.04563         3.50036       -0.415714
LJ          -5.02524        -4.11619        -5.79564
LJ          0.108554        -6.08332        -1.77299
LJ          -5.80909         3.23387         -3.5915
LJ           5.45272        -1.49112         3.86418
LJ          -5.87687         1.20436         1.71296
LJ           4.50673       -0.747861        0.952068
LJ          0.411945         -3.5651      -0.0740301
LJ          -3.94807       -0.541305          2.7113
LJ         -0.263213        -4.17578        -6.12075
LJ          -5.88271        -6.11695         2.48325
LJ          -5.98328         3.13416        -5.45123
LJ           1.82853        -3.97869        -3.69055
LJ           2.06489         4.72804         4.14068
LJ           1.12815         2.48031        0.129401
LJ          -4.03289         1.15372        -4.30061
LJ          -4.03883         5.30768        -2.06908
LJ          0.434516        -4.66141         1.36115
LJ          -1.67196    -0.000509223          1.4971
LJ          -6.39223       -0.363663         -5.2602
LJ          0.811088        0.852366         2.64222
LJ          -2.14943         3.25199          -4.492
LJ           6.32657          1.4958        -6.32298
LJ          -4.44642        -3.32073        -5.88859
LJ         -0.261509         5.14814         2.21018
LJ        0.00834391        -3.12286        -3.08104
LJ          -3.96126         -2.0274          5.0069
LJ          -4.34912        -6.35383        -3.83087
LJ          -4.75398        -2.67742         5.85218
LJ          0.966976         4.03371          3.3295
LJ          -3.20893         1.11895        -2.35176
LJ           2.10518        -6.04434        -3.32282
LJ           1.22673        -4.31707         2.40299
LJ          -4.38774         1.91701        -1.72759
LJ           5.58483         -6.2987         3.89113
LJ          -4.32796         2.39722        -4.46645
LJ           2.77866        -1.61538       -0.846449
LJ          -5.72553         2.39714        0.860866
LJ          0.803333         4.54455         5.88649
LJ           6.02873         1.45571         2.74976
LJ          -2.27362        -2.67113         2.25165
LJ          -5.33132         4.01572         2.69267
LJ          -3.18348       -0.557518         -4.1539
LJ           4.52805         1.78488       -0.866416
LJ           2.60933       -0.479569         4.88924
LJ          -6.02776        -5.95901        -5.97542
LJ          -1.53767         5.50699        -1.06533
LJ           4.13949        -4.55687        -1.74264
LJ            4.7081        -5.14639        0.580931
LJ           3.27008        -2.10988         -5.0994
LJ          -2.38257        -2.50958         4.30231
LJ           5.18081        -3.80811         1.00799
LJ           1.26957        -5.42142         1.52643
LJ          -4.33156         3.52506         3.73481
LJ           4.35319        -4.60679         5.39872
LJ          -5.39959        -1.11705        -5.31752
LJ          -3.74682         6.37556           4.081
LJ          -4.35696       -0.631885         4.82091
LJ           2.79275         3.42848        0.303268
LJ           5.35998        -1.80528        -1.62418
LJ           -1.6508        -1.43714         2.37459
LJ          -0.29121        -2.92644       -0.229926
LJ          -5.82527       -0.816488        -2.09972
LJ          -6.41586        -5.48355        -2.70727
LJ           4.96246         3.91663        -1.73925
LJ            2.1427        -1.27188        -4.36608
LJ          0.717675        0.804819        -5.92606
LJ           2.57973        -6.35614        -5.77385
LJ           3.79831         0.75973        0.486312
LJ           4.41704        -6.20229         1.66938
LJ          -2.57563        -5.06132         5.78012
LJ          -1.60506        -2.54091        -3.16291
LJ           4.46181         5.41077         1.39601
LJ          0.153138          5.3784        -3.36536
LJ           4.68489        -4.45433        -4.91294
LJ          -2.11105        -4.33279        -2.34865
LJ          -1.02661        -4.46604       -0.736417
LJ         -0.936775        -5.30305        -2.04716
LJ           3.36347          2.8243        0.807199
LJ            3.6036        -2.06021        -3.40035
LJ          -5.14839        -1.30254        -1.52732
LJ           4.82615        -4.76855       -0.898922
LJ          -2.37445         4.93139        0.509569
LJ          -5.81224        -5.60203        -3.96475
LJ           2.53189        -3.55383        0.477248
LJ          -4.95672         1.03165        -3.97242
LJ           1.46381        -3.47032        -2.88262
LJ           3.00411         6.45248         4.06194
LJ           1.34065         6.33097       -0.947313
LJ           5.62035        -4.20875         -4.1032
LJ           3.67564          3.9812         5.04611
LJ           3.04583        -1.35587         3.90643
LJ           1.60193         2.28883        -2.03406
LJ           1.44765         4.14959      -0.0672861
LJ          -5.49731        -3.79819         1.34751
LJ          -6.20154        -3.05888         -4.4244
LJ           3.20398         3.00254        -1.23823
