108
#Comment!
LJ           1.28995         5.83436         5.91854
LJ           1.21773        -2.77521         6.18541
LJ          -3.18572        -3.03885         -4.5184
LJ           1.48687        -4.20177        -4.94764
LJ            5.3322        -4.08989        -5.34848
LJ          -6.36211        -2.91664         5.18637
LJ           4.86093        -4.71172         -2.2003
LJ          -5.14155         5.63263        -2.59119
LJ          -4.49361         5.12906         4.74156
LJ           2.37795        -5.62084         6.24519
LJ           5.85056        -5.40717        -6.37027
LJ          -2.78338         5.35264        -3.57438
LJ           0.50069         -1.2394         -5.1224
LJ            1.4463       -0.478055        -6.02989
LJ          0.859068        0.925291        -2.39233
LJ           2.34769         -3.2119         -2.6874
LJ           3.05463       0.0603459         6.12577
LJ           6.01954        -2.75696         6.19407
LJ           1.36406        -3.08324        -3.31529
LJ           1.34737        -6.19176         4.30083
LJ          -2.09763        -3.13089          6.1099
LJ           1.63109          3.8486         3.45605
LJ          -2.15429        -0.27265        -5.41317
LJ          -3.09655        -1.85033        -2.64804
LJ          0.044814         6.22877         6.16769
LJ           2.10175         2.94604        -6.08675
LJ          0.108914        -5.65133        -4.42644
LJ           2.08104         1.36494        -6.15422
LJ           5.15483         1.49279         5.40088
LJ           6.13918         2.44477        -2.79908
LJ           5.42928         3.88988        -3.60835
LJ          -6.45839         3.51791        -2.09962
LJ          -3.87358         2.00517         5.00658
LJ          -1.35558         2.52125        -6.12116
LJ          -4.37481         5.60891         5.91297
LJ          -1.26605         0.81774        -3.05012
LJ           1.65739         5.06188         -1.8837
LJ         -0.596946         -5.0397        -3.32287
LJ           1.51863         -4.1325         -0.4679
LJ           1.12698         -5.9616        0.948388
LJ           4.86306        -6.15703        -1.65699
LJ           5.41114        -4.95549        -4.73599
LJ          -3.59361         5.18614      -0.0683674
LJ           4.03949         5.61676         2.47052
LJ           -5.6633          6.1496        -4.97488
LJ           4.99913        -4.94298         4.97622
LJ          -4.74237         5.18837       -0.869141
LJ          -3.22121         6.40386        0.639058
LJ          0.736428        -1.88046        -3.02543
LJ           3.12142         2.22981        -5.41939
LJ          -1.83471          4.0893         1.03075
LJ          0.768729        -1.42555       -0.419163
LJ           -1.2786        -2.43136      -0.0322527
LJ          -6.26113         1.40428       -0.701274
LJ           4.46512       -0.774926       -0.648531
LJ           3.84982         2.14528        -1.23813
LJ           1.97855        -3.77838         4.93654
LJ          -3.51696        0.496266        -2.56036
LJ           4.77045         3.65662        0.852467
LJ         -0.952701        -4.98805      -0.0885609
LJ          -3.18748         3.92867        -1.70807
LJ          -5.73536         1.93375          1.9712
LJ          -2.60238         5.85527        -0.99421
LJ           1.83711         1.83203        -3.12982
LJ           4.23486         5.07355        -2.50429
LJ          -4.78725         5.39141        0.674037
LJ           5.08575         4.21238         2.80227
LJ           5.98368         1.34517        0.622091
LJ           5.03575         4.96389        -6.25164
LJ          0.962475        0.451947        -1.30184
LJ           6.25539         4.42685        -1.70754
LJ        -0.0981064         3.73549        -1.83404
LJ          0.923127        -6.40222          2.2403
LJ           4.17317        -3.89343       -0.497977
LJ         -0.235477         -5.9099         4.07308
LJ           2.63366         4.87934         4.30875
LJ           2.89796        -5.44101         3.19457
LJ           5.60841         -4.7993         2.71105
LJ         -0.855235        -3.96244         1.70789
LJ            5.4846        -3.47483         3.75517
LJ          -3.32124         5.83785         3.22317
LJ          -3.07474        -5.36914         2.15467
LJ          -2.87916        -4.12295         4.59349
LJ          -3.18308        -6.26153        -5.92356
LJ          -3.10503          6.3182        -2.46577
LJ          0.055577        0.202081         1.66659
LJ            0.9831         3.56789         5.26575
LJ          0.538795        -1.91309         3.90903
LJ          -3.37005         2.02739         2.83645
LJ           4.96492       -0.756814         4.53893
LJ           5.31494         1.99045         2.30928
LJ          -5.90012        -3.97743         3.87223
LJ          -3.07381        -2.37733         1.64648
LJ          -3.11084        0.959806         2.40589
LJ          -4.05768         1.03439         4.53079
LJ           3.75172         1.52016          5.7081
LJ          -2.56717         2.29565         6.10829
LJ           1.34669         5.73893         1.75615
LJ          -2.53709         5.57562         5.25699
LJ           2.20144        -1.29463          4.1025
LJ          0.995454       -0.964265         5.12685
LJ          -3.01182         2.75159        0.107673
LJ           5.01546         2.76186         5.11708
LJ           6.07507        0.528986         4.74382
LJ          -4.05428       -0.116102         2.42939
LJ           0.92928         3.51717         2.59422
LJ          -4.03074         4.60825         5.67023
LJ          -2.77836        0.397545          4.0295
