108
#Comment!
LJ           2.51199        -4.28451          2.2208
LJ         -0.764903         4.02212        -5.71287
LJ          -4.62574          4.4114        -4.76324
LJ         -0.605885        0.323793         6.39366
LJ          -3.92942         5.65979        -1.29274
LJ          -2.31084          1.0041        -3.71159
LJ           2.50107       -0.206944        -4.03347
LJ          -4.00679         5.77166        0.281051
LJ           3.78189         3.78265         -1.0793
LJ           2.31833        0.198494        -5.34683
LJ         -0.850557         1.55686         -5.7849
LJ           4.61388         5.40181      -0.0243384
LJ         -0.383573        -6.03547        -3.98936
LJ            1.9038         5.31377        -3.26295
LJ          0.992731        0.646958        -6.05531
LJ           5.72017        -3.03068          6.1443
LJ           4.33295        -2.67559        -4.98937
LJ          -0.51376        -3.06836        0.402272
LJ           4.35171         -1.6143         1.49397
LJ           -1.6723       -0.945726          2.4243
LJ          -1.91359         1.44833        -6.07873
LJ          -5.16523        -4.79705        -2.53468
LJ           5.95441         3.60223         2.36028
LJ            3.4929        -3.09203         3.75196
LJ           5.21996         1.74954        -3.93616
LJ           5.48104         6.09001       -0.127126
LJ            5.0419        -2.98273         4.46592
LJ          0.097085        -5.03244        -6.22906
LJ          -4.97445        -5.20865          3.5409
LJ           1.98167         3.34892         5.07348
LJ           1.87705        0.333834         -2.4368
LJ           1.48267          1.9103         2.02856
LJ          -1.39116         4.86567        -3.50529
LJ          -2.28752        -6.12124         4.52898
LJ          -1.01148         5.42982        0.883102
LJ          0.695525        -5.88306        -5.00521
LJ          -2.13794         3.00877        0.494044
LJ          -2.97512       -0.999854        -6.17927
LJ          -4.46358        -3.15004         3.26272
LJ          -4.38054       -0.385476        -5.05333
LJ          -4.03059        -2.49854        -5.84141
LJ          -1.68045         1.80638         1.45083
LJ         -0.260312        -1.73512        -3.44505
LJ           -5.4801        -5.68028         5.29444
LJ         0.0365098         5.39436        -5.45756
LJ          -5.25042         5.74686         1.55135
LJ          0.540029        -3.21021        -5.65223
LJ          -4.49388        -6.29371       -0.592705
LJ           1.77196        -5.33228         5.11147
LJ           0.15341         2.69636        0.937553
LJ           3.12874        -1.12788         1.88847
LJ          -4.56008        -4.42069         1.20929
LJ           4.57391         0.90218         4.39748
LJ           5.69718        -4.59868        0.380093
LJ          -6.20033        0.361787       -0.810212
LJ           3.49579       -0.265837        -4.72312
LJ           5.85368        -6.06427        -4.82715
LJ           1.24672        -3.57876        -2.02916
LJ            4.0295         4.24794        -3.25951
LJ          -6.26946         4.50834         4.98261
LJ           6.07974          2.7263        -2.78753
LJ           2.46576          6.2886         1.36936
LJ          0.221769        -5.13717        -3.49259
LJ          -2.06421        -5.44543        -1.42663
LJ          -1.26805         4.42325         4.71553
LJ          -1.05279        -4.34861        -3.60789
LJ           4.66692        -4.03916         5.91076
LJ           -1.1981         2.63549         3.23914
LJ          -2.34372        -1.78921         1.43666
LJ          0.736375         5.84562         6.25743
LJ           1.79182         1.20896        -3.57348
LJ          -3.57459        -4.05677         2.37982
LJ           3.86635         2.53857         3.25975
LJ          -6.09958         5.01213         -5.3156
LJ          -3.46615        -1.43104        -3.64849
LJ          -1.26927         3.90248        -2.84865
LJ          -3.13435        -5.66589         3.91095
LJ          -1.02465       -0.519456        -3.02456
LJ           3.22074         1.37234         5.58878
LJ          -1.37073        -1.84977        -2.33076
LJ          -6.29892         -5.5651        -1.33071
LJ          0.261138         -4.9947        -4.52231
LJ          -2.65874        -5.05625       -0.442988
LJ           1.98344         1.70337          -1.005
LJ           3.75795      0.00822106         4.51133
LJ          -5.46439         4.34335         6.29234
LJ           -2.3339        -3.30531        -1.49383
LJ          -2.95851         -4.3011         4.25138
LJ           1.88796         3.15508        0.280043
LJ           4.52585          1.2784         2.08031
LJ           4.57826       -0.402311        -3.84559
LJ          -2.26023         2.85394        -2.30456
LJ            -1.012        -2.83959         4.84454
LJ           4.97844          2.8156         4.50027
LJ           5.26508        -1.34447        0.615681
LJ          -4.44597        -4.46075         5.67173
LJ            2.2816         4.66295        -3.84401
LJ          0.635231        0.544977        -2.37134
LJ           -4.2188        -6.25853        -4.01147
LJ        -0.0364824         3.99499        -2.53714
LJ           6.41874         4.10878         5.87651
LJ           3.37484         4.27625        -6.30842
LJ           1.15572        -2.56694         1.05801
LJ          0.712759        -3.15304        0.404454
LJ          -6.23395         3.76776        -5.69119
LJ          -3.92312         6.29178         4.50291
LJ           5.77725         3.24605        0.587777
LJ           5.70394         4.30077        0.255575
