108
#Comment!
LJ           4.11103        -4.06977        -4.16757
LJ         -0.764522         -3.8164         5.86393
LJ           5.22902         1.54831       -0.237604
LJ          -6.26664         1.99142        -2.59264
LJ          -5.77991        0.219186       -0.759493
LJ          -0.35927         5.14009          5.7288
LJ          -5.20574         3.58559        -2.74152
LJ           4.00703        -5.47681        -2.19367
LJ          -4.41915        0.887143         4.68134
LJ           5.23708         2.68288        0.224942
LJ         -0.211901        0.155139        -3.28905
LJ           2.49815       -0.421374          1.8702
LJ          -1.33044         3.94665        -4.03057
LJ          -3.24893         4.71438         5.56549
LJ          -1.64528        -4.13939        -2.92356
LJ            2.9602         5.58047         4.49848
LJ          -3.62925          1.5038       -0.624526
LJ         0.0785242       -0.207088         5.95363
LJ          -5.21034         -2.9231        -4.32344
LJ          -2.19208         5.25846        0.459231
LJ          0.595213        0.207887         1.07916
LJ         -0.943723         6.25305        -2.42566
LJ          -6.38671         5.60207          1.5484
LJ          -6.27509         4.12269        -1.58757
LJ          -6.08891        -6.19224        -5.55306
LJ          -3.00353         2.71239        -3.60385
LJ          0.726796         2.86428       -0.269554
LJ         -0.473285        0.796265         1.54516
LJ          -1.34292        -5.53672         3.18406
LJ           -1.6535       -0.130316       -0.356741
LJ          -6.44047         5.30573         2.76025
LJ             1.608        -6.20595         3.55901
LJ          -5.25941        -2.07427        -6.32278
LJ           3.69852          1.9997         6.23615
LJ          0.978081         4.75157         4.34359
LJ           4.51146         -5.9978        0.740539
LJ          -1.29693        -4.29485        -5.94778
LJ           5.08117         3.41001         4.98505
LJ          -4.46254        -2.32892         2.87406
LJ           3.91528        -5.20318          2.3816
LJ           -5.0022       -0.586998        -5.87446
LJ           4.18116         1.86992         1.04943
LJ          -1.41003         2.51616         3.38135
LJ            5.0071       -0.501882        -2.48356
LJ          -4.03823       -0.864313         5.32643
LJ           6.05473        0.538299       -0.320439
LJ           2.81456        -5.62237         2.23844
LJ          -2.63741       -0.462406          2.2551
LJ          -4.14397         -4.0498         5.06645
LJ          -3.30391         3.95759        -2.09513
LJ          -4.54932        0.698837         2.09602
LJ          -1.13776         5.93786         4.35785
LJ          -2.84358        -3.41538        -4.22764
LJ          -2.85716         3.07329        0.351559
LJ          -4.94785        -1.56514         5.29642
LJ           3.14794       -0.240995       -0.455661
LJ          -2.46697         4.03925        -5.37602
LJ          -3.89126        -2.73867        -5.42095
LJ          -5.38631         4.59605         2.83255
LJ            0.4212       -0.509404        -3.56909
LJ          -2.41015         2.54052         2.90008
LJ           4.37023         3.55455          2.8368
LJ          -2.19218         5.58734       -0.900732
LJ          -4.40404         4.68038         4.62312
LJ           1.86238         3.80255         2.48455
LJ            4.5662          4.6697         3.10582
LJ           4.54995         4.71768         6.22759
LJ           3.31952         4.74312         6.34331
LJ           1.69993        -5.36135        0.806946
LJ         -0.956237          2.6272        -1.58517
LJ          -1.24242        -6.27736        -4.11626
LJ          -3.99929         3.46456        -3.23011
LJ         -0.926343        -3.42905        -2.97526
LJ          -0.43219         4.76612       -0.255657
LJ          -1.92734         2.79508        -3.25279
LJ          -2.96591        0.602824        -5.75316
LJ          -6.06149        -3.84101         2.50552
LJ           5.57577        -6.44345        -2.40124
LJ          -1.38534        -1.34221         5.20095
LJ           5.60071        -2.70944        -2.10421
LJ         -0.976703        0.149534        -2.54829
LJ          -1.10632         5.36846        -5.54167
LJ          -2.97123         2.26432        -1.97699
LJ            1.0192        -6.04715         1.92377
LJ           2.81806        0.927498        -5.35947
LJ            0.8327        -5.59804        0.564673
LJ          -5.06548        -4.75716         4.96549
LJ          -4.47403        -3.03436         0.99834
LJ          0.366231        -1.16581        -4.72042
LJ           2.54642        -2.37661        -5.76164
LJ           1.25782         2.44648         3.39333
LJ           2.21399        -3.58833         1.44273
LJ          -0.79938         3.12765        -4.36475
LJ          -4.36552         3.06052         5.23821
LJ          -5.90483        -2.30098        -3.77928
LJ           1.42199         -5.0528       -0.737553
LJ         -0.469773         2.12936       -0.202918
LJ           3.18771         1.16749         6.34938
LJ          -1.87984        -2.43585        0.840212
LJ          -5.57534        -4.49544        0.281857
LJ           4.25084       -0.425803         4.70607
LJ           3.44904          1.3238         1.37552
LJ           3.41782        0.280775         5.42535
LJ          -3.30734         5.90809         5.35749
LJ         -0.441326        -4.87583        -5.29635
LJ           4.97189        -2.31613        -5.37769
LJ           3.18826         -3.7323        -4.72627
LJ          0.764528         -5.0634         2.36289
