108
#Comment!
LJ           0.97585        -2.89461         1.93037
LJ          -1.87309         6.00098        -5.87681
LJ          -6.40217         3.20179        -3.89811
LJ           3.96123        -2.45791        -2.60836
LJ           4.84264       -0.164428         5.30553
LJ          -3.88852        0.687443        -1.27378
LJ           3.94924       -0.554446        -2.29284
LJ         -0.785274          5.4451         1.60279
LJ           -1.6805         1.49511      -0.0566459
LJ          -4.50453         4.85729         6.41985
LJ          -1.82278         1.42922         5.81935
LJ           4.91926         3.82426       -0.872607
LJ            4.7777        -4.05777        -4.37577
LJ           1.19522        -5.26403       -0.944649
LJ          -3.05093         2.48189        -4.56389
LJ           4.78903        -1.67863         4.99967
LJ           -6.1231        -1.18026         0.12113
LJ           2.76115        -1.58228        0.767226
LJ            1.4574        -4.23386      -0.0685624
LJ          -2.89837       -0.168435         2.79146
LJ          -1.21272        -3.49194        -5.59388
LJ          -6.22458        -5.10486        0.185052
LJ            6.1724         2.93779         5.62605
LJ           2.51341        -3.91251        -5.67087
LJ           3.19997         4.37431         5.99834
LJ           3.23229         3.84067         1.18041
LJ          -3.46879         0.18222        -4.54003
LJ           -2.5058        -5.32982         -4.0025
LJ          -0.33299        -4.79373         1.58114
LJ         -0.478463        0.822489         2.86486
LJ            5.0206       -0.935166        -4.02255
LJ           1.50303         1.29798         2.21861
LJ           -2.1558         3.09497        -2.06508
LJ          -4.22245         3.25728         5.81232
LJ          -2.86717        -4.92762          5.0102
LJ          0.399211         6.24999         3.06752
LJ          -0.12272        -1.12236        -1.82157
LJ          -3.01576        -1.64692          5.8826
LJ          -4.12096        -5.93207        -1.30453
LJ          -4.59943        -1.74344         6.00509
LJ         -0.165574          5.4947         4.30157
LJ          -2.38775         1.04533        -2.67824
LJ          0.615181        -3.15414        -3.09725
LJ           2.77512        -4.73215         2.45666
LJ          -1.98396         1.89982        -2.16203
LJ           6.20174         6.39484         3.08995
LJ           -2.5106        0.598838        -5.25616
LJ            4.7632        -2.36153       -0.724516
LJ          -3.63778        -1.08728         2.16746
LJ          0.519482        -4.18842         4.46165
LJ             3.989         0.32237         1.31183
LJ          -2.97691        -2.64126         2.00204
LJ          -6.25539         3.34111        -1.43683
LJ          -4.81416        -1.99269       -0.907997
LJ           5.36825         1.60995       -0.576974
LJ            3.2494       0.0273301        -6.12635
LJ          -6.09632        -6.13606        -5.41401
LJ          -1.08642        -6.01464        -1.32067
LJ            4.1535        -5.44094         -1.9512
LJ           5.63021        -6.27709         1.39156
LJ           3.73247        0.185419        -5.24008
LJ         -0.732972        -4.14195         3.55304
LJ           3.71917        -4.03029        -1.79345
LJ        0.00842347        -5.78433         1.39175
LJ          -3.17064         3.92806         3.91685
LJ          -5.91477        -4.35107        -6.30251
LJ           5.70014        -1.50106        -4.71989
LJ           -2.6283         4.87603         1.79999
LJ          -3.69356        -1.50674         4.36814
LJ          0.551366         4.98592          3.0798
LJ           3.69753        -1.09748        -3.70608
LJ          -2.03811        -2.08997         1.88378
LJ          -4.72325        -2.08575        0.458952
LJ          -5.87507        0.999446        -3.35425
LJ          -5.00657         -3.3965        -2.79796
LJ           2.89532         3.20328        -1.00808
LJ           1.70326        -2.56221        -5.51772
LJ          -2.06092        0.644302        -3.57276
LJ           2.47356           4.205         -5.4863
LJ           3.35241       0.0959002        0.511073
LJ           4.54897        -6.11602        0.471275
LJ          -1.78946        -5.03128        -6.41611
LJ          -1.99454        -3.49618        -2.81409
LJ           3.12971         4.12798       0.0249774
LJ          -2.95769          3.4296       -0.518448
LJ           5.12175        -6.39536        -5.05254
LJ          -2.26935        -3.80751        -1.47402
LJ          -1.48686         -4.2211         1.15391
LJ           0.19988         5.91435        -1.05543
LJ           2.90729         2.62081      -0.0483429
LJ           3.55273        -1.84888        -4.52847
LJ          -4.81353        0.279933        -2.07184
LJ           1.73834        -4.31675         1.20571
LJ          -4.28313         4.18705         1.94688
LJ           6.01005        -4.36226        -2.52608
LJ           5.11046        -2.88447         1.22137
LJ           5.68839         2.04546        -4.25809
LJ           1.66303        -2.92218        -2.72529
LJ          0.615728        -6.37149         5.83353
LJ           1.12191         6.08943        -2.44771
LJ           5.90901        -5.59334        -5.74125
LJ           3.60505         3.38285         5.32212
LJ           4.12052        -1.36967         3.05982
LJ          0.980267        0.470448         -1.3119
LJ         -0.667435          3.9257        -2.06763
LJ          -4.94938        -4.78395         2.51607
LJ           6.10111       -0.648731        -3.02557
LJ             4.288         3.47473        0.215985
