108
#Comment!
LJ             3.822        -5.03647        -6.29993
LJ          0.924242         -2.4461         6.41628
LJ            3.1011         1.21132        0.146897
LJ          -4.75672         2.78018        -5.95285
LJ           6.25333         1.92328        -1.51067
LJ          0.354664         5.88753         5.64092
LJ          -4.66772         3.83711        -1.46012
LJ           3.08337         2.14441        -3.83358
LJ           6.29269        0.411096        -5.62692
LJ          -4.60979         1.13004       -0.936413
LJ          0.164657         2.58567        -3.37266
LJ           3.86117         1.70263         1.27898
LJ         -0.943343         3.72668        -3.70291
LJ          -2.29118         2.20011        -6.15304
LJ         -0.334068        -5.94742        -2.00772
LJ           4.19279        -6.27721         4.99567
LJ          -2.54234         4.85165         0.41742
LJ         -0.914771        -3.38434         5.58162
LJ           5.46725         -4.3861         5.10114
LJ        -0.0904143         -6.0788        0.900806
LJ          -1.52392        -1.62351         2.27839
LJ          0.332725        -6.35278        -4.42297
LJ            5.0034        -5.37514         3.76303
LJ          -3.96322         4.69981       -0.656398
LJ          -6.09477        -4.58153        -3.06758
LJ          -3.38925        0.743036        -2.59027
LJ           1.84289         5.46081         2.00828
LJ           2.29597      -0.0284881         5.76471
LJ          -1.91486        -4.95006         2.64468
LJ         -0.770251        0.511298       -0.563475
LJ           5.80079         4.62207        -1.34254
LJ          -1.25907         4.87926         5.47967
LJ           -6.4028        -4.20953         5.52364
LJ           5.67968         5.72315        -5.89746
LJ          -1.94793          2.4459         4.70113
LJ           3.21291         5.67462         2.89695
LJ           -3.3314        -6.27193         4.30672
LJ           3.37036         2.75805         4.98929
LJ          -4.69218        -4.19099          1.4411
LJ           5.33133         4.23412         1.28007
LJ          -4.55005         1.34086        -2.82978
LJ           4.40046         5.76604       -0.665163
LJ           0.68089         2.49337        -1.56486
LJ          -5.91033         1.10553       -0.859828
LJ          -5.52432       -0.341019        -5.97858
LJ          -5.10934        -1.73988       -0.303465
LJ          0.864041        -2.75773         2.48753
LJ          -1.89683         0.54756          4.4509
LJ          -2.83498        -4.33439         2.74245
LJ          -4.41341          4.5499        -3.60522
LJ           4.93479       -0.473811         2.98483
LJ          0.952599         3.35666         5.27217
LJ          -5.80105        -3.25337        -4.63323
LJ          -1.05958          4.6548        -1.06922
LJ          -3.90986        -2.83286        -5.89828
LJ           3.99058        -2.44433       -0.612495
LJ           5.71531         3.07268         5.54442
LJ          -5.56924        -4.22309        -5.63981
LJ          -5.80358         5.10171          3.4259
LJ          -1.41382        -2.01582        -3.76135
LJ          -4.49989        -1.91344         3.30515
LJ           6.12465         3.89923         1.85811
LJ          -2.64261         6.31009       -0.678645
LJ           5.26793         5.23326         3.95918
LJ           2.57107         4.42343         3.74787
LJ           4.50652         5.49725         2.99672
LJ           2.63451         5.80679         5.96866
LJ           2.87431        -6.32324        -3.38885
LJ          -6.12997        -2.38946        0.738117
LJ           1.41851         3.90719       -0.984854
LJ           -3.1478         5.22713        -1.76807
LJ          -4.90382         5.25477        -2.50665
LJ         -0.226253        -3.06764        -4.28452
LJ           2.10973         3.38079        -3.61817
LJ         -0.611188           3.274        -2.66364
LJ          -4.10195         1.15623        -4.52974
LJ           5.86326        -2.93898            4.65
LJ           6.10253         5.48397         -1.8496
LJ           1.41081       -0.612163         4.37278
LJ           5.71228        -2.84001        -1.43622
LJ          -1.25428         2.14247        -3.44432
LJ          0.986784         5.61455        -5.93424
LJ          -3.71669         2.31642        -1.44287
LJ           3.00212        -2.74202         1.90995
LJ           3.06314         -1.0833        -5.41132
LJ          0.157601        -6.34196       -0.474797
LJ          -3.22869        -3.24537         2.83775
LJ          -4.68877        -3.52371       -0.309822
LJ          -1.49216        -1.78669        -6.19511
LJ           2.94045        -6.05754         6.42893
LJ           3.53868         3.78876         3.17545
LJ           1.71479        -3.70963         1.06716
LJ          -3.79983         1.99346        -3.01216
LJ           6.24032         3.13149         4.34946
LJ          -6.00126        -2.73352        -5.54338
LJ          -1.50721        -3.74211       -0.880685
LJ           1.57199         3.02836        0.161416
LJ          0.787875         3.15632        -6.46183
LJ          -2.35121      -0.0442924        -2.09473
LJ          -2.47463        -2.42693       -0.768725
LJ           3.28364        -1.50166         6.34527
LJ           2.82458       -0.946774         4.65885
LJ           3.93255        0.144612         5.70016
LJ          -1.54906          3.5776         5.04623
LJ           3.21847        -3.52067        -1.90288
LJ           -5.6496        -3.27649         4.88285
LJ          0.482987        -1.15609        -1.77916
LJ           -2.0548         6.37909         0.48476
