108
#Comment!
LJ           2.95925        -4.62974         2.26708
LJ         -0.188962         3.64157        -5.51319
LJ           -4.4256          4.3016        -5.60046
LJ          -1.81694         1.59117         5.59192
LJ          -3.03927        -5.67687        -3.12058
LJ          -1.43649         2.06394        -4.34258
LJ           2.83582        -1.00142        -3.25189
LJ          -4.65723         4.93515        0.390895
LJ           5.62226         4.45038       -0.890298
LJ           4.01312       0.0453458         5.69234
LJ         -0.206026         1.42173        -5.30011
LJ           5.02191         5.61242        0.419918
LJ          -1.35669        -5.91809        -4.25645
LJ           1.01032         6.31756        -2.54835
LJ           1.75769       -0.243395        -6.16069
LJ           5.92006        -4.17556         5.75412
LJ           3.18096        -2.40825         6.20361
LJ          -0.80196        -3.26144        0.136454
LJ           4.52836       -0.785435         2.48219
LJ          -1.27386        -1.12644         2.35637
LJ          -1.84647         3.23035        -6.34086
LJ          -4.71368        -5.46632        -2.86758
LJ          -5.83632         4.98493         1.72679
LJ           3.85373        -2.79259          2.6826
LJ           5.43347        0.907865        -3.17034
LJ           5.24763         6.26094        -1.17583
LJ           3.75946        -4.12576         3.35827
LJ          0.905728        -4.52429         6.24573
LJ           6.28673        -5.12492         4.18234
LJ           2.74985          4.0938         5.74904
LJ           1.00401         0.80675        -2.12092
LJ           1.06744         2.05429         2.12408
LJ         -0.940928         4.86185        -4.53519
LJ          -2.90225        -5.08767         3.81736
LJ         -0.458557         4.57048       -0.329615
LJ           1.51205         6.33154        -3.48361
LJ          -2.97756         4.02492         1.50329
LJ          -3.01058       -0.792052        -5.97046
LJ          -4.51941        -1.83195         4.37156
LJ          -4.52101     -0.00130376        -4.40923
LJ          -5.12222       -0.810032        -4.89558
LJ          -1.17606         2.34154         2.43363
LJ         -0.464046        -3.36048        -2.84943
LJ          -3.83322        -5.80342         6.17796
LJ        0.00894663        -5.63847         6.01135
LJ          -4.28201         5.59403         1.25484
LJ           1.28688        -4.49898        -5.63967
LJ          -3.36432         5.66284          -1.439
LJ             3.435        -6.43924         5.81025
LJ           1.02113         3.92621       -0.686877
LJ           3.28779        -1.80642         1.92652
LJ          -4.64288        -5.14792         1.57134
LJ           4.19466         0.48537         2.51117
LJ           5.11526        -5.48035         0.10749
LJ          -5.86189        0.165237        -1.08009
LJ           3.27132        -0.13043        -4.36178
LJ           5.58475        -6.11799        -4.75942
LJ           1.95934        -2.88457        -2.35087
LJ            3.8876         3.27035         -3.6751
LJ          -5.51498         4.51596         5.41267
LJ          -6.06122         3.28795         -1.9304
LJ           3.42706         5.61869        0.622312
LJ          -1.13379        -6.09548        -2.47416
LJ          -2.69692        -4.75565        -1.82574
LJ         -0.776525         4.40671          4.9325
LJ          0.671571        -4.68744        -2.88853
LJ           4.77574        -4.28413         4.78646
LJ          -1.68295         2.78684         5.05619
LJ          -2.70826        -1.54894       0.0608354
LJ            1.5078         5.87802        -5.90839
LJ          0.937884         1.53412        -3.11926
LJ          -4.70233        -4.69765         2.76722
LJ           2.75915         3.23195         3.92925
LJ          -5.72882         5.92523         -6.1965
LJ           -3.3245        -1.65993        -4.09681
LJ          -2.33511         4.47805        -3.44798
LJ          -4.75119         6.24011         3.46589
LJ         -0.764582        -1.15566        -2.86051
LJ           3.72373         1.20694         4.13804
LJ          -3.18506        -2.39752        -3.01768
LJ           -5.4451        -5.35254        -1.89422
LJ          0.126809        -4.27963        -4.89726
LJ          -2.59419        -5.38255        0.167642
LJ           1.66082         1.64757        -0.93138
LJ           1.37809        -1.10011         5.85404
LJ          -5.17715         3.44309         6.27973
LJ          -2.37147        -3.46942        -1.59562
LJ          -3.51082        -4.81833         5.29913
LJ           2.39565         2.18664        0.533206
LJ           5.41585         0.97413         2.82932
LJ           4.64601        0.216994         -2.9232
LJ          -1.61674         3.85714        -2.48989
LJ         -0.842497        -2.93334         6.22151
LJ           3.46217          2.2077         4.87119
LJ           5.50463       -0.337638         1.25439
LJ          -3.72187        -5.39867        -5.62372
LJ           2.45372         3.78226        -4.31311
LJ          0.201302          2.0395         -2.4164
LJ          -5.65744        -6.12706        -3.01037
LJ         -0.411522         3.10058        -2.62509
LJ          -6.16138         2.60367         6.24876
LJ           3.47364         4.66012         6.13596
LJ         0.0161882        -2.68427         1.17008
LJ         -0.340917        -4.88319        0.435677
LJ            4.7748         4.84513        -6.27791
LJ          -3.41807          6.2591         4.73581
LJ           5.47925         4.37423         1.72456
LJ           5.79742         4.80499       0.0972979
