108
#Comment!
LJ          -6.19899        -1.06394       -0.434715
LJ         0.0889421        -3.20096         1.39455
LJ           5.33759        -5.56127         2.26341
LJ           4.50855         4.83403        0.184235
LJ          -3.42461        -4.58741         2.89018
LJ         -0.530695         3.86169         5.21996
LJ            5.5118         3.34076        -5.82889
LJ          -5.89034         3.28645         2.21537
LJ          -2.02177        -1.52055        -1.84399
LJ          -4.38943         5.39937         6.03796
LJ         -0.208491        -1.45049         5.55207
LJ          0.608301        -3.45508         5.37169
LJ           6.34399        -4.81459        -1.52578
LJ          -3.99071        -2.80264          5.5145
LJ          -4.85577        -5.72245        -3.22553
LJ          -0.41029         6.22289         5.56496
LJ          -5.63973         -3.7076        -3.73854
LJ           3.45451         3.79272         5.10733
LJ           2.65756       -0.245413       -0.649266
LJ          -1.59231          5.5836       -0.500609
LJ          -5.76501         6.22669         4.39489
LJ          -4.47041          3.6184        0.273668
LJ          -3.64455       -0.592567        -1.70869
LJ           5.03048         2.14197        -5.01021
LJ           3.14357         3.43103          6.4527
LJ          -3.89984         0.78762         5.08582
LJ           3.22939        -1.06058        -2.89112
LJ          -3.65773         2.23625         5.18038
LJ            1.1977        -3.79856         2.17716
LJ          -1.79161        -2.84654        -1.72315
LJ        -0.0417906         3.62944         6.26827
LJ           6.35345        -1.58772        -3.07607
LJ           5.14703        -4.08161        -3.04994
LJ           4.72344        -2.20505         2.00654
LJ           5.61125        -3.87991         4.52959
LJ          -6.39594        -1.84325         2.61801
LJ           1.70146       -0.860465         5.91013
LJ          -2.67893        -4.22922         4.29903
LJ          -4.93011          3.1919         1.30797
LJ         -0.488423       0.0843936         3.52941
LJ          -3.27356          6.2443        -0.66536
LJ         0.0634663         0.69869        0.184254
LJ          -1.37159        -1.63496        -3.86812
LJ           6.03768         2.27004        0.850432
LJ          -2.33422         -2.9078         3.87194
LJ          -2.28669         1.97285        -1.84082
LJ           5.66806         5.50425        -4.39697
LJ          -4.34065       -0.581362        -3.33712
LJ           4.03214        -5.94162        -2.40643
LJ           3.68775         6.18437         2.90171
LJ          0.243139         2.33597       -0.956161
LJ          -6.38261        -5.01368         3.58584
LJ          -1.64075         2.51981         1.17624
LJ            5.8643       -0.579093         3.02105
LJ          -4.24588        -1.18967         4.03785
LJ           2.30092         3.90544        -5.45841
LJ           4.99249         5.17488         4.59325
LJ        -0.0248855        0.726902        -2.15442
LJ          -2.74162        -4.28087        -4.89177
LJ           2.88149         -4.8217         5.31304
LJ           1.77373          3.1583         1.86565
LJ           1.72295         5.23432        -2.41746
LJ          -4.15554         2.58324       -0.679879
LJ           1.03224         3.39166             4.2
LJ         -0.864828         1.60595        -1.13149
LJ          -1.17481         1.77256        -5.71786
LJ          -5.22506         2.06258         6.00111
LJ           1.77978        -6.15935       -0.937747
LJ         -0.820609        -4.53803        -6.14406
LJ          -3.91654        -1.08829        -4.80591
LJ            3.9593        -2.79784           2.823
LJ          -4.60691        -1.11447        -1.21388
LJ          -1.40947        -3.71616        -1.60668
LJ          -3.66049        -5.00517         4.15739
LJ          -3.64812        -5.95817         5.93161
LJ         -0.980694      -0.0561613         4.83519
LJ          -4.42678        -6.31054        -4.22443
LJ           4.32789        -4.35009        -3.93768
LJ          -3.24199        -4.24446        -1.60693
LJ          0.625708        -4.83657        -5.38509
LJ          -1.76883         1.01476         4.18706
LJ          -5.02336         4.19754         6.41504
LJ          -5.59099        -1.56938        -1.19082
LJ           5.95098         4.09105         3.62918
LJ          0.480761        -5.49675        -1.22097
LJ          -5.19781          2.7053         4.18476
LJ           4.20114        -4.86862        -2.64796
LJ          -4.08427        -3.61878         2.48971
LJ           6.15904         5.90413        -2.95864
LJ           5.49469        -1.95129        -6.20769
LJ          0.333817        -1.56048         1.18868
LJ           1.24813        -4.42148        -2.40342
LJ           2.90108         5.68038         5.82449
LJ          -1.72989         6.38667         2.52933
LJ          -5.51405        -1.32406        0.535108
LJ          -4.33647          5.9206        -0.82263
LJ          -3.04333        -2.34474        -1.12193
LJ           2.24779        -6.10595        -1.84592
LJ          -1.43037          4.1064        -5.58788
LJ          -6.19401         4.25939         1.08532
LJ          -4.65068        -3.06045         4.39729
LJ           1.39733         3.91742        -6.19853
LJ         -0.984149       -0.767441         3.70791
LJ          -6.01391        -1.53057         5.58251
LJ          -3.66962       -0.822222          1.0415
LJ           1.48233         6.08987        -3.05005
LJ          -4.18024       -0.442168         1.91358
LJ          -5.06845         -4.0872        -4.53014
