108
#Comment!
LJ           3.04957        -4.86336         2.01748
LJ         0.0291332         3.48574        -5.40917
LJ          -4.38749         4.22965        -6.02622
LJ          -2.40252          2.0201         5.25318
LJ          -2.93477        -5.35758        -4.14143
LJ          -1.01603         2.52545        -4.64054
LJ           2.99294        -1.28856        -2.96166
LJ          -4.92446          4.5973        0.666503
LJ           6.45534         4.72834       -0.908861
LJ           4.73422      -0.0210995          4.8642
LJ         0.0219467         1.38111        -5.09175
LJ           5.11898         5.80515        0.605473
LJ          -1.74841        -5.83456        -4.29541
LJ          0.570318        -6.12202        -2.18821
LJ           2.08113       -0.701097        -6.27712
LJ           5.91433         -4.7185         5.48745
LJ           2.67378        -2.28705         5.44365
LJ         -0.807205         -3.3745         0.11006
LJ           4.46719       -0.355244         2.93287
LJ          -1.10182        -1.21211         2.31661
LJ           -1.7664         3.96287         6.42875
LJ          -4.59064         -5.8999        -3.02713
LJ          -5.22485         5.63827         1.49135
LJ           4.07386        -2.78541         2.25816
LJ           5.71191        0.635817        -2.89374
LJ           5.13123         6.29375         -1.5302
LJ           3.35182        -4.51857         3.18849
LJ           1.31345        -3.91147         5.71198
LJ            5.5536        -5.06814         4.50119
LJ           2.70569         4.11297         5.80897
LJ          0.473058        0.771765        -2.37642
LJ          0.889638         2.12258         2.15429
LJ         -0.778025          4.7975        -4.93872
LJ          -3.14983        -4.79171         3.42602
LJ          -0.18275         4.17684       -0.872858
LJ           1.86721          6.0324        -2.85765
LJ          -3.35336         4.48006         1.93968
LJ          -3.04228       -0.705791        -5.85962
LJ           -4.5415        -1.26239         4.85447
LJ          -4.47862         0.17696        -4.09435
LJ          -5.66583      -0.0963447        -4.51043
LJ         -0.953913          2.5822         2.86273
LJ         -0.550672        -4.08528        -2.58348
LJ          -3.04547        -5.71886         -6.3005
LJ          -0.18781        -5.32225         5.39606
LJ          -3.90307         5.43905         1.00776
LJ            1.6701        -4.97259        -5.19545
LJ          -2.85965         5.31592        -1.92149
LJ           4.14122         5.97346         6.10339
LJ           1.37931         4.46681         -1.3884
LJ           3.35147         -1.9773         1.90927
LJ           -4.6635         -5.4156          1.8985
LJ            4.1335        0.250548         1.70651
LJ           4.86383        -5.91982      -0.0310281
LJ          -5.71634       0.0798469        -1.19894
LJ           3.17952       -0.118206        -4.14679
LJ           5.47553        -6.14812        -4.73395
LJ           2.26441        -2.57869        -2.49807
LJ           3.77722         2.85888        -3.87715
LJ           -5.2481         4.54179         5.53668
LJ          -5.73047         3.54249        -1.54798
LJ            3.9124         5.32774         0.28773
LJ          -1.74835         6.45779        -2.13537
LJ          -2.84158        -4.36807        -1.75652
LJ         -0.574602         4.37271         5.03256
LJ           1.40879        -4.89824        -2.59848
LJ           4.91201        -4.35969         4.30832
LJ          -1.82918         3.05886         5.92403
LJ          -2.85893        -1.44618        -0.53617
LJ           1.81609         5.92324        -5.57229
LJ          0.620967         1.65251        -3.03059
LJ          -5.20422        -5.05329          2.7878
LJ           2.32434         3.48782         4.29804
LJ          -5.56218         6.28443         6.32808
LJ          -3.26243        -1.81897        -4.20089
LJ           -2.6535         4.64959        -3.62084
LJ          -5.40128          5.7861         3.36376
LJ         -0.652355        -1.45894        -2.78857
LJ           3.96365         1.24974         3.54397
LJ          -3.97448        -2.57482        -3.41573
LJ          -5.07194        -5.27972        -2.23276
LJ          0.161434        -3.99404        -5.11585
LJ          -2.56168        -5.52664        0.396826
LJ           1.67047         1.92776       -0.472161
LJ          0.380705        -1.50384         -6.4022
LJ          -5.09814          2.9514         6.42711
LJ          -2.27039         -3.2491        -1.61926
LJ          -3.85497        -5.02901         5.90203
LJ           2.57636          1.7558        0.618773
LJ           5.70824        0.784448         3.16764
LJ           4.45581        0.387609        -2.48391
LJ          -1.87455         4.48713        -2.65098
LJ          -0.76227        -2.98056        -6.09879
LJ           2.74713          1.8467         4.91249
LJ           5.63012        0.124555         1.51759
LJ          -3.43978        -5.89453        -5.08653
LJ           2.58829         3.35997        -4.51915
LJ          0.337418         2.07206        -2.10163
LJ          -6.17325        -5.92201        -2.46178
LJ         -0.501287           3.244        -2.97837
LJ          -5.87101         2.07888         6.34866
LJ           3.34049          5.0178         5.82105
LJ         -0.554473        -2.79939         1.13146
LJ         -0.866346        -5.54407        0.441373
LJ           4.52716         5.47318        -6.13896
LJ          -3.23058         6.35229         4.78013
LJ           5.28296         4.87162         2.03297
LJ            5.8683         4.97505        0.161777
