108
#Comment!
LJ          -4.14649         -3.5363         3.64742
LJ           2.92996       -0.969503         1.09707
LJ          -2.36172         1.91513       -0.240378
LJ          -2.98598         3.94672       -0.675273
LJ          -4.69458         3.82682         1.10398
LJ          -2.88847        -4.94698         2.85642
LJ          -1.45119        -5.98728        -2.15769
LJ         -0.635225        -2.34882      -0.0449535
LJ           2.98519        -1.82195       -0.661072
LJ           5.97737        -2.15447        -2.69472
LJ            4.1658         3.94402        -2.90998
LJ           5.28123        -5.33342        0.154913
LJ          0.465782        -4.71183        -5.49327
LJ          0.456609         -3.3216        -2.76149
LJ           5.73038         5.40779        -6.26934
LJ          0.759184         4.11892         2.16425
LJ           1.26131          2.0357         5.50368
LJ          -3.58408         2.10422          4.6522
LJ           2.46851         3.81418        -5.46126
LJ          0.202653         -4.0556         3.78182
LJ           -4.2769        -2.70241        -6.15081
LJ           2.11349         6.25307         4.21424
LJ         -0.348042        -2.57838         4.90027
LJ           3.43088        -1.03684          5.7583
LJ          -4.14136         5.74512        -4.10058
LJ           6.36643       -0.765429        -1.57824
LJ         -0.112289         5.81202      -0.0986977
LJ           2.60023         6.06424        -1.54518
LJ          -2.92589        -3.19461         1.61163
LJ           1.39302         5.88274        -1.07967
LJ         -0.178948         1.46199         6.27583
LJ           4.45497        -5.61672        -2.95533
LJ           2.61467        -3.15245         2.62525
LJ          -3.54118        0.838721         5.55972
LJ          -5.85837        -2.97655         -5.2029
LJ           5.57436         4.03705         3.61674
LJ           5.84596         2.94322        -2.16476
LJ           4.71172        -3.09689        -6.07783
LJ          -6.36479         6.35769       -0.341129
LJ         -0.557276        -1.05925        -4.53037
LJ           5.52977        -2.40281         -5.3326
LJ           5.51982        -5.71718        -1.14688
LJ         -0.512286        0.809182        -5.00072
LJ          -6.05955         5.39481       -0.683131
LJ          -4.96892        0.380409         4.01262
LJ          -1.85506        -5.21346        -2.66418
LJ          -6.14845        -5.88955          2.7169
LJ          -5.69217        -1.72287        -2.29859
LJ          -1.68885        -5.23995        -1.27322
LJ           4.20006        -4.62842        -5.19366
LJ          -3.56208        0.178345         4.36431
LJ            5.4279        -1.18317        -2.69163
LJ            1.4469         -3.3655         4.94506
LJ          -1.23476          4.7722        0.115589
LJ          -2.79112        -6.19552       -0.807389
LJ           1.74621         1.61053        0.377603
LJ          -1.05495        0.915264         -1.5593
LJ          -5.97747        -6.04657        -5.34629
LJ          -1.93986         3.87371        -3.33168
LJ          -5.63902        -4.55046        -3.14754
LJ           3.12291         1.38115         1.21457
LJ          -5.54481          3.9185        -3.47353
LJ           6.23612         -4.3588         -4.4207
LJ           5.32954         3.58448        -3.48455
LJ          -1.86298          3.6364        0.714473
LJ         -0.751486        -3.51476         4.03637
LJ           2.99419         4.49597         4.77201
LJ         -0.262107         0.88791         4.92914
LJ           1.44784         -2.0534         1.71654
LJ           6.38123         6.04887         1.33615
LJ          -4.80894         -3.6174        -4.32496
LJ          -3.53969        -5.30913        -3.14449
LJ           1.78473        -2.04872         6.17445
LJ          -6.30082       -0.163707         4.09227
LJ         -0.361509         5.60734        -4.92528
LJ           6.31732         2.82318        0.957803
LJ           -5.1147         2.35272          5.2828
LJ           -5.9822         4.66295        -2.75122
LJ           1.19362         1.11261         3.34467
LJ           4.91611         3.34861        -4.60083
LJ          0.536512         5.75329         -3.7711
LJ           2.18323         4.96692         5.44848
LJ          -5.33775       -0.506287       -0.103136
LJ           4.83679         6.12764         4.24312
LJ           1.19956        -4.80346        -3.29579
LJ         0.0828663         5.08397       -0.788331
LJ          -1.54764        -6.23769        -3.98388
LJ         -0.843431        -1.82712          2.1536
LJ            6.3512        -3.77499        0.389258
LJ           3.99117         5.32196         1.75821
LJ           3.76546        -6.04176          1.1937
LJ           3.69581        -4.01495        0.196987
LJ          -4.76933        -6.41048        -1.69301
LJ         -0.949897         3.31471         2.07714
LJ           4.85222        -5.69242        -5.70791
LJ            4.5575       -0.214302        -0.94739
LJ           6.03014         5.09393        0.805522
LJ          -2.67293          3.4459        -4.60737
LJ          -5.73727        -6.45343         4.89129
LJ           3.52155         2.02784        -3.88011
LJ           0.67782        -2.51852          5.9468
LJ          -1.26024        -4.86302        -3.52237
LJ          -5.83899         3.12409        -6.01885
LJ           1.49881        -2.03025       -0.654628
LJ          0.623378        -2.76586          2.2474
LJ          0.967256         4.42411          3.7457
LJ          -5.66232       -0.994949         4.18396
LJ          -2.50228         -2.1773        -3.99028
