108
#Comment!
LJ           2.12511         5.87765         6.35103
LJ          0.392555        -2.65137         6.20364
LJ          -3.76885         -2.5356        -4.27455
LJ          0.689178        -3.75697        -4.92267
LJ           5.89755        -3.17227        -5.90818
LJ           5.99892        -2.14445         4.61604
LJ           5.67777        -4.58046        -2.07893
LJ          -5.27645         5.22522        -1.86955
LJ          -3.85338         4.59316         4.84307
LJ           3.57086        -5.49337         5.88181
LJ           5.17444        -5.59374         6.39442
LJ          -3.58408         5.18646        -3.52518
LJ           1.42638        -1.10371         -5.1534
LJ          0.866273       -0.882961        -6.24945
LJ           1.64546         1.11162        -2.37212
LJ           1.91772        -3.80646        -1.67273
LJ           2.99493        0.759497         5.95041
LJ           5.30557        -3.32025         5.94939
LJ           1.41598        -3.53452        -2.82161
LJ           2.00616        -6.35862         4.20625
LJ          -1.30796        -3.25724         6.10575
LJ           1.89558         4.85631         3.05825
LJ          -1.48907       -0.917949        -4.66304
LJ          -3.74703        -1.57416        -2.38266
LJ          0.291212         6.06338         5.77792
LJ           1.37401         2.47735        -5.94495
LJ          0.293137        -4.61872        -4.43908
LJ            1.5786          1.1465         6.31784
LJ           6.11497          1.2966          5.1907
LJ           5.60337         2.05903        -2.12664
LJ           -6.3879         3.72257        -3.44381
LJ           6.25255         2.87832        -1.67898
LJ           -3.0773         2.16034         4.64877
LJ         -0.572635         2.28877        -5.23432
LJ          -3.94329         5.99515         4.97677
LJ          -1.49965      -0.0665956        -2.72747
LJ           2.48074         4.83343        -1.90646
LJ          -1.47853        -5.42015        -3.44873
LJ           2.29219        -4.14622       -0.306525
LJ          0.766313         -5.6598        0.402313
LJ           5.72088        -6.13301        -1.67482
LJ           4.84032        -5.43181        -4.70106
LJ           -3.6095         4.85337        0.142837
LJ           3.03257         5.58897         3.11449
LJ          -5.41678         5.91527         -5.7008
LJ           5.08094        -5.06658         4.34501
LJ          -5.08033         4.47405       -0.979044
LJ          -4.06155         6.20711         0.49181
LJ           1.67592          -2.238        -3.23103
LJ            2.4548         2.44902         6.44525
LJ          -1.72892          5.1099         1.34404
LJ         -0.078586        -1.24332       -0.445903
LJ          -1.03142         -2.9075        0.156647
LJ           5.80191         1.50881       -0.168869
LJ           5.03258       -0.883131       -0.509811
LJ           4.64005         2.86295        -1.50078
LJ            1.6604         -3.8704         5.80158
LJ          -4.32071        0.551252        -2.68455
LJ           4.85085         3.91998        0.749925
LJ          -1.37003        -5.37152       -0.719862
LJ           -3.7009         4.30204        -1.67279
LJ          -5.26478         1.51459         2.46443
LJ          -2.58417        -6.16717        -1.75332
LJ           1.03524         1.63477        -3.50662
LJ           4.50028         5.52124        -2.45924
LJ          -4.54692         5.07032         1.31578
LJ            5.6793         4.58092         3.70035
LJ           5.24521         1.40148        0.688797
LJ           5.26142         5.39582         5.73177
LJ           1.59404       -0.411134        -1.00175
LJ           5.57951         5.10792        -2.10966
LJ         -0.344683         4.09409        -2.08652
LJ            1.0532        -6.09486          3.3397
LJ           4.38874        -3.60898        -1.29734
LJ          -1.05384        -5.68196         3.70584
LJ           2.82294         3.63898         4.33189
LJ           2.84317        -5.34533         3.26771
LJ           4.74873        -4.74316         2.93181
LJ          -1.24498        -3.94348          1.7773
LJ           4.44825        -2.85106         3.45716
LJ          -2.49575         5.83854         3.37697
LJ          -3.80734         -5.6241         2.08933
LJ          -2.06574        -4.09289         4.62378
LJ          -3.97633        -6.31913        -5.72984
LJ          -2.50493         5.82019        -3.27051
LJ         -0.778267        0.379323         1.55504
LJ           1.86618         4.08364         5.52141
LJ         -0.328574        -1.49139         4.08824
LJ          -3.17189         2.37104         3.03214
LJ           5.56569       -0.812132         5.16581
LJ           5.97821         2.31365         1.94152
LJ          -6.21221        -4.24815         3.87649
LJ          -2.21048        -2.37582          1.6549
LJ          -4.11582         1.15871         2.53072
LJ          -3.70618          1.0756         3.93689
LJ           3.93731         2.29514         5.75358
LJ          -3.10146         2.64755         5.95573
LJ             1.004         5.77127         1.03832
LJ          -2.87665         6.28124         5.26363
LJ           1.49097        -2.00829         4.22653
LJ           1.14493        -1.48619         5.83463
LJ          -2.63559         1.93404       0.0271875
LJ           5.59348         2.43514         5.61314
LJ           5.45014        0.445464         4.71789
LJ          -3.13637      -0.0559385         2.43952
LJ           1.32444         3.11542         2.76198
LJ          -3.05448         4.67902          5.7692
LJ          -3.15881       0.0760378         3.72154
