108
#Comment!
LJ          -1.04076       -0.891882         1.26276
LJ          -3.09861        -4.07375        -5.67164
LJ           5.24198         2.82564        -3.31598
LJ           -1.5706        -5.80175         1.50576
LJ           2.25424         5.51959        -0.68977
LJ           5.30436         2.33071        0.815478
LJ          0.771309         2.58904         1.23913
LJ           5.18642         1.59119         3.09465
LJ           6.12327         1.71892         5.88423
LJ           2.00405        -2.89435         4.82596
LJ          -3.19763          1.3817         4.54101
LJ            6.1747         5.57067        -2.92486
LJ          -2.35137        -6.05809         5.28486
LJ          -1.94168         5.75394        -3.42034
LJ           3.30871         2.96093        -2.99293
LJ          -5.75154        -1.46035          2.9537
LJ          -5.24593          4.5113         3.10569
LJ           -6.1842      -0.0951657         1.12958
LJ          0.361581        -5.47056        -3.43763
LJ          -5.69861        -2.76777         3.41011
LJ          0.987906        -5.14336         6.10272
LJ          -5.16321         5.55831         6.10639
LJ          -6.20924         4.10246        -3.79035
LJ           2.91579           6.139         -2.7332
LJ           3.70803         5.75987         3.33297
LJ         -0.738906          1.4571        -1.44477
LJ          -3.15657         4.10789         6.03672
LJ          -6.12408         3.18645      -0.0804811
LJ           1.68343        -4.69218         1.28193
LJ          -2.91505          1.0463       -0.820847
LJ          -3.86575      -0.0885837          5.8419
LJ        -0.0691568        0.229447         3.22457
LJ          -2.47883         3.53998         5.34315
LJ           3.29699       -0.899351        -5.12448
LJ           6.41828       0.0344995         -4.3584
LJ         -0.965385         3.27203         1.90317
LJ          -2.03035        -4.48225        -4.89311
LJ          -5.34721        -1.82584         4.26267
LJ          -4.15874         6.16207         5.81689
LJ          -4.14505        -3.68235         6.31663
LJ          0.138542         1.57921       0.0114479
LJ          -4.43852         1.39997        -1.23934
LJ           3.80972         5.38109        -5.72041
LJ           1.10366        -3.29632         4.96422
LJ           6.05322          2.1218         -1.8393
LJ           4.35807         6.39358         3.78089
LJ          -5.72546         2.15409        -1.27695
LJ          0.157191        -2.25455       -0.815624
LJ           4.68211        -5.95643        -1.03366
LJ           1.33084        -1.16591        -5.26555
LJ          -5.45911         1.99579          5.9901
LJ          -1.66383         -3.7842         2.23595
LJ          -6.15299        -6.18512        -5.81009
LJ         -0.729312         1.47163          5.1194
LJ           2.96939        0.942927       -0.856029
LJ           1.16585        0.720285         3.85318
LJ          -6.16052        -6.21702         5.48745
LJ          -1.51065         3.54875        -2.17153
LJ             2.381        -3.16609        -4.76392
LJ           4.47236        -5.33232         1.75405
LJ           2.30801         -5.3576        -5.33901
LJ          -5.49909        -1.17069         5.30801
LJ           6.18851        -4.69062         5.08834
LJ           2.69952        -4.72015         0.74742
LJ          -3.41481         1.69957         3.58321
LJ           1.52316        -4.70797         2.98927
LJ          -3.30499        0.500666        -6.13087
LJ          -5.06579        -4.78499        -5.64081
LJ          -4.74385         0.78305         4.63573
LJ          0.924999        0.576208        -1.43731
LJ          -4.06113        -2.46302         1.67115
LJ          -1.10907        -1.59191         3.84809
LJ           1.30329      0.00275149        -2.19092
LJ           6.31493          -2.845        -1.55584
LJ           4.64705          4.1814        -3.50992
LJ          -5.08877         4.30679        -2.31822
LJ          0.894572        0.888896        -2.81218
LJ           5.22171        0.950048         4.30904
LJ           2.66383        -3.38184        -5.67854
LJ           5.27201         3.38316         1.79803
LJ           4.51282        -4.83469         3.14858
LJ          -3.66928        -4.84681         4.70571
LJ         -0.799178        -1.73882        -3.42024
LJ          -5.02315         5.93292         2.43362
LJ           4.86332        -4.72134         6.14992
LJ           5.24099        -1.45981        -3.53266
LJ          -2.36207        -3.80912        -3.75899
LJ          -3.92816        -4.63367        -3.41732
LJ          0.114547        -5.79613        -4.88762
LJ           -5.6623        0.363855         2.34083
LJ           3.76662        -3.09892        -3.04341
LJ          -5.38105        -3.72396      -0.0962463
LJ          -4.89406        -4.73839        -1.91867
LJ          0.249291         6.24483       -0.150961
LJ          -4.13734         6.07125        -5.33952
LJ           4.16932        -3.52092         3.02336
LJ          -4.92784       -0.750871         -2.3051
LJ           1.25934        -3.21446       0.0174632
LJ           5.23587          6.3638         2.66789
LJ            1.2224         4.24407         2.48001
LJ           4.52949        -2.22238        -2.99203
LJ           3.26837         5.12095         4.53998
LJ         -0.144651        -1.24384         1.76206
LJ           3.25022         4.24439        -2.24025
LJ            1.2031          5.5766        0.753775
LJ          -5.89321        -2.66172         0.52553
LJ          -5.03287        -6.10184        -5.22509
LJ           2.36795         3.09705        -2.13363
