108
#Comment!
LJ          -2.10163        -2.73135         2.16213
LJ           3.64197         -1.3593      -0.0253752
LJ          -3.83622         2.49861       -0.336915
LJ          -2.84123         4.19852         -2.8556
LJ          -3.84787         4.20912         2.08857
LJ         -0.679161        -3.16056         1.89826
LJ         0.0176125        -4.99252        -2.01735
LJ          -3.23187        -3.68907        0.797707
LJ           1.67656        -2.47763         0.35461
LJ           5.83274         -4.2186        -4.33809
LJ           3.80746         5.16764        -2.55254
LJ           4.93106        -4.59948        -0.76768
LJ          0.594957        -3.05207        -5.92883
LJ           0.93419        -5.22913        -1.81625
LJ           -5.0968         4.09994         5.80196
LJ           3.33771         2.96123         3.36917
LJ           3.07102         0.77327        -5.56284
LJ          -4.35922         1.18309         2.53474
LJ           1.33685          2.3771        -5.09978
LJ          -1.13701        -4.37833         4.37945
LJ          -3.88039        -3.19629          -5.111
LJ          0.932057        -6.45612         4.71329
LJ         0.0739626        -1.74918         5.63212
LJ            6.1723        -4.32655         6.24165
LJ          -4.31456         4.80996         -4.7038
LJ              6.41        -1.21307       -0.663351
LJ          -1.60713        -6.17834       -0.367624
LJ           3.40746           4.638       -0.331697
LJ          -3.22131        -1.96879         1.59825
LJ           1.07257         6.42744        -1.88448
LJ           -2.0248         1.40688        -3.94064
LJ           2.04377         -4.6025         -1.5658
LJ           3.15832        -1.67078         3.22618
LJ          -3.45174         1.40605         5.52843
LJ          -5.59884        -2.42742        -3.91536
LJ           5.18372         2.58356         3.69344
LJ          -6.16347        0.917664        -3.33787
LJ           5.50056         -5.0399        -4.91625
LJ          -5.29172         5.01637        0.413944
LJ          -2.64768        -2.61065        -5.82404
LJ           4.59448        -4.09901        -2.46802
LJ           5.76806        -5.51687       -0.980665
LJ          -2.89533        0.353221        -5.06863
LJ          -5.04761         6.37994        -1.71837
LJ           -6.4053         1.06175         5.21643
LJ          -3.08311         5.43271        -3.41679
LJ          -4.89643        -4.86177         1.42333
LJ          -4.86369        -1.17048      -0.0597556
LJ          -1.63399         6.19422        -1.96866
LJ           3.60973        -3.27591        -5.97817
LJ         -0.683359         0.93469        -6.11284
LJ           -5.9227        -3.55503        -1.16926
LJ         -0.826347        -2.10753         4.05463
LJ             -2.11         3.91295       0.0314688
LJ          -2.36047         5.62488        0.531513
LJ            3.2391         3.37023         1.05372
LJ          -3.35916         0.33075        -3.81504
LJ          -5.49007         5.39459        -5.16766
LJ         -0.985859         2.88554        -1.66563
LJ          -6.26022        -5.06095        -5.26202
LJ           1.28161        -1.61577         0.06507
LJ          -5.98625         3.79839        -4.90014
LJ            4.1529          -4.321        -3.50929
LJ           5.71831         3.33767        -3.03905
LJ          -4.35762         3.28398       0.0981429
LJ           -1.6626        -4.24367         5.33014
LJ           5.05065         4.54683         5.86405
LJ          -1.40852         3.56803         5.25622
LJ           4.31354        -1.02718         1.00666
LJ          -6.26965         5.56262         3.94949
LJ          -5.33284        -1.99722        -5.43019
LJ          -4.03168        -4.58096        -4.68731
LJ           1.66967        -2.68105         5.86835
LJ           2.23574        -1.47217         4.72486
LJ         -0.387015        -5.97592         -4.9647
LJ           6.15639         3.74365         2.42714
LJ          -4.39098         3.84883         4.95217
LJ          -6.42595         4.48266        -4.00917
LJ          0.249643         2.91172         2.78108
LJ           4.76787        -6.31035        -5.39657
LJ          0.751635        -6.43517        -4.70839
LJ           3.26341         4.41681         3.95459
LJ           6.35777       -0.753092         2.03961
LJ           5.82239        -3.64104         5.05758
LJ           0.58255        -5.46903        -4.32394
LJ           1.47836         5.73815        -1.10745
LJ          -1.82544         4.33722        -6.08009
LJ          0.977637        -1.54441         4.07263
LJ           6.25112        -5.42123        -2.32631
LJ           4.67979         5.22048         4.53539
LJ            3.8259         6.39858       0.0104576
LJ           3.83855         -3.4097        -1.35017
LJ          -5.03087        -5.00823        -1.59709
LJ           2.41693          2.8929        0.231383
LJ           4.16683        -4.34622        -4.87608
LJ           2.68617        0.454673         -1.2443
LJ            -6.171         6.36503         2.75506
LJ          -2.74217         3.72187        -3.67668
LJ           5.75531        -4.24836         2.99787
LJ           5.30377         3.59793        -5.66892
LJ           1.15269        -1.75822         6.01461
LJ         -0.752177        -4.88702        -3.04701
LJ          -5.50725         4.77994        -5.94255
LJ           3.29335         -3.0723        -2.23557
LJ          0.968818        -2.65201         1.76966
LJ           1.67918         3.13519         2.42693
LJ           5.62139       -0.720253         5.83034
LJ          -2.37986        -1.05291        -5.63528
