108
#Comment!
LJ          -1.41568        -2.18893         1.41497
LJ           3.90738        -1.52375       -0.182095
LJ          -4.29313         2.56491       -0.490599
LJ          -2.66682         4.58293        -2.35161
LJ          -3.48078         4.35871         2.44684
LJ          -0.11154        -2.36296         1.69569
LJ         -0.694017        -4.41093        -1.69613
LJ          -4.16815        -4.42617         1.00198
LJ           1.53945        -3.53416        0.446116
LJ           5.39216        -4.31747        -4.39242
LJ           3.47019         5.78915        -2.35359
LJ             4.826        -4.26917       -0.951616
LJ          0.623131        -2.48016        -6.35058
LJ           1.27423         -5.0911        -1.36237
LJ          -4.79452         3.83116         6.29276
LJ           4.18852         2.71058         3.95424
LJ           3.82465          0.2547        -4.77158
LJ          -4.43817         1.05493         1.46204
LJ          0.898396         1.79072        -4.95431
LJ          -1.83766         -4.6354         4.60117
LJ          -3.69051        -3.41022        -4.72521
LJ          0.440716        -6.38346         4.93064
LJ          0.477419         -1.4904         5.84975
LJ          -5.66683        -5.36505         5.73728
LJ           -4.5679         4.44453        -5.04353
LJ          -6.28848        -1.42372        -0.19134
LJ          -1.93928        -5.69551       -0.695265
LJ           4.86257         5.47695       -0.612196
LJ          -3.38871        -1.44188         1.96305
LJ          0.711182          5.2413        -2.23939
LJ          -2.95613         1.21738        -2.61631
LJ           1.68744         -4.0764       -0.956498
LJ           3.66817        -1.39789         2.76659
LJ          -4.13683         1.19966         5.65687
LJ          -5.27447        -1.67745        -3.70908
LJ           4.72871         1.85879         4.28238
LJ          -5.65966      -0.0465928        -3.72423
LJ           5.42003        -6.11032        -4.31531
LJ          -4.61191         4.21374        0.761582
LJ          -3.78965         -3.0833        -6.15961
LJ            3.9401        -4.91917        -1.55107
LJ           6.17299        -5.48616         -1.4283
LJ          -3.48755        0.267024        -5.51594
LJ          -4.68408        -5.88445         -2.0431
LJ           5.59813         1.15084         5.80467
LJ          -3.60764         4.60895        -4.01445
LJ          -5.34703        -4.75225        0.778682
LJ          -4.57092       -0.821726        0.964568
LJ           -1.5948         5.57534        -2.19281
LJ           3.50651        -2.76419         -6.1916
LJ          0.293648         1.07431        -5.02154
LJ          -5.35381        -4.50766       -0.369672
LJ          -1.64863        -1.25897         3.89148
LJ          -2.46349         3.68494      -0.0479154
LJ          -2.45161         4.99165         1.12882
LJ           3.65941         4.15301         1.17675
LJ          -4.54107       0.0754794        -4.40806
LJ          -5.26773         5.12682        -4.32797
LJ          -0.63506          2.4922       -0.964479
LJ          -6.04795        -6.33645        -5.83971
LJ          0.315457        -2.38597       -0.590047
LJ          -5.99512         3.98329        -5.51612
LJ           3.47011        -4.51789        -2.59673
LJ           5.73844         3.04824        -2.98044
LJ          -5.61158         3.36492        0.047458
LJ          -2.02944        -4.60964         5.76165
LJ           5.87442         4.77435         6.03935
LJ         -0.999476         5.16908         5.22324
LJ           5.49279       -0.599173        0.336515
LJ          -6.20505         5.44782         4.65513
LJ          -5.67514        -1.48483        -5.67375
LJ          -4.42858        -4.06588        -5.46129
LJ           1.26848        -2.82489         5.79054
LJ           1.54309        -1.53744         5.27032
LJ         -0.732481        -6.11679        -5.48837
LJ           6.36449         4.24557         2.51219
LJ          -3.47668         4.12322         4.17312
LJ          -6.25494         4.62944        -4.76996
LJ         0.0302427         3.77078         2.50684
LJ           4.44025        -5.05156         -6.0314
LJ           0.36483        -6.02958        -5.29104
LJ            3.8711         4.07108         3.28977
LJ           5.82989       -0.861927         2.92247
LJ           6.17217        -2.32237         5.62545
LJ           1.39214          -4.992        -4.48887
LJ           2.24096         6.12701        -1.19886
LJ          -1.86125          3.3679         5.89891
LJ           1.06297        -1.56544         4.12319
LJ           6.22034        -6.17377        -3.21469
LJ           4.79124         5.18655         5.68444
LJ           3.88044         6.10257       -0.533285
LJ           3.81517        -3.04243        -1.49631
LJ          -5.14397        -4.79505        -1.80575
LJ           2.94726         1.34504        0.454614
LJ           4.10969        -3.76694        -4.94753
LJ           1.89636        0.713418        -1.34008
LJ          -5.83248        -6.12071         3.95208
LJ          -2.66752         3.33243        -4.30081
LJ           5.24639        -3.33477         2.15531
LJ           6.14125         4.09364        -6.20967
LJ           1.12859        -1.47658        -5.38999
LJ         -0.341715         -4.9747        -2.74192
LJ          -5.45888         4.87192         6.42803
LJ           3.86389        -3.15165        -3.43784
LJ           1.96195        -2.10522         1.70276
LJ           2.07089         2.42581         1.81586
LJ           4.91619       -0.569819        -6.41824
LJ          -2.21276       -0.714158        -6.40009
