108
#Comment!
LJ           1.78787        -3.65633          2.1505
LJ          -1.38467         4.87074        -5.77806
LJ          -5.47463         4.15864        -3.99499
LJ            1.5626       -0.952338        -4.74741
LJ          -6.06877         2.75107         1.95731
LJ          -3.36163        -0.11837         -2.5468
LJ           3.55794      -0.0202385        -3.24342
LJ          -3.13791        -6.39324        0.944037
LJ          0.816671         2.55079        -1.07154
LJ          -1.51787         1.99304        -4.95332
LJ          -1.52054         1.52416         6.23253
LJ           4.59741         4.70601       -0.590895
LJ           2.04132        -4.91712        -3.71982
LJ           1.63752        -6.37525        -2.04801
LJ         -0.500897         1.60619        -5.52915
LJ           4.78632        -1.72008        -6.25969
LJ           6.25991        -3.10541        -2.14113
LJ           1.10258        -2.63392        0.657724
LJ           2.86861        -2.86329         0.64289
LJ          -2.31808       -0.450999         2.51959
LJ          -2.03448        -1.82004        -5.65334
LJ          -6.07247        -3.97183        -1.82118
LJ           5.52185         2.77549         3.92097
LJ           3.00797        -3.51814         5.50483
LJ           4.68294         3.16934        -5.43405
LJ           5.32963         5.37798         1.35516
LJ          -5.83941        -1.26448        -6.39061
LJ          -1.33438         -4.2587        -5.37331
LJ          -2.07419        -5.07485         2.59135
LJ          0.736143          2.0845         3.97463
LJ           3.04868        -1.14528        -3.25333
LJ           2.15388         1.72127           1.775
LJ          -1.86907         4.09372         -1.2852
LJ          -2.02796         5.05192         5.21307
LJ          -1.95838        -6.06415         2.88845
LJ          0.494518        -6.34749         5.21426
LJ         -0.807574        0.949121       -0.753984
LJ          -2.94159         -1.2531        -6.45573
LJ          -3.71744         -5.5823         1.02943
LJ          -4.16389        -1.23726        -6.17113
LJ          -2.08693        -5.10291         5.56063
LJ          -2.31737         1.37882       -0.503172
LJ         -0.319638         0.50299        -3.49833
LJ           5.08232        -5.20409         3.87734
LJ           -0.3965         1.39048        -3.40117
LJ          -6.36621         6.06931         1.93696
LJ         -0.806538        -1.26008        -5.44579
LJ          -6.22517        -4.19054         -0.4842
LJ         -0.984777        -3.43119         3.83592
LJ         0.0516164       -0.468433         2.92261
LJ           3.45928       -0.366471         1.60183
LJ           -4.0472        -3.28192         1.41001
LJ           5.56968          2.3629        -5.16369
LJ          -6.22837        -3.23115        0.746883
LJ           6.11989        0.781657       -0.391926
LJ           3.34812      -0.0260944        -5.42092
LJ           6.33862        -6.03376        -4.96682
LJ         0.0430745        -4.77179        -1.63364
LJ           4.10752         5.87132        -2.61307
LJ           5.66533         5.30335          2.7812
LJ           4.81554         1.70272        -4.00057
LJ           0.91417        -5.49779         2.59791
LJ           1.84465        -3.89921         -2.9933
LJ         -0.925851        -5.69669     -0.00929921
LJ          -2.14573          4.3661         4.25496
LJ          -3.52817        -4.32671        -4.94425
LJ           5.00313        -2.91716         -5.2714
LJ          -1.63471         3.45085        0.878046
LJ          -2.43588          -2.001         3.42842
LJ         -0.727503          5.4198         4.92099
LJ           2.77899        0.549876         -4.6823
LJ          -2.47133        -3.16361         1.96687
LJ           5.06748       -0.124916          2.1322
LJ          -5.97664         2.72118        -4.31395
LJ          -3.94811        -1.68294        -3.08417
LJ          0.797409         3.46736        -1.98457
LJ          -0.46388        -3.98807         5.44516
LJ          -1.28128        0.044314         -3.2825
LJ           2.60938         2.06301        -5.51903
LJ           1.42945       -0.726398        -1.21373
LJ           5.49913        -5.86833       -0.463978
LJ         -0.414401        -5.29482        -5.47097
LJ          -2.46798        -4.57088        -1.78777
LJ            2.6719          2.6737       -0.500778
LJ          -5.80482           1.562          2.0116
LJ          -6.41644         5.37799        -5.70729
LJ          -2.25378        -3.19231        -1.35959
LJ          -2.41396        -4.01554         2.55975
LJ           0.99953         4.60913       -0.265339
LJ           3.00394         1.87789         1.29609
LJ           4.47446        -1.43725        -5.41208
LJ          -3.72027         1.73953        -2.25453
LJ         -0.671943        -3.26164         2.84684
LJ          -5.88085         3.61045         3.38638
LJ           5.30212        -2.83541       -0.951816
LJ          -5.80727        -3.25208         2.64177
LJ           3.76463         3.09025        -4.55894
LJ           1.71409        -1.99385         -2.6295
LJ          -1.81271        -6.30564        -5.53148
LJ          0.560542         5.18462        -2.61044
LJ           5.94218         5.78047         6.18904
LJ           3.29143         3.74119         6.43777
LJ           3.80877        -1.43079         1.89063
LJ          0.735099        -1.26657       -0.555478
LJ          -3.25202         3.63276        -4.00757
LJ          -4.48464        -5.76682         3.56997
LJ           5.89097         1.43384        -1.53228
LJ           5.07247         3.77879        0.378562
