108
#Comment!
LJ            1.6246         1.85647        -4.68822
LJ           -6.3978        -6.15584        -4.87146
LJ         0.0277734       -0.336177         6.28176
LJ          -5.12289         6.24839         5.36541
LJ          -3.85377         5.12337        0.468221
LJ          -2.30376       -0.692779         -4.9617
LJ          -1.35952       -0.873026        -3.65565
LJ           6.00993         3.95361        -1.50789
LJ           -2.4954         1.59543         4.52212
LJ           5.85172        -5.73706        -1.10826
LJ           -1.2531        -4.18794        -2.58186
LJ           3.23937        -2.59552          3.1888
LJ           3.13109         5.52644        -4.45528
LJ          -1.17758        -2.01571         6.16686
LJ           2.71972        -5.46741         2.23749
LJ          -5.00166          2.2144         6.34139
LJ        -0.0690917         3.28863        -3.01846
LJ          -2.56169        -4.07427        0.571576
LJ          -4.74172        -5.32912         4.14833
LJ          -3.14638          -2.518         1.29527
LJ          0.957422        0.284945        -6.38535
LJ            -4.757        -5.28922          5.4262
LJ          0.785389       -0.999273        -2.15368
LJ          -2.29343         2.22702         2.39401
LJ          -5.41183        -1.84903       -0.307344
LJ           2.59083        -4.26377        -2.02316
LJ           1.55529         3.68897           -5.64
LJ          -5.47895         2.75655       -0.337304
LJ           1.03027        -2.51568         3.62825
LJ           4.13809       -0.544147        -6.40204
LJ          -3.89403         2.90059        -3.74188
LJ          -1.75502         3.36488         2.54729
LJ         -0.529628        -6.27172          3.7687
LJ           2.34753       -0.565957        -1.87475
LJ           2.72195        0.445919        -4.51269
LJ            1.1812        -2.22884         2.48728
LJ          -5.87194         2.77283        -5.93999
LJ          -3.62243        -1.02015        -3.08562
LJ         -0.965112         2.85869           6.041
LJ          -4.07907          1.3893         1.17326
LJ        -0.0213493        -3.65849         2.74589
LJ           1.47781        0.344393         3.23656
LJ           5.56164       -0.625448        -2.92571
LJ           6.15898         5.94467         5.73048
LJ          -2.03266        -1.36919        -1.82874
LJ            5.5052        -3.81788         3.56563
LJ          -5.56966         6.35426       -0.858135
LJ           3.99294        -1.26108       -0.353798
LJ          -6.21454         6.20316         4.98794
LJ           0.73002         4.74983         6.14156
LJ          0.921106        -5.84977        -1.54007
LJ          0.246644        -1.64026        -5.25867
LJ           2.16407        -2.33766        -3.86251
LJ           4.39952        -1.46104        -2.89282
LJ         -0.900265        0.125577         -3.4521
LJ           5.55902        -1.72298        -1.26348
LJ           5.02428         -1.8976        -5.95834
LJ           2.38981        -4.51676        -3.83676
LJ           1.72047        -3.42896        -5.84652
LJ            -4.551         3.45609         4.40226
LJ          -3.37666         3.21654        -5.34042
LJ          -5.62664         5.28424         -3.9217
LJ          -1.93469         -4.5264       -0.582009
LJ           6.33076        -6.17402        -2.70126
LJ          -1.00081         4.86372        -1.72072
LJ          -3.94526        -5.45141        -2.29437
LJ           2.93414        -1.04937        -5.69727
LJ          -3.72785         1.94538        -3.37501
LJ          -3.53184        -1.29687         4.46231
LJ          -4.30176         2.15868        -2.53886
LJ          -4.85174         2.59747        -4.40728
LJ           3.32557         2.08038      -0.0451193
LJ          -2.23695         4.32604        -2.04209
LJ           5.21577        -3.17034         1.72308
LJ         -0.991401        -2.23531         2.15352
LJ           -5.0407         4.56558        -2.57803
LJ          -1.96615       -0.305686         1.49716
LJ           2.87917        -3.67074         2.55317
LJ          -4.66037        0.817792        -3.71389
LJ           2.99193        -3.18177         4.44872
LJ          -3.10334         5.40798        -5.26133
LJ           2.45467        -1.14411         3.68138
LJ           1.94892        -6.30621        -1.72551
LJ           2.49246          4.1886        -5.09322
LJ          -3.36825        -5.37588        0.404958
LJ         -0.422005        0.220721         4.01911
LJ           1.04948         5.44184        -1.40242
LJ            -4.993        -5.32204       -0.346508
LJ           2.50466        0.655664        0.371253
LJ           2.37747         2.72027       -0.157346
LJ           2.39492        0.153269         3.96716
LJ          -1.90041        -2.79733      -0.0965864
LJ          -1.00014         5.98207        -3.96527
LJ          -4.72477        -1.17559        -4.65487
LJ            -4.981         5.40395        -5.88739
LJ             4.397         4.21415        -5.31742
LJ           3.34048        -1.54956         5.06579
LJ           3.45965       -0.989022         3.17793
LJ           2.97331        -5.50272         5.17801
LJ           1.62727        -4.26824          3.4481
LJ           2.36947         4.03733         -1.1237
LJ          -0.63952         1.19141         4.51205
LJ          -6.12021       -0.990615       -0.282505
LJ          -2.24846          5.9003        -1.17403
LJ          -1.98341         -5.0541          5.9226
LJ          0.710476        -5.23552         5.99533
LJ           3.81787        -1.49026          4.0664
LJ          -6.02936         -5.5202       -0.788463
