108
#Comment!
LJ          -2.24036         1.10488        -1.58117
LJ           1.15004        0.995643       -0.383935
LJ          -1.27946         3.08538          1.6573
LJ           1.09728        -1.77626         -4.6601
LJ          0.741449       -0.796824         4.22242
LJ           -6.3304         0.19885         4.40539
LJ           2.72671         3.78515        0.773343
LJ           3.94283         4.80874          1.8206
LJ         -0.128009       -0.090263        -4.22755
LJ          -5.53753        -5.16903         5.47242
LJ           -4.2438          -4.279        -5.75874
LJ          0.850065         5.75346        0.492522
LJ         -0.761257        -5.85801       -0.329687
LJ           5.75646        -2.48207         2.17173
LJ          -3.30054         5.72661         -2.6935
LJ           2.15781        0.980031         1.31534
LJ          0.698708        -3.43108         -2.1049
LJ           6.22712        -6.45552        -5.82953
LJ           4.43915          2.3653       -0.663503
LJ          -1.17238        -4.97135      -0.0888472
LJ           -1.3591         -1.8512        -1.81051
LJ          -1.10459       -0.933642        -4.08505
LJ          -5.95188       -0.493064        -3.76599
LJ           3.74234         2.24732          5.9982
LJ           6.34683         4.56731         5.26049
LJ           5.58658          3.2406         1.49899
LJ           1.75528       -0.659177         3.10491
LJ          -5.79525        -3.77319        -3.50539
LJ           4.12792         4.41382       0.0416063
LJ          -4.34403         2.97487        -2.59354
LJ           4.81547       -0.250423         2.86771
LJ         -0.603081         1.44515         3.65609
LJ          -5.57031         -2.1048        -2.88236
LJ           4.99433         2.43369         2.01394
LJ           5.67903         4.16178         2.63005
LJ          -4.53045         1.33832        -6.21485
LJ           5.64324       -0.502004         3.85696
LJ          -2.39761        -3.01062        -4.12197
LJ          -4.74285        -4.48323        0.828338
LJ         -0.840206         6.09049         2.00337
LJ          -1.15627         3.73927         -2.3399
LJ         -0.219394         4.79236        0.155267
LJ            3.2822         5.94618         1.51394
LJ          -3.93967        -6.20261       -0.675558
LJ           1.89307       -0.568971        -6.16446
LJ           2.19803         3.53068        -3.52699
LJ          -1.60209        -3.72165         2.11831
LJ           3.68068        0.704023         5.96205
LJ          -4.59394         4.30953        -5.59922
LJ          -2.85641         5.96166        -1.76052
LJ          -6.04677         5.83427         2.30636
LJ            -3.192        -3.90696         -3.9429
LJ          -2.27426        -3.51372        -5.24567
LJ          -5.55094         4.06823         -4.6062
LJ          -6.03254        -6.30678        -3.54695
LJ          -1.25964        0.907709         1.72928
LJ          -2.10695         3.05843        0.543289
LJ          -1.52132        0.774123        -2.23347
LJ           3.43612        -4.75407         2.42339
LJ           2.44845        -3.36006         4.13922
LJ          -2.81788         2.32085      0.00534158
LJ           1.43752        -5.09862        -6.00286
LJ           2.85546        -5.32669        -4.31384
LJ           3.33336         3.93603         2.81567
LJ         -0.175036         1.99852        -3.88756
LJ           3.13739        -1.69644         1.90873
LJ          0.225617         3.06834        0.906339
LJ          -4.38144         2.04983         3.96593
LJ           1.13139       -0.374826         5.89766
LJ          -2.11241        -3.55237        -6.45964
LJ         -0.986174         5.03631         3.70622
LJ          -6.06943        0.859424        -3.88432
LJ           5.47313        -5.82603         5.94688
LJ           -3.8034         -3.0929        -4.49056
LJ          -4.03243         1.78846          5.8965
LJ           4.61979          4.6251          2.5192
LJ          -2.45522         5.85657         1.98282
LJ           -4.6469        -2.00738        -2.24689
LJ         -0.982933       0.0996541         5.02204
LJ         0.0440077        -2.75686        -1.19885
LJ          0.172884         2.72735         3.35678
LJ         -0.833912         6.10364         3.17522
LJ           2.17965         1.86157        -5.83994
LJ          -4.40851        -5.12814         1.68443
LJ           5.49792         1.36538        -4.21528
LJ          -3.87007         1.18846         2.03337
LJ           2.00629        -3.85203        -4.84798
LJ          -3.66319        -4.77352       -0.750874
LJ          -1.12775         2.90469        -2.95805
LJ         -0.494043        -2.62792         -4.1872
LJ           3.13325         4.09602        -1.17832
LJ          -3.67371         4.92217         5.64097
LJ          -2.57914         1.42712         2.57757
LJ         -0.684267         3.92892        -3.43668
LJ          -1.04668          3.2141         3.01145
LJ          -5.34383         5.36887       -0.636581
LJ           3.37038         3.52383      -0.0298513
LJ           0.33269         5.60843         6.09546
LJ          -5.05199         2.21082        -3.13076
LJ           5.45614         4.31045        -2.16205
LJ           2.60301         4.59459        -5.20395
LJ          -2.20527        -3.74443        -3.45747
LJ            3.2775        -1.58735         3.29842
LJ           6.42588         2.17849        0.845172
LJ         -0.409908       -0.423615        -3.34531
LJ           2.83894         4.39657        -3.90279
LJ           2.64961         2.71385         6.26767
LJ          -5.03139        -3.42057        -2.68531
