108
#Comment!
LJ           5.07814        -2.13577        -1.87547
LJ         -0.864871        -3.39377         3.29706
LJ           4.66014         5.29371        -0.50861
LJ           5.18381          1.7262         1.35889
LJ          -4.46004        -2.68244        0.752324
LJ          -1.51254         4.19057         5.84007
LJ          -6.11607         3.91963        -4.19917
LJ           5.53514         1.63292       -0.432503
LJ         -0.987604         1.09432        0.945551
LJ          0.158103         4.52675         2.94732
LJ        0.00598251         -0.9973         1.35288
LJ           1.23409        -2.57587          3.2698
LJ           3.27877         5.86893        -1.67411
LJ          -4.31694        -4.47175         6.26475
LJ          -5.60409         -4.3642        -1.47103
LJ           1.02847         4.74633         5.24108
LJ          -4.37531        -2.27183        -2.44203
LJ           1.39707         3.90468         5.60862
LJ         -0.832746        -1.50579        -1.29981
LJ          -2.56925         4.53896        -1.15067
LJ          -1.86074         3.51271         2.80587
LJ          -3.68193         5.08946        0.349202
LJ          -4.61698         2.15207        -1.36983
LJ           5.75731         2.75616        -4.47039
LJ          -5.83677         4.84582          3.9759
LJ          -2.32499         2.53496           5.843
LJ          -4.39564       -0.429032        -2.46975
LJ          -2.62837         2.21023         -5.0276
LJ          0.195621         -4.5039         3.08665
LJ          -2.80288       -0.168836       -0.230441
LJ          -1.97938         5.63949         5.06958
LJ           4.40585        -3.66461       0.0513408
LJ          -4.99766        -4.08183        -6.12474
LJ           4.24836       -0.566648         3.57108
LJ           4.49144        -4.40398          3.9304
LJ           -6.0762        -4.13228       -0.649103
LJ         0.0312452         -2.2772        -5.94031
LJ          -3.59175         5.12742         4.58757
LJ          -4.74754        0.586106         2.75196
LJ           2.47097        -1.34552         3.79525
LJ          -3.91778         2.85264         2.73987
LJ           -3.4911        0.304623         0.59987
LJ          -2.15898        0.691224        -5.64707
LJ            4.4626        0.199285        -1.75804
LJ           -4.4481        -2.24129         5.46956
LJ          -4.61792         1.54779       -0.178272
LJ           5.17393         3.90746       -0.013164
LJ          -3.79517        -1.18083         -1.0038
LJ           5.62141        -5.09861        -5.01062
LJ           -6.1272         5.42303          1.1462
LJ         -0.241436         2.05727        0.782014
LJ          -4.32596        -5.78584         3.94721
LJ          -1.46957      -0.0100265        -1.98094
LJ          -5.48177        0.151976          2.0153
LJ           -4.7566       -0.550754         4.19206
LJ           1.44486          2.4819        -2.70502
LJ            2.1722         4.65302         6.05495
LJ          -1.69966       -0.922214        -3.83117
LJ           -3.3846         6.21169         5.06928
LJ           2.85542        -2.18683         -5.1667
LJ          -5.77886         3.68797         2.42763
LJ          0.739979         2.66071        0.868707
LJ          -2.85275         3.91899       0.0491426
LJ          -1.47207         2.65814         4.98501
LJ          0.103585         2.51478       -0.289747
LJ           1.50015         2.59075         5.04164
LJ           5.88865         3.05044        -6.05627
LJ           2.66549         5.52338         2.04425
LJ           2.17458        -5.47264         3.13385
LJ          -2.29447         1.07553        -2.95603
LJ           1.69887        -4.34963         5.62655
LJ          -3.88474        0.857722        -1.12256
LJ          -1.14654        -2.86852        -1.79423
LJ          -4.17724         6.10599         3.80962
LJ          -2.47477         2.99961        -6.02712
LJ          -1.78049      -0.0477235         5.72151
LJ          -4.42628        -4.48833        -1.04382
LJ           4.64907        -5.02377        -3.04261
LJ          -4.35303        -2.27486        -5.21387
LJ           3.86779        -3.84498        -4.33318
LJ          -1.58383       -0.653395        0.410157
LJ          -3.61425         4.70265        -5.25487
LJ          -4.60731         0.71545        -2.25718
LJ           2.89809         5.91895         3.88225
LJ           1.68017         4.49112         -3.0229
LJ           -4.6753         5.00352         2.61844
LJ          -6.24221        -5.34416        -4.89973
LJ          -4.33941        -3.21496         2.40574
LJ          -3.57171         3.53444        -4.21763
LJ          -5.15377         -2.0326          6.0717
LJ         -0.685299         1.45916         3.17611
LJ           1.81913        -4.04982       -0.316771
LJ           1.09363         4.11087        -5.67232
LJ          -2.27732         5.17194        -2.69172
LJ          -5.82681        -1.76814        -1.23616
LJ           5.51979        -6.07107       -0.841284
LJ          -1.94315       -0.523118       -0.969543
LJ           2.53717        -3.98001        -4.45818
LJ          -1.63659        -5.74504          4.7579
LJ           4.71176         6.27759         1.23341
LJ            5.9497       -0.163557         2.83666
LJ           2.65042         2.17814        -2.80273
LJ          -6.40982        -1.60893         4.77175
LJ          -5.46278        -3.82379          5.6506
LJ          -3.13609         3.44919         4.19547
LJ            2.2275        -3.98374        -3.00965
LJ          -5.37498         5.62439         4.55298
LJ           3.59865        -5.67262         4.88333
