108
#Comment!
LJ           2.96995        -5.17281         1.47248
LJ          0.161412           3.363        -5.30178
LJ          -4.39498         4.14663         -6.4138
LJ          -2.90615          2.2445         4.99318
LJ           -2.7718        -5.05544         -4.9532
LJ         -0.631684         2.90423        -4.89626
LJ           3.11028        -1.52486        -2.73762
LJ          -5.10285         4.42296        0.956648
LJ          -5.81816         4.92868       -0.902077
LJ           5.31125      -0.0644642         4.16772
LJ          0.186336         1.37635        -4.90934
LJ           5.03732         6.06246        0.757931
LJ          -2.13037        -5.75424        -4.32187
LJ          0.256165        -5.71378        -1.92812
LJ             2.325        -1.08757        -6.38101
LJ           6.02469        -5.08637         5.45175
LJ           2.25864        -2.19096         4.83595
LJ         -0.792068        -3.44459        0.134192
LJ           4.42011       0.0677747          3.2564
LJ         -0.961692        -1.28605         2.28062
LJ          -1.67651          4.6735         6.35342
LJ          -4.45957        -6.29453        -3.24164
LJ          -4.65816         6.11564         1.25064
LJ            4.4156        -3.00532         2.04489
LJ           5.94701        0.441243        -2.67383
LJ           5.04413         6.32455        -1.78601
LJ           3.19072        -4.70189         3.39972
LJ           1.63996        -3.42082         5.29388
LJ           5.08146        -5.37903         4.64408
LJ           2.67705          4.1289         5.84144
LJ         0.0314504        0.798053        -2.55933
LJ          0.743244         2.17898         2.17865
LJ         -0.639373         4.71326        -5.27445
LJ          -3.35776        -4.55894         3.11218
LJ         0.0629133         3.85961        -1.32353
LJ           2.11882         5.80288        -2.32733
LJ          -3.68318         4.88299         2.25017
LJ          -3.07056        -0.63976        -5.76291
LJ          -4.55894        -0.80332          5.2444
LJ          -4.44822        0.341243        -3.83334
LJ          -6.09838        0.454806        -4.20616
LJ         -0.769023         2.77511         3.20727
LJ         -0.617681        -4.67562        -2.36676
LJ          -2.47996        -5.60811        -5.89652
LJ         -0.339466        -5.05986         4.90414
LJ          -3.69363         5.24653        0.840036
LJ            1.9553         -5.3476        -4.84495
LJ          -2.62542         5.17381        -2.11425
LJ           4.36812          5.8897          5.8185
LJ           1.64585          4.9079        -1.95366
LJ           3.24003        -1.89216         1.77413
LJ          -4.66958        -5.64502         2.16121
LJ            4.1446       0.0210485         1.11282
LJ           4.67444         -6.3503       -0.131607
LJ          -5.60121       0.0117911        -1.29721
LJ           3.10348       -0.126298        -3.95068
LJ           5.38476        -6.17986        -4.71989
LJ           2.52371        -2.30672        -2.62726
LJ           3.63566         2.54892        -4.06855
LJ          -5.01334         4.54743         5.67826
LJ           -5.4844         3.78506        -1.22022
LJ           4.38973         5.13148       0.0359098
LJ          -2.26549         6.12403        -1.87084
LJ          -3.06854        -4.35623         -1.7485
LJ         -0.423282         4.33744         5.12546
LJ           1.98072        -5.09718        -2.35823
LJ           4.77907        -4.13767         3.85006
LJ          -1.91872         3.28851        -6.36364
LJ          -2.97787        -1.36841        -1.01972
LJ           2.06665          5.9638          -5.302
LJ           0.40937         1.71982        -3.06747
LJ           -5.6144        -5.34534         2.80688
LJ           1.98681         3.68817         4.62677
LJ          -5.42305        -6.35909         6.00009
LJ          -3.25717        -1.99525        -4.23098
LJ           -2.8468         4.78051        -3.67481
LJ          -5.92204         5.42468         3.27099
LJ         -0.562204        -1.70436        -2.73003
LJ           4.16758         1.26231         3.07207
LJ          -4.56453        -2.66449         -3.7941
LJ          -4.89576        -5.22918        -2.44203
LJ          0.191216        -3.75597         -5.3129
LJ          -2.51022        -5.64519        0.579548
LJ           1.71067         2.14551       -0.063919
LJ         -0.410996        -1.83177        -5.85037
LJ          -5.04284         2.58493        -6.37609
LJ          -2.07448        -2.77323        -1.59278
LJ          -4.08617        -5.26101         6.43819
LJ           2.68272         1.41586         0.64518
LJ           5.90098        0.606129         3.42833
LJ           4.29024        0.496143         -2.1324
LJ          -1.93414         4.89765        -3.06539
LJ          -0.66916        -3.02391        -5.59837
LJ           2.17689          1.5623         4.92451
LJ           5.68533        0.502583         1.76053
LJ          -3.20843        -6.35062        -4.76099
LJ           2.74734         2.99815        -4.65765
LJ          0.551943         1.86162        -1.67985
LJ           6.43665        -5.70688        -1.99926
LJ         -0.718118         3.58126        -3.35526
LJ           -5.6093         1.67901         6.42976
LJ           2.90221         5.27336         5.37256
LJ           -1.0387        -2.91526         1.05501
LJ           -1.3178        -6.06788        0.443767
LJ           4.98791         5.67802        -5.31025
LJ          -3.08389         6.43968         4.82455
LJ           5.12726         5.28761         2.25051
LJ           6.03745         5.02166        0.145762
