108
#Comment!
LJ          0.851254        -2.73817         1.88675
LJ          -1.94852         6.21938        -5.90282
LJ           6.37738         3.01901        -3.91789
LJ           4.39715        -2.78232        -2.23246
LJ           4.49577       -0.684384         5.87869
LJ          -4.07234        0.877107        -1.15391
LJ           3.81447       -0.524968        -1.93554
LJ         -0.377079         5.25003         1.71673
LJ          -2.04241         1.34169        0.383739
LJ          -4.99699         5.30652         6.09208
LJ          -1.87607         1.41272         5.76558
LJ           4.91567         3.65635        -0.84827
LJ           5.29931        -3.98505        -4.59584
LJ           1.09868        -5.11538       -0.790243
LJ           -3.4987         2.62458         -4.4039
LJ           4.78613        -1.64608         4.72312
LJ          -6.09097       -0.794148        0.365688
LJ           3.02459        -1.37491         0.79374
LJ           1.24614        -4.46376      -0.0846987
LJ          -3.03354       -0.192461         2.81507
LJ          -1.05399        -3.59433        -5.67417
LJ          -6.26831        -5.29825        0.552069
LJ           6.28397         2.96205         5.91467
LJ           2.40652        -3.95081        -5.36434
LJ           2.90654         4.45883            5.66
LJ           2.80448          3.6152         1.08685
LJ          -2.99919        0.422799        -4.24202
LJ          -2.71111        -5.72126        -3.69952
LJ         -0.325251        -4.66548         1.46316
LJ          -0.68078        0.606523         2.67031
LJ           5.34958       -0.854241        -4.09025
LJ           1.39442         1.22715         2.28783
LJ          -2.15519         2.97165         -2.4548
LJ          -4.59267         2.98105         5.94118
LJ          -3.00594        -4.73148         5.38196
LJ          0.330394         6.21095         2.72358
LJ         -0.043398        -1.46018        -2.01952
LJ          -3.10963        -1.71751         5.77065
LJ           -4.1953        -5.98156        -1.70232
LJ          -4.61269        -1.80506         5.87979
LJ          0.074164          5.2675         4.21405
LJ           -2.5703         1.08289        -2.71391
LJ          0.821827        -3.79051        -3.01317
LJ           2.36803        -4.64624         2.19496
LJ          -2.35234          1.9794        -2.16247
LJ           6.10009         6.44483         3.23383
LJ           -2.8335         0.91909        -5.19515
LJ           4.43424         -2.1073       -0.753362
LJ          -4.01114        -0.53947          1.9357
LJ          0.564499        -4.84969         4.69206
LJ           4.26604        0.489971         1.48614
LJ          -2.91902        -2.70386         2.05221
LJ          -6.09975         3.45103       -0.774609
LJ          -4.53236        -1.79555        -1.44423
LJ           5.23625         1.75702       -0.621825
LJ           3.10819      -0.0321297         6.46105
LJ          -6.02721        -6.15267        -5.50318
LJ          -1.25534        -6.24089        -1.25943
LJ           4.15273        -5.12289        -1.83141
LJ           5.64798        -6.01507         1.20026
LJ           3.69397       -0.104349        -5.19367
LJ         -0.997508        -3.88012         3.67607
LJ           4.04386        -4.10793        -1.50887
LJ          0.209779        -5.95117         1.61066
LJ          -3.35682         3.85913         3.89258
LJ          -6.33489        -4.37265         6.39972
LJ           6.02736        -1.45747        -4.90103
LJ          -2.78804         5.13838         2.17789
LJ          -3.87388         -1.4397         4.51387
LJ          0.896658         4.74462         2.60183
LJ           3.81951        -1.28854        -3.53123
LJ          -1.90228        -1.84985         1.93255
LJ          -4.01744        -2.21623        0.345904
LJ          -5.88988        0.728233        -3.17545
LJ          -5.19046        -3.69084        -2.74533
LJ           3.18598         3.34345        -1.24423
LJ            2.0998        -2.34516        -5.18001
LJ          -2.07049         0.58006         -4.0232
LJ           2.48815         4.58461        -5.51995
LJ           3.47808        0.148021        0.594749
LJ           4.42816        -6.16687        0.668399
LJ          -2.03117         -4.9774         6.35785
LJ          -1.92484        -3.31771        -2.91288
LJ           3.33036         4.42157          0.2389
LJ          -2.46302         3.74921       -0.960535
LJ           4.96322        -6.14754        -5.01239
LJ          -2.25825        -3.91467        -1.57459
LJ          -1.21447        -4.26564        0.945206
LJ         0.0620273         6.16404         -1.2234
LJ           2.96741          2.5083        0.122349
LJ           3.43053        -1.88539        -4.37175
LJ           -4.8811      0.00375787        -1.96449
LJ            2.2767        -4.42745        0.880955
LJ          -3.99724          4.2887             1.7
LJ           6.15737        -4.60805        -2.77728
LJ           4.69751        -2.98272         1.11892
LJ           6.05118         1.95868        -4.20119
LJ           1.58498        -2.94779        -2.73986
LJ           1.00343        -6.38585         5.55762
LJ            1.2068         6.25116         -2.3813
LJ           5.84906        -5.35783         -5.4913
LJ           3.66632         3.42298         5.26446
LJ           4.06317        -1.38801          3.2725
LJ            1.0785        0.761484        -1.42943
LJ         -0.263001         3.94744        -1.70401
LJ          -5.03021        -4.61738         2.33374
LJ             6.106         -1.0066        -3.30489
LJ           4.13347         3.38678       0.0273129
