108
#Comment!
LJ          -5.43685        0.924984        -2.27805
LJ          0.199283          3.2645       -0.354442
LJ          -2.97248        -5.16291         2.76447
LJ          0.191043        -1.77646         6.42748
LJ           1.39928       -0.436688         4.48112
LJ          -5.33095       -0.757629         3.19027
LJ           2.64602         4.37075        0.324602
LJ           4.13628         4.63616         2.88593
LJ           1.63103       0.0224809        -4.07363
LJ          -4.54603         -5.1332        -3.45572
LJ           5.46487        -4.68131        -1.68406
LJ            2.3715         3.30179         2.82064
LJ            1.8869        -3.84307       -0.840411
LJ           4.54629        -2.23804        0.903382
LJ          -2.38661        -6.20503        -1.19351
LJ            4.8249         2.47537         0.22091
LJ         -0.807058        -3.19632        -2.01466
LJ          -5.87998        -5.38857        -4.06246
LJ          -3.63964           5.466        -1.84265
LJ          -1.07702        0.326287        0.206897
LJ          -5.22676         -2.2318         2.99193
LJ           3.87091        -1.21153        -1.90221
LJ          -4.65336        0.956885         -3.1088
LJ           4.08005         1.62103        -5.31261
LJ           5.46172         2.16032         3.23823
LJ           6.02158         3.88106        0.156089
LJ           5.72228         0.88974         2.87132
LJ          -5.47711        -4.72155        -1.73861
LJ            4.9212         3.56403        -2.53232
LJ           6.30609         4.66302        -4.33221
LJ          -5.77876        -1.78371         1.84245
LJ           2.81947         1.02495         3.20864
LJ          -4.35797        -4.18856        -1.63051
LJ           5.54915         1.52135      -0.0636989
LJ          -6.13024         2.56333      -0.0461093
LJ          -5.31501         2.68134         5.87553
LJ          -6.18119        -5.81164         5.26732
LJ          -4.95822        -2.66437        -3.60466
LJ          -4.17405         -3.4081         1.03332
LJ          -2.23058         4.46002         3.48936
LJ         -0.304194          4.4749        -2.62048
LJ          -1.91398        -4.97096       0.0739827
LJ           2.78472        -1.37142        -1.27323
LJ          -5.94314        -5.88285        -2.56913
LJ           2.37979       -0.472745          3.9535
LJ           5.06541        -5.49886        -4.86342
LJ          -2.38386        -3.38968       -0.559858
LJ          -6.14246          3.3442         4.87698
LJ          -2.83472         2.29877         5.69541
LJ          -5.66666         5.25757         2.08291
LJ          -3.76236         4.56106         1.98631
LJ          -4.75749         -3.8269        -4.43779
LJ         -0.657209        -2.28474        -5.84418
LJ          -3.75242         1.71525        -6.06911
LJ           4.22225         3.73486        0.957487
LJ          -3.49704         2.77969        0.318458
LJ         -0.583225       -0.723072        -2.62806
LJ         -0.996203        -2.30785        -2.43118
LJ           5.28828        -6.27117         1.89394
LJ             3.696        -2.10565         3.45531
LJ           5.45159          4.0564         1.65398
LJ           3.54212        -5.99936        -6.03324
LJ          -3.67953         5.12337        -3.67453
LJ           3.00332         4.23676         2.18323
LJ           2.37935          -2.379          6.0779
LJ          0.291237        -2.46194         5.37325
LJ          0.397562        -2.11817        0.987806
LJ           5.77787        0.646482         6.20957
LJ          -1.50048       -0.229781        -3.71882
LJ           6.44333        -2.70594        -5.14878
LJ           2.79425         4.58134         4.13539
LJ           4.96248         1.74266        -3.83083
LJ           2.73642        -2.11675        -4.76693
LJ          -4.59202        -2.71649        -4.83302
LJ          -4.11838         2.38482         5.24556
LJ           3.29438          3.9186         3.14064
LJ         -0.304225        -5.79271         1.06609
LJ           -4.6501        -1.89351        -2.42801
LJ          0.232177        -1.53448        -3.77565
LJ          0.711326        -3.78074        0.888835
LJ          -0.70711         1.66442         6.05331
LJ          -2.04622         5.01962          4.4187
LJ           5.00622        -1.20287         4.13799
LJ          -4.62577         -5.6415        -1.20453
LJ           2.84624         3.21917        -6.13076
LJ           -2.7184        0.270143         1.66179
LJ           1.28077        -4.25006        -1.99537
LJ          -4.48335        -6.24872        -2.32936
LJ           1.84251         3.88336         -1.8917
LJ          -2.75336        -3.62093        -4.31357
LJ           3.12978        -5.91619        -2.85387
LJ          -5.75234          3.0077         2.53565
LJ          -4.63632         2.85629         0.95831
LJ          0.881032         5.46086         5.71349
LJ          0.789606          6.0469         2.59591
LJ          -5.49179         5.58376        0.828442
LJ           1.75011       -0.148162        -2.17997
LJ         -0.581469         4.97802         4.47263
LJ          -6.44912         4.37476        -3.26436
LJ           3.94646         5.35453        -2.99735
LJ           5.03792         5.65207         5.84904
LJ          -2.29894        -4.37409         2.21148
LJ           5.89873         1.97848         1.26067
LJ          -5.54312        -0.25562         2.14882
LJ           1.57498        -2.13651        -1.11031
LJ           3.63053         5.38811         -4.4945
LJ         -0.491048         1.50826         4.63755
LJ          -5.79392        -4.40864       -0.670422
