108
#Comment!
LJ          -2.76038        -3.09358         2.76048
LJ             3.497        -1.17325        0.275051
LJ          -3.30396         2.20867       -0.330956
LJ          -2.92023         4.10545        -2.06603
LJ          -4.16914         4.07737         1.75502
LJ          -2.42985        -4.09574         2.22147
LJ         -0.194302        -5.32396        -2.61535
LJ          -2.43522        -3.02938        0.657253
LJ           2.14975         -2.2766      0.00598369
LJ           6.08404        -3.55561        -3.75779
LJ            4.1006         4.62986        -2.71087
LJ           4.91368         -4.6039       -0.580399
LJ          0.541283        -3.67584        -5.75479
LJ           1.06294        -4.61397        -2.07705
LJ          -5.82418         4.58461          5.9694
LJ           2.56033         3.32024         2.85734
LJ           2.41392         1.22667        -6.24871
LJ          -4.29259         1.29442         3.46455
LJ           1.74543         2.91147        -5.22672
LJ         -0.500148        -4.14149          4.1736
LJ          -4.02074        -3.02129        -5.49755
LJ           1.35671         6.40746         4.52606
LJ         -0.222229        -2.05549         5.35757
LJ           5.17544         -3.0918         6.06688
LJ          -4.22033         5.14985        -4.47363
LJ           6.25641        -1.03724        -1.04969
LJ          -1.22722         6.32125       -0.154143
LJ           2.64584           4.627       -0.448751
LJ          -2.98705        -2.53134         1.33131
LJ           1.28756        -6.38716        -1.66522
LJ          -1.28658         1.50479        -5.12343
LJ           2.69953        -5.04229        -2.10209
LJ           2.67251        -2.12202         3.17159
LJ          -2.84761         1.59108          5.4215
LJ          -5.86899        -3.07604        -4.19895
LJ           5.55782         3.19909         3.22099
LJ           6.33409         1.75572        -3.00738
LJ           5.42077        -4.25268        -5.48311
LJ          -5.87277         5.65161       0.0911529
LJ          -1.75638         -2.1407        -5.41399
LJ           4.96497        -3.35483        -3.44246
LJ           5.63089        -5.69124        -0.79994
LJ          -2.10414        0.436311        -5.01954
LJ          -5.38623         5.94552         -1.4202
LJ          -5.61339        0.974755         4.70684
LJ          -2.80507         6.35707        -3.25803
LJ          -4.47602        -4.93857          1.9679
LJ          -5.16716        -1.47723       -0.956957
LJ          -1.67011        -6.18341        -1.72837
LJ           3.73253        -3.78113        -5.73315
LJ           -1.5669        0.784067         5.87149
LJ           6.41204         -2.6177         -1.6488
LJ        -0.0587137        -2.82449         4.22809
LJ          -1.82523         4.14529        0.107292
LJ           -2.3718         6.11931     0.000949588
LJ            2.7482         2.68974        0.829211
LJ          -2.52334        0.541148        -2.96844
LJ          -5.68675         5.97026        -5.25743
LJ          -1.30353         3.23544        -2.27154
LJ          -6.13375        -4.53105        -4.40067
LJ           1.91565       -0.471685        0.500425
LJ          -5.85122         3.85241        -4.29331
LJ           4.96506        -4.31601        -4.02587
LJ           5.74668         3.64444         -3.1477
LJ          -3.38782         3.52892        0.308817
LJ          -1.36516        -3.91026          4.9677
LJ           4.37238         4.50522         5.48606
LJ          -1.79969         2.16581         5.35182
LJ           3.19328        -1.45457         1.41614
LJ          -6.33074         5.75054         3.19338
LJ          -5.01547        -2.50946        -5.12082
LJ          -3.68412        -4.92103        -4.05619
LJ           1.94028        -2.52368         5.97277
LJ           3.81364        -1.10339          4.2162
LJ         -0.328442        -6.31879        -4.93167
LJ           5.98581         3.30678         2.33188
LJ          -4.72114         3.34023            5.14
LJ           6.43825         4.27927        -3.47463
LJ          0.554686         2.20599         2.99345
LJ           4.81384         5.42868        -5.12255
LJ          0.834221         6.10898        -4.31364
LJ           2.78872         4.62854         4.51447
LJ          -6.11638       -0.660327         1.26464
LJ            5.5495        -4.81855         4.65596
LJ          0.337725        -5.36184        -3.58449
LJ          0.925082         5.38407       -0.923099
LJ          -1.77064         5.18161        -5.31723
LJ          0.316489        -1.58524         3.34096
LJ           6.22283         -4.7754        -1.37483
LJ           4.42948         5.27082         3.50683
LJ           3.79454        -6.35283        0.452235
LJ           4.18862        -3.97422       -0.699958
LJ          -4.89118           -5.46        -1.64394
LJ           1.54819         3.61645        0.545916
LJ           4.31022        -4.89937        -4.98813
LJ           3.37312        0.224485        -1.15163
LJ           6.45067         5.88255         1.86876
LJ          -2.72257         3.61441        -4.02679
LJ           6.19018        -5.03324         3.76664
LJ           4.64101         3.00639        -5.02155
LJ          0.820582        -1.92142         6.06697
LJ         -0.999821        -4.82685        -3.18595
LJ          -5.60476         4.14192        -5.94025
LJ           2.58976        -2.69878        -1.75187
LJ           1.19823        -2.67374         2.05572
LJ           1.28981          3.7069         2.98172
LJ           6.24054       -0.838374         5.23823
LJ          -2.54235        -1.39084         -4.9683
