108
#Comment!
LJ           4.04443        -4.38409        -4.73654
LJ          -0.39746        -3.60752         6.13336
LJ           4.84971         1.20335       -0.153695
LJ          -5.89821          2.1869        -3.47063
LJ          -5.93564         0.76931        -1.08052
LJ         -0.149223         5.32718         5.72576
LJ          -4.98854         3.47792        -2.35603
LJ           3.76043          6.0745        -2.61503
LJ          -5.05254        0.843657         5.34309
LJ            6.0661         2.36235       0.0356747
LJ         -0.445262         1.10818        -3.56303
LJ           2.76695       0.0363644         1.59677
LJ          -2.01273         3.71301        -3.60112
LJ          -2.96447          3.9913         5.85339
LJ          -1.34479        -4.63955        -2.65723
LJ           3.14607         6.04991         4.76688
LJ          -3.42453         2.30243       -0.301726
LJ         -0.185562        -1.00058         5.98466
LJ          -5.95197        -3.35416        -5.20743
LJ          -1.57693         5.61523        0.560308
LJ          0.064659       -0.310087         1.33974
LJ         -0.523747         6.32238        -2.90259
LJ           6.25987         6.27859         2.17018
LJ          -5.99941         4.33261        -1.12673
LJ          -6.09263        -5.78687        -4.90682
LJ          -3.07399         2.58844        -3.22792
LJ           1.06524         3.57448        0.347892
LJ          0.375189         0.63824         2.72312
LJ          -1.40607        -5.44009          2.9093
LJ          -1.41302       0.0582015       -0.405458
LJ           6.13885         4.87002         2.02129
LJ          0.873173          6.3084         4.02646
LJ          -5.38177        -2.75506         6.44059
LJ           3.92852         3.37077        -6.16483
LJ           0.22798         3.98723         4.38035
LJ           4.12013        -6.31379         1.23479
LJ          -1.71487        -4.71324         6.17731
LJ           4.18266         3.20526         5.06291
LJ          -4.52047        -2.79659         2.52941
LJ            4.5926        -6.15583         2.23345
LJ          -4.94575       -0.109045        -5.05827
LJ           4.20494         2.89425        0.612262
LJ         -0.912209         2.48752         2.14815
LJ           5.51867       -0.180474        -2.13067
LJ          -4.32558       -0.637503         5.75995
LJ           6.01899       -0.202844       -0.401032
LJ           2.31114        -4.80179         2.60883
LJ          -2.38062        -0.24853         2.83143
LJ          -3.62384        -4.14092         4.46768
LJ          -2.93865         3.48246        -2.87131
LJ          -5.44011        0.395437         2.32513
LJ         -0.629932         5.29226         4.62066
LJ           -3.5299        -3.42975        -4.27194
LJ          -2.32919         3.52962     -0.00865346
LJ          -4.60771        -1.93602         5.61035
LJ           3.66289       -0.995003       -0.420924
LJ          -3.73742         3.78328        -5.83407
LJ          -4.35541        -3.11527        -5.62631
LJ          -5.92692         4.78904         2.56556
LJ       0.000918398       -0.941161          -3.879
LJ          -3.03677         1.43587         2.99604
LJ           5.03877         3.71454         2.89173
LJ          -2.34629         5.80025       -0.888722
LJ          -5.29179         4.88663         4.46805
LJ           2.19338          3.9666         3.10187
LJ           5.11904         4.74808         2.86215
LJ           4.10335         5.02944         6.05077
LJ           3.45546         4.74966        -5.86991
LJ           2.72609        -4.63504        0.783675
LJ         -0.330739         2.88808        -1.37257
LJ          -1.81476         6.28471        -3.57418
LJ           -4.3608         4.05776        -3.17727
LJ         -0.727715        -3.30919        -3.32546
LJ          0.260919         4.49805        -1.17094
LJ          -1.42336         2.88408        -2.75303
LJ          -3.21481        0.754482        -5.46909
LJ          -6.35044        -3.68655         3.12849
LJ           5.72293         6.23776         -2.2681
LJ         -0.720843        -1.15189         4.80973
LJ           5.70194        -2.42568        -1.62617
LJ          -1.10747        0.515899        -2.62501
LJ         -0.599707          5.4494        -5.62983
LJ          -3.17807         2.63783         -2.0709
LJ           1.82431        -5.21568         1.55555
LJ           2.88588        0.379968        -5.38447
LJ          0.694736        -5.65512        0.117771
LJ          -4.77501        -4.35163         4.44183
LJ          -4.58199        -3.06915        0.727781
LJ           0.87739         -1.9842        -5.29138
LJ            1.7361        -2.64724        -5.66394
LJ           1.83009         2.56875         3.23452
LJ           1.97386        -3.43736         1.25364
LJ           -1.1513         2.78535        -4.15109
LJ           -5.1344         3.11568         4.69072
LJ          -5.96188        -2.32287        -4.16917
LJ          0.631878         -4.8371       -0.607969
LJ         0.0667233         2.33515       -0.150931
LJ           2.93868         1.74698         5.94598
LJ          -2.01795        -1.85086       0.0794563
LJ          -4.72423        -4.05873       -0.115582
LJ           3.96556       -0.645923         5.19353
LJ           3.40851        0.849914         2.40438
LJ           3.35508        0.302655         5.47282
LJ          -2.82642         5.46916         5.26068
LJ          0.517798        -4.55149        -4.42258
LJ           5.44223        -2.46904        -6.13032
LJ           2.48351        -3.04394        -3.94245
LJ         -0.100364        -5.36531         2.06596
