108
#Comment!
LJ          -3.33371         1.05117          -1.798
LJ           1.20851          1.7262       -0.457771
LJ          -2.08575         4.66611         1.89042
LJ          0.934187        -1.91064        -5.36305
LJ          0.929133       -0.377624         4.45129
LJ            -5.944       -0.128694          4.0199
LJ           2.41742         4.27457        0.856049
LJ           4.45477         4.22713         1.66315
LJ          0.528035       0.0708138        -3.97427
LJ           -5.7475        -4.89201        -6.15142
LJ          -5.17529        -4.87288        -4.27276
LJ           1.43047         4.87638         1.30597
LJ          0.237798        -5.22835       -0.512879
LJ           5.31857        -2.44641         1.69827
LJ          -3.28092           5.997        -1.83898
LJ           2.88297         2.12081        0.828186
LJ         0.0399411        -3.30769         -1.8332
LJ           6.31002        -6.03103        -5.40134
LJ            6.1476         3.41411        -1.07649
LJ          -1.27092         -3.1544        0.311073
LJ          -2.36358        -2.13185       -0.112005
LJ          0.716682        -1.29986        -3.50734
LJ          -5.46871      -0.0612042        -3.58848
LJ           4.08045         2.26346         5.80619
LJ           5.34473         3.29657          5.1522
LJ           5.09106          3.6247         1.19663
LJ           3.00831      -0.0762467         3.07736
LJ          -5.75761        -4.06139        -2.78325
LJ            2.3335         4.81883       -0.645537
LJ          -5.00304         3.84272        -3.35576
LJ           5.78959       -0.818929         2.47104
LJ          0.609213          1.2356         3.40279
LJ          -5.22878        -2.63424        -2.81278
LJ           5.19888         2.49974         1.32073
LJ           6.08944         3.48499         1.82655
LJ          -4.86735         1.59915        -6.34665
LJ           6.02517        -2.39232         4.37189
LJ           -3.3649        -2.85891         -3.5274
LJ           -4.5663        -4.08536        0.897044
LJ          -1.10992         5.51485         2.58853
LJ          -1.48552         4.51862        -2.09349
LJ           1.23884         5.26668       -0.345613
LJ           3.23594        -4.91708        0.797317
LJ          -4.86823        -6.05475        -1.27496
LJ           2.01186       -0.509373         5.73947
LJ           1.85656         4.39157        -3.46892
LJ          -1.83239         -3.4873         1.11239
LJ           4.86258         1.66899        -6.44909
LJ          -3.66722         3.62405        -6.04766
LJ          -3.67701         5.53906       -0.308895
LJ          -4.77281         5.93448         1.77378
LJ          -3.77643        -3.83944        -3.83161
LJ          -2.12829        -3.00019        -5.41994
LJ          -4.84219         3.61548        -6.15836
LJ           5.93179         5.70929        -1.99189
LJ          -2.11604         1.29913          1.3154
LJ          -1.54498         1.77247       -0.581552
LJ          -1.42652        -0.27061        -2.28173
LJ           3.96404        -5.38072         1.99262
LJ           2.77001        -2.85048          3.8395
LJ          -4.36861         3.00806        0.653118
LJ            2.5133        -5.03099        -5.96602
LJ          0.631046          6.3669        -4.33773
LJ           3.29992         3.61035         1.96551
LJ          0.633522        0.684044        -5.09857
LJ           2.22253        -2.12017         3.12913
LJ          0.281513         1.25105        0.979872
LJ           -5.2659          1.5594         4.81653
LJ        -0.0613281       -0.326501        -5.61281
LJ          -3.83846        -3.68141        -6.10048
LJ          0.400165         4.71707         3.66274
LJ           6.15501         1.19832        -3.86742
LJ           4.99336        -4.89514        -6.21626
LJ          -3.37602        -2.90792        -4.75973
LJ          -4.27929         2.20241          5.2295
LJ           4.28875         4.43986         3.18696
LJ          -1.90415        -6.27109         1.56963
LJ          -4.22714        -1.97355        -2.55822
LJ         -0.420317       -0.414321         6.14668
LJ         -0.430324        -3.23957       -0.899643
LJ         -0.189271          2.4582         4.39968
LJ          -1.35006         5.83705         3.70113
LJ           3.44006         1.04816         5.93044
LJ          -4.30172        -6.29236        0.394121
LJ           4.72139         1.90148        -5.45039
LJ          -3.40134        0.826584         1.71188
LJ           1.76118        -3.98599          -3.861
LJ          -3.68362        -5.06674        -1.47788
LJ           1.12042         3.95211        -3.12958
LJ          -1.51904        -2.89394        -4.11637
LJ           3.03013         5.14359        -1.53462
LJ          -4.52999         3.86654         5.70338
LJ          -3.27237          2.1895         2.16773
LJ         -0.228142         4.78858        -4.50734
LJ        -0.0548453         4.05058          2.7758
LJ          -5.59871          5.4378       -0.204861
LJ           2.48176          2.0972       -0.258648
LJ         0.0441474         5.39251         5.57007
LJ           -5.6542         2.69965        -3.02975
LJ           4.82567         4.52586        -2.61792
LJ            3.4763         4.92459        -5.67329
LJ          -1.54557        -4.01858        -1.38375
LJ           4.44157       -0.356376         2.49832
LJ          -6.37473         1.33739         1.27664
LJ          0.249689       -0.962055        -2.27194
LJ            3.3731         4.59196        -4.10544
LJ           1.64655         1.94737         5.57901
LJ          -5.37474        -3.84916         -1.8073
