108
#Comment!
LJ          -3.28897         1.05273        -1.79114
LJ           1.20453         1.69557       -0.457588
LJ          -2.05636         4.60164         1.87863
LJ          0.942115        -1.90699        -5.33585
LJ          0.920993       -0.395181         4.44137
LJ          -5.95841       -0.114684         4.03579
LJ           2.43917         4.26119        0.838798
LJ           4.44854         4.21857         1.65294
LJ          0.503694       0.0674336        -3.98073
LJ          -5.78281        -4.91188        -6.19718
LJ          -5.13942        -4.85098        -4.33359
LJ           1.40162         4.91214         1.27534
LJ          0.198709        -5.25499       -0.505879
LJ           5.33619        -2.44897         1.71654
LJ          -3.28055         5.98642        -1.88053
LJ           2.84823         2.08287        0.814407
LJ         0.0575841        -3.31048        -1.82583
LJ           6.29895        -6.03996        -5.42985
LJ            6.0796         3.37161        -1.06025
LJ          -1.26897        -3.22972        0.298842
LJ          -2.29815        -2.13462       -0.178685
LJ          0.641983        -1.29696        -3.53643
LJ          -5.48631      -0.0814746         -3.5953
LJ           4.04609         2.24277         5.82219
LJ           5.38512         3.34777         5.15643
LJ           5.08021         3.64081         1.21577
LJ           2.95504      -0.0967475         3.07919
LJ          -5.76504        -4.05475        -2.81774
LJ           2.27314         4.83909       -0.592695
LJ          -4.97455         3.81202        -3.32696
LJ           5.75617       -0.794779         2.48499
LJ          0.560993         1.23865         3.41073
LJ          -5.24759        -2.60841        -2.81881
LJ           5.18658         2.48494         1.35043
LJ            6.0754         3.51967         1.86832
LJ           -4.8562         1.58557        -6.33511
LJ           6.00968        -2.31872          4.3526
LJ          -3.31826        -2.85358        -3.53724
LJ          -4.57393        -4.09884        0.893855
LJ          -1.09446         5.53818         2.56584
LJ          -1.47377         4.48741        -2.10193
LJ           1.30905         5.20882       -0.351432
LJ           3.24602        -4.99375        0.842554
LJ          -4.83651        -6.06197        -1.25118
LJ           2.01071       -0.512594         5.78069
LJ           1.83902         4.34272        -3.45823
LJ          -1.82262         -3.4952          1.1537
LJ           4.82242         1.62633         6.45517
LJ          -3.70793         3.65025        -6.02405
LJ          -3.64146         5.55225       -0.361138
LJ          -4.79677         5.96549         1.75881
LJ           -3.7606        -3.85292        -3.83387
LJ          -2.16202        -3.01526        -5.39999
LJ          -4.86666         3.63344         -6.0931
LJ           5.97074          5.7466        -2.05414
LJ          -2.07783           1.282          1.3307
LJ          -1.56589         1.82453       -0.537771
LJ          -1.43336       -0.227395        -2.27775
LJ           3.93468        -5.36112         1.99325
LJ           2.75851        -2.87448         3.85538
LJ          -4.30863         2.98074        0.626632
LJ           2.47032        -5.03376        -5.96864
LJ          0.720035         6.41578        -4.33617
LJ            3.3084         3.62931         1.99293
LJ          0.602475        0.746215        -5.05462
LJ           2.25592        -2.10286         3.07442
LJ          0.278616         1.32382        0.978405
LJ           -5.2185         1.58565         4.79191
LJ        -0.0141344       -0.329386        -5.66568
LJ          -3.77256        -3.67958        -6.12375
LJ          0.350153         4.73129         3.67154
LJ           6.18179         1.18684        -3.86817
LJ           5.06339        -4.93188        -6.24258
LJ          -3.36337        -2.91732        -4.77401
LJ          -4.27871         2.18119          5.2402
LJ            4.3136         4.44771         3.16997
LJ          -1.93044        -6.30049         1.58342
LJ          -4.23916         -1.9696        -2.54323
LJ          -0.44751       -0.393596         6.09611
LJ         -0.424649        -3.20412       -0.933398
LJ         -0.173781         2.47242         4.36212
LJ           -1.3321          5.8524         3.68109
LJ           3.40777          1.1006         5.96868
LJ          -4.33291        -6.28181        0.485247
LJ           4.75214         1.88124        -5.39801
LJ          -3.42695        0.832607         1.72151
LJ           1.77116        -3.97995        -3.89994
LJ          -3.67912        -5.05027         -1.4493
LJ           1.06432         3.92965        -3.13714
LJ          -1.47455        -2.88381        -4.11721
LJ           3.03223           5.102        -1.51165
LJ          -4.49579         3.91192          5.6923
LJ          -3.24206         2.16751         2.18995
LJ         -0.248083         4.75159        -4.46476
LJ        -0.0963488         4.01243         2.78016
LJ          -5.59025         5.43335       -0.221917
LJ           2.52469         2.14347        -0.21508
LJ         0.0557535         5.40133         5.59173
LJ          -5.63158         2.67673        -3.03151
LJ           4.85053         4.51666         -2.6002
LJ            3.4424         4.90852        -5.64068
LJ          -1.57305        -4.01011        -1.46674
LJ           4.39401       -0.405205         2.53165
LJ          -6.37722         1.36907         1.25851
LJ          0.224483       -0.937854        -2.30469
LJ            3.3509         4.58437        -4.11145
LJ           1.68144         1.98166         5.60454
LJ          -5.35777        -3.83545         -1.8336
