108
#Comment!
LJ           2.42766         4.66164        -3.34514
LJ           4.81275         4.84273         6.42959
LJ          -2.52092        0.999621         5.61808
LJ           6.18024         5.01282         4.33533
LJ          -3.49391       -0.429729         3.16569
LJ          -1.67905        -5.55828        -4.80331
LJ          -5.20785       -0.699399        -2.98395
LJ           6.33558         3.75363         1.55973
LJ          -3.43621         3.96129        0.145218
LJ           6.02112         -3.9124        0.635209
LJ         -0.200985       -0.383256        -3.33328
LJ           4.04299        -5.35829         1.61837
LJ           6.16842        -6.29796        -4.80882
LJ          0.940869        -3.65018         2.86809
LJ           4.51768        -4.98323         5.20907
LJ          -5.06285         4.73636         6.13206
LJ           1.65519      -0.0634222        -1.06411
LJ          -1.68387        -4.21401        0.450611
LJ           5.49042         4.53444         5.60144
LJ          -2.82753        -2.46114          1.7671
LJ         -0.524581        -2.26902          6.2916
LJ           -4.7881         6.24825        -5.42406
LJ          -1.31409        -3.53011        -1.62043
LJ          -6.42934        -6.07513        0.486454
LJ          -5.70977        -1.22877       -0.903238
LJ           3.67843        -5.75631        -2.58891
LJ           2.22977         6.03471         5.60167
LJ           4.80131        0.402794         2.04906
LJ           1.50443        -6.19959         3.96428
LJ           2.72912         2.94994         5.71801
LJ          -2.66793         2.40772         -3.9795
LJ         -0.579495         2.80832          2.4728
LJ          0.203324         4.05563         5.60106
LJ           6.28956         -2.7518        0.388984
LJ           3.31866             3.1        -4.81775
LJ          -4.46678        -5.96076          3.1327
LJ          -5.26073         4.18666          4.5611
LJ          -3.38372       -0.143983        -4.65294
LJ          -1.37209        0.325391         6.13741
LJ          -4.42482         1.45122        -1.23985
LJ            3.0035         5.33575       -0.657868
LJ          0.344484         3.21351         4.90632
LJ          -4.82667         3.96077        -2.70729
LJ           3.45333         4.74649        -4.40831
LJ          -1.66269        -2.38581        0.281225
LJ          -4.81498        0.846068         1.83992
LJ           5.52607         6.28919        -0.68171
LJ          -5.63992         1.98031        -1.42646
LJ           5.69458         6.00252         3.51453
LJ          0.813195         3.97681        -5.48145
LJ           2.38296        -1.86785         0.50446
LJ            4.6337        -3.64097          4.5711
LJ             2.973        -1.64846        -2.56771
LJ           4.33032         2.02838        -1.38702
LJ          -3.18831       -0.331463        -2.04179
LJ           2.59658        -0.24314        -1.75948
LJ           4.76501        -3.28726        -4.58156
LJ           2.29221        -3.17813        -3.39228
LJ           3.49363        -1.05247        -4.93007
LJ          -4.58395         6.39674         3.92383
LJ          -4.11182         4.44627         2.93305
LJ           6.42547         5.12561        -2.27912
LJ          -1.50649        -5.07831       -0.153293
LJ          -5.16638        -4.36555        -1.84119
LJ          0.197346         5.15951        -5.37856
LJ          -6.27746        -5.60624        -1.98856
LJ           4.05813        -2.31034        -1.14282
LJ          -3.32725         3.19373        -3.30701
LJ          -3.55473         -1.3331        -5.52152
LJ           4.36615         4.50683        -4.11884
LJ          -1.79789         1.67721        -3.53334
LJ           5.37864         4.41913         1.84834
LJ         -0.728191         4.95933        -4.54382
LJ          -5.04138        -3.84836         2.99519
LJ           3.58256        -3.48644        -2.31326
LJ          -3.82372         4.48023        -1.89237
LJ           2.05251         2.25584         2.24342
LJ          0.816321        -3.22816       -0.385077
LJ          -6.36771        0.490027       -0.729825
LJ            3.3572        -3.08813         5.65992
LJ           -3.7247         -6.4361        -5.50699
LJ           1.54252        -2.39801         5.83248
LJ         -0.168265        -5.89223        0.549936
LJ           2.54261         3.57814          4.1173
LJ          -2.72484        -4.09471        -2.53136
LJ          -3.40385         0.85708        -6.16412
LJ         -0.626435         1.83128        -1.61883
LJ          -4.76885         6.02256        -1.52061
LJ           3.16531       -0.236886        0.104318
LJ          -2.86649         3.64444         1.55729
LJ           2.88553        0.464581         1.44025
LJ         -0.604792        -5.81426         3.38349
LJ         -0.940039          -4.173        -2.27825
LJ          -2.48713       -0.442937         5.63499
LJ           5.49646         3.12696         5.64746
LJ           1.06929          4.3108        -4.57801
LJ           2.83361         0.36498         6.18475
LJ           2.49616       -0.575614         1.41815
LJ           3.47616        -4.74362         2.42696
LJ           0.22509        -5.98905         6.08379
LJ            5.4834         1.23938        -3.00722
LJ          0.454485         5.23341         3.94494
LJ          -4.11125        -1.46969         1.22537
LJ          -2.50585         5.24525       -0.651999
LJ          -3.68528         4.70748         1.88195
LJ          -1.48241        -5.72148         5.47876
LJ           4.25744        -3.76814         3.51997
LJ          -5.33157        -6.00045       -0.240039
