108
#Comment!
LJ           1.73167        -3.60712         2.14081
LJ          -1.42552         4.94092        -5.78054
LJ          -5.55351         4.09023        -3.97013
LJ           1.72889        -1.03059        -4.60196
LJ          -6.23136         2.52511         2.21309
LJ          -3.38829      -0.0872055        -2.43778
LJ           3.64802      -0.0558301        -3.19318
LJ          -3.00311        -6.42151        0.994697
LJ          0.601425         2.45537         -1.0656
LJ          -1.77011         2.22852        -5.05789
LJ          -1.54777         1.51369         6.18478
LJ            4.6217         4.63509       -0.607702
LJ           2.21964        -4.81634        -3.70518
LJ            1.6104        -6.28552        -1.96085
LJ         -0.669331         1.66377        -5.44889
LJ           4.78205        -1.70919        -6.38177
LJ            6.3864        -3.10445        -1.92536
LJ           1.24611         -2.5757        0.654632
LJ           2.74852        -2.94342        0.587734
LJ          -2.36117       -0.418677         2.53706
LJ          -1.98685        -2.06382        -5.59845
LJ          -6.12885        -3.94887        -1.73055
LJ           5.56939         2.78975         4.05632
LJ           2.97201        -3.55027         5.63816
LJ           4.59637         3.28846        -5.54435
LJ           5.21957         5.28569         1.41491
LJ          -5.68899        -1.13656        -6.23277
LJ          -1.42589         -4.2176        -5.30313
LJ          -1.85166        -5.02253         2.50256
LJ          0.641805         1.98798         3.89093
LJ           3.22166        -1.20075        -3.34514
LJ           2.10174         1.68597         1.81444
LJ          -1.89351          4.0258        -1.11428
LJ           -2.2063         4.92267         5.28554
LJ          -2.03689        -5.97885         3.05378
LJ          0.512592        -6.36196         5.04827
LJ         -0.740219        0.788668       -0.828801
LJ          -2.91419        -1.27738         6.41402
LJ           -3.7052        -5.66539         0.84979
LJ          -4.20811        -1.29455        -6.23783
LJ          -1.93093        -5.29903         5.44484
LJ          -2.32868          1.3539       -0.669702
LJ         -0.302845        0.227473        -3.45822
LJ           4.90549        -5.16763         3.76912
LJ         -0.477456         1.43092        -3.22581
LJ          -6.36562         6.11094         2.02821
LJ          -0.92656        -1.11095        -5.43248
LJ          -6.36782        -4.01983       -0.493999
LJ          -1.18635        -3.27042         3.72942
LJ         0.0902354       -0.749069         3.04389
LJ           3.48379       -0.288467         1.57032
LJ          -3.98843        -3.21737         1.45846
LJ            5.6571         2.46528        -4.89721
LJ          -6.14918        -3.13581        0.763037
LJ           6.06376        0.841886       -0.383476
LJ           3.32001      0.00083057        -5.46467
LJ           6.37639        -6.03864        -4.98184
LJ        -0.0455851        -4.86478         -1.6124
LJ           4.11146         5.99358        -2.56357
LJ           5.59684         5.36218         2.59954
LJ           4.72843         1.63746        -4.09091
LJ          0.796989          -5.407         2.69111
LJ           1.96155        -3.81466        -2.94662
LJ         -0.852047        -5.70622       0.0935688
LJ          -2.22102         4.31853         4.19078
LJ          -3.71151        -4.32802        -5.04853
LJ           5.03329        -2.79115        -5.15599
LJ          -1.71539         3.55071        0.723199
LJ          -2.55046        -1.95224         3.51736
LJ          -0.65494         5.38992          4.7997
LJ           2.83797        0.383178        -4.62647
LJ          -2.41287        -3.05542          1.9269
LJ           5.11599        -0.40296         2.03948
LJ            -5.936         2.56336        -4.23883
LJ          -4.02993        -1.81555        -3.06336
LJ          0.962813         3.45438        -1.90861
LJ          -0.29783        -3.87573         5.59487
LJ          -1.29863       0.0955058        -3.31137
LJ           2.58537         2.22253         -5.5124
LJ           1.59276       -0.659134        -1.08158
LJ           5.42419        -5.88667       -0.394172
LJ         -0.499705        -5.28501        -5.54929
LJ          -2.43591        -4.51409        -1.88251
LJ           2.70012         2.77587       -0.476523
LJ          -5.57906         1.69967         1.81145
LJ           6.41979         5.46035         -5.6413
LJ          -2.25229         -3.2126        -1.35221
LJ            -2.375        -4.04805         2.44859
LJ          0.937173         4.70866       -0.318668
LJ           2.99789         1.94567         1.18663
LJ           4.39784        -1.45334        -5.34496
LJ          -3.82856         1.65238        -2.25115
LJ         -0.544083        -3.37422         2.71115
LJ          -5.75487         3.65964         3.27937
LJ           5.30961        -2.95431        -1.07192
LJ          -5.90884        -3.16351         2.40701
LJ           3.89383         2.94999        -4.51724
LJ           1.76794        -2.20114        -2.65353
LJ          -1.62465        -6.30558        -5.64824
LJ          0.600802         5.25047        -2.60729
LJ             5.923         5.90269         6.22983
LJ           3.29868         3.70745         6.31606
LJ           4.02035        -1.37516         1.95298
LJ           0.72522        -1.14047       -0.621258
LJ          -3.05144         3.65984        -3.86257
LJ          -4.52083        -5.69096         3.49034
LJ           5.90737         1.27683        -1.66724
LJ           5.01139         3.76304         0.36845
