108
#Comment!
LJ           5.41296        -1.82501        -1.52274
LJ         -0.700661        -3.34108         2.86299
LJ           4.60495         5.88362       -0.315474
LJ           4.92471         2.38136         1.09025
LJ          -4.14307        -3.17187         1.04496
LJ          -1.74655         3.91011         5.85279
LJ          -6.38917         3.84313        -4.49307
LJ           5.86344         2.77811      -0.0419127
LJ         -0.623637        0.662301         0.22387
LJ         -0.770931         4.69458         3.54887
LJ        -0.0851386        -1.16227         2.31441
LJ           1.03143        -2.97175         3.54501
LJ           4.21423         6.18918        -1.14653
LJ          -4.13209        -4.09084         6.03742
LJ          -5.53643        -4.71743        -1.84054
LJ          0.550997         5.15526         5.40584
LJ          -4.51288        -2.89081        -2.70791
LJ           1.82162         3.98836         5.66578
LJ         -0.278623        -1.06195        -1.03648
LJ          -2.34265         4.61173        -1.04397
LJ          -2.62233         4.17395         3.45371
LJ          -4.22385         4.69378        0.768779
LJ          -4.18055         1.23998        -1.72507
LJ           5.70899          2.6345        -5.01018
LJ          -6.28152         4.51517         4.00862
LJ          -2.70999         2.16166          5.6985
LJ          -5.65266       -0.623752         -2.6491
LJ          -2.83411         2.41375        -5.74139
LJ           0.50071        -4.14947         3.04761
LJ          -2.74602       -0.363102        -0.61598
LJ          -1.49623         5.49399           5.414
LJ           4.79586        -3.29496       -0.664386
LJ          -5.61399         -4.0729        -5.40878
LJ           4.30998       -0.924473         3.20012
LJ           4.91191        -3.79604         3.79769
LJ          -6.19134        -3.56957         0.15304
LJ          0.409106        -1.95513        -6.17819
LJ          -3.30365         6.00046         4.47945
LJ          -4.84016         1.17685         2.39669
LJ           1.85935       -0.986619         3.73426
LJ           -3.6755          3.6152         1.99498
LJ          -2.57193        0.251457         0.68394
LJ          -2.09779        0.200158        -5.20608
LJ           4.81227        0.661765        -1.17392
LJ          -3.96544         -2.6268         5.21381
LJ          -4.10592         1.73364       -0.408055
LJ           5.49875         3.58371         -0.7066
LJ          -3.86722        -1.12039        -1.65346
LJ           5.15717        -5.44671        -4.50287
LJ            6.1926         5.62571         1.72378
LJ         -0.248624           1.941        0.420669
LJ          -4.89119        -5.46455         3.84301
LJ          -1.42222         0.68731        -1.30186
LJ          -5.97793       -0.504395         2.23375
LJ          -4.63415       -0.519237         4.06703
LJ           1.53136         2.87586        -3.12743
LJ           2.88009         4.76615         5.61013
LJ          -1.27458       -0.574725        -3.45632
LJ          -2.73837        -6.22802         5.69197
LJ           2.86645        -2.74193        -5.75456
LJ           5.91127         3.55633         2.35506
LJ          0.914158         3.29856        0.162989
LJ          -3.16855         3.62107      -0.0611106
LJ         -0.868651         2.79145          4.7368
LJ         -0.144017         2.26052       -0.600404
LJ           0.90788         2.35574         5.55139
LJ           6.14479         2.74471        -5.90717
LJ           2.40075          5.8347          1.3261
LJ           1.49852        -5.30598         3.96943
LJ          -2.57223         0.57537         -3.4608
LJ              2.23        -3.99457         5.01002
LJ          -4.11678        0.188509       -0.912265
LJ          -1.19278        -3.08598        -1.75748
LJ          -4.28351         6.20981         3.96487
LJ          -2.62678         3.68147         6.33857
LJ          -1.59493      -0.0427142         5.53845
LJ          -4.40672        -4.54105        -1.85746
LJ           4.46448        -4.72653        -3.18087
LJ          -4.09235        -2.54318        -4.19747
LJ           3.19803        -4.01186        -4.62709
LJ          -1.68733       -0.298979          1.2888
LJ          -3.98854         4.46164        -5.24936
LJ          -4.80411        0.450542         -1.9694
LJ           3.54132         5.54683         3.86884
LJ           1.45021          5.1363        -2.55627
LJ          -5.22605         4.53228         2.68619
LJ           6.34505        -5.24519        -4.36321
LJ          -4.35187        -3.25087         2.59126
LJ           -4.2269         4.21591        -4.18238
LJ          -5.70228        -1.84865         5.97451
LJ         -0.495191        0.904036         2.60622
LJ           1.68926        -4.11607       -0.771162
LJ           1.52853         4.37318        -6.10147
LJ          -2.10683         5.65959        -1.52701
LJ          -5.74009        -1.68113       -0.789496
LJ           6.27041        -6.27515       -0.828982
LJ          -2.36302        -1.24865        -1.14763
LJ             2.581         -4.7894        -3.86504
LJ          -1.80904        -6.44937         5.42252
LJ           5.04192         5.81376         1.02572
LJ           6.43822       -0.919516         3.37876
LJ           2.47684         2.48676        -3.76127
LJ          -5.15141         -1.5564         4.88245
LJ          -5.66208        -3.37279         5.61455
LJ          -3.24232         2.43517         3.49266
LJ           1.78608        -4.55556        -2.96598
LJ          -4.81735         4.48299         4.03426
LJ           4.56008        -5.32583         5.65857
