108
#Comment!
LJ           4.84085        -5.35331         5.24986
LJ           2.05294       -0.998239         5.17277
LJ          0.839603         1.32005       0.0655509
LJ          -3.16978         3.41735         3.73003
LJ          -6.43866         2.33421       -0.868044
LJ         -0.558922         -6.0509          4.8661
LJ          -4.39209         5.94358       -0.412765
LJ           1.89626        -1.15712        -3.34005
LJ           4.69359       -0.514569        -3.26192
LJ         -0.455034      -0.0624449        -2.57596
LJ           1.70765         3.50387        -3.25356
LJ           5.24407         4.05737         1.17686
LJ          0.111859          5.2792        -4.51803
LJ          -1.26765      -0.0777947        -4.99801
LJ           1.58525         6.02166        -3.36105
LJ          -4.97236         6.06398         1.88778
LJ          -1.98495         4.08152         2.45905
LJ          -1.55469         6.39068         5.25061
LJ           4.45031         6.18616         6.24061
LJ          0.899047        -4.41147         2.03169
LJ          -3.26698        -2.29439         4.18883
LJ           1.75366        -6.34498         6.16881
LJ           2.01477        -3.92959         4.18167
LJ         -0.935935         2.76904         2.39538
LJ          -4.75378        -4.73173        -2.24575
LJ          -4.59304       -0.147285        -2.47836
LJ           2.39243        -6.39018         2.78999
LJ           2.98523        -2.59064        -4.93571
LJ          -2.29233         -4.5909          2.4296
LJ       -0.00943305         2.48658       -0.709245
LJ           3.30112         3.45744        -4.23545
LJ          -3.46645         5.33503        -5.42348
LJ           4.80835        -4.45434         3.60222
LJ          -5.05447        -4.09579        -5.95786
LJ            -4.173        0.722178         5.49669
LJ           4.51481        -6.16922         4.64043
LJ          -5.57745         4.72512         1.89169
LJ           3.72455        0.670756         6.20707
LJ          -4.76501        -5.86652        -0.14642
LJ           2.88674           2.137        -1.54092
LJ           6.21639       -0.374519         1.86109
LJ           4.46694        -4.17224        -2.19316
LJ           4.01733         2.47605        -5.80195
LJ          -5.94357         3.24976       -0.399106
LJ          -6.23186      -0.0508462        -2.73486
LJ          -1.73984        -2.46612        0.336254
LJ          0.417096        0.376522         2.19878
LJ          -2.78612        0.348753        -5.44871
LJ          -2.77319        -3.65821        0.733644
LJ          -6.37196         6.09354        -4.27059
LJ           1.53668        -1.47876         3.74782
LJ           2.90934         1.00881        -6.02644
LJ            4.3799        -3.23507        -5.33925
LJ         -0.153661         5.81772         -1.4309
LJ          -3.28177        -4.05461        -3.84218
LJ           1.05924        -1.93318       -0.348111
LJ           2.35972         2.70305         2.57502
LJ           5.88245        -4.60428        -6.03605
LJ           -4.2084         4.96788         5.90192
LJ          -3.31928        -3.51593        -2.82891
LJ           6.33653        -5.98808         2.86799
LJ          -5.34783         4.22828       -0.607159
LJ          -4.44364        -5.75331        -3.12152
LJ           4.99597         4.51012         5.80485
LJ            1.4017         3.65683         2.32663
LJ           1.45797        -6.08894         2.05596
LJ           1.56912         5.20394         5.15136
LJ           1.83944        -3.43464       0.0120969
LJ         -0.900205        -1.51613         1.34097
LJ           3.53261         4.87867       -0.531897
LJ          -4.35959         5.82116        -2.48243
LJ          -4.59719        -6.39334        -1.50069
LJ          0.230316        -2.36566        -5.53753
LJ           4.41811         1.60915          6.3787
LJ         -0.227989         3.35035        -3.34045
LJ          -5.29005          1.7981        -2.62927
LJ           5.70796       -0.546532         4.83641
LJ          -6.29314         5.24029        -1.70935
LJ           4.74396       -0.599884         4.08133
LJ           5.17007        -2.61331        -2.56099
LJ          -1.13648         4.36338        -3.50039
LJ           1.75665         5.39135        -6.36662
LJ          -4.02664         1.03582        -1.14371
LJ            3.7185        0.813541         2.67783
LJ           2.89084        -2.54241        -3.78157
LJ         -0.420543         5.37395       -0.446627
LJ          -1.58343        -3.78281      -0.0695389
LJ          -3.83568        -3.42965       -0.579165
LJ          -4.24277        -2.01544         4.47298
LJ           3.11477         5.91308        -3.24073
LJ           4.02459         5.96231         2.83513
LJ           2.02989        -4.20331         1.44715
LJ          -4.00066         3.90544        -2.18253
LJ           4.86759         2.61926        -6.42492
LJ          -5.96941        -4.58894          6.0167
LJ          -4.43645        -1.88463       -0.924948
LJ           3.31647         3.84037        0.307486
LJ          -1.95606         3.66215        -5.76233
LJ          -3.14161         2.52895        -4.72322
LJ          0.216237       -0.644839        -1.33183
LJ            2.3924        -2.67524         5.47595
LJ          0.901407         -3.0679        -6.34066
LJ           6.31914        0.629884        -6.20667
LJ         -0.347675        0.679096         3.46468
LJ          -5.64971        -3.12464        0.514788
LJ          -2.79007        -5.62612         4.05997
LJ          -2.18517       -0.447154        0.794887
LJ          -2.15335        -4.92568        -1.31875
