108
#Comment!
LJ           1.45777         2.52433        -3.79775
LJ           6.02181         6.21615        -5.37039
LJ         -0.885197       -0.283162         6.03462
LJ          -6.02919         6.36674         5.22722
LJ          -4.00692          3.2276        0.961016
LJ          -2.00997        -2.08738        -4.66129
LJ           -1.9855        -1.53659        -3.28185
LJ           6.23553         3.42001       -0.361226
LJ          -2.98892         2.68277         2.78475
LJ           6.04482        -5.62294       -0.905997
LJ          -1.41949        -2.63415         -2.8545
LJ           2.99181        -3.40144         3.04456
LJ           3.76121         5.63687        -4.71117
LJ        -0.0895451         -2.5077         5.34988
LJ           3.74608        -5.74389         3.17205
LJ          -4.61908         2.96407         6.24582
LJ          0.845763         2.42787         -2.9902
LJ          -2.56904        -4.19228        0.546094
LJ          -5.03972         -6.3753         4.49451
LJ          -4.09734         -2.3785        0.994222
LJ          0.542543       0.0308815          6.4592
LJ          -4.90379        -5.78103         6.11241
LJ          0.119342         -1.6674        -2.13691
LJ           -3.3179         3.29161         2.07865
LJ          -4.90005        -2.00079        0.217534
LJ           2.48596        -5.17057         -2.0517
LJ           1.71125         4.45735        -6.04108
LJ          -6.38307         2.56835        0.111162
LJ           2.01621        -3.14039         3.47609
LJ           3.74389        0.479182         6.27929
LJ          -3.36724         3.07201        -4.05799
LJ          -1.32604         3.24029         2.55554
LJ          -0.32191         5.91121          4.2735
LJ           3.34875        -1.32341         -1.0882
LJ           3.38454         1.57229        -4.90326
LJ         -0.482528        -3.27898         2.85318
LJ          -6.00164         3.12209         6.19506
LJ          -3.17193       -0.873721        -3.04721
LJ          -0.62482         1.78524         5.81661
LJ          -4.16864          1.3633        0.418645
LJ          0.840671        -4.86631         1.74698
LJ           1.07361         1.32605          3.7064
LJ           6.21712         0.73759        -2.89068
LJ           5.43397         5.32668         6.43173
LJ          -2.38162        -1.21069        -2.25487
LJ           6.33345        -2.41754          3.1809
LJ          -6.40874         6.44289       -0.747623
LJ           4.98312       -0.292401       -0.643857
LJ           6.35752         6.11239         4.35216
LJ          0.480805         4.49577         6.43573
LJ           1.42159        -4.53285       -0.834895
LJ           1.46164        -2.07868        -6.19812
LJ           2.24165        -2.31399        -3.51114
LJ           4.35381       -0.476291        -2.51001
LJ          -1.55879       -0.167567        -2.72596
LJ           4.73245        -1.10406        -1.44488
LJ           4.73452        -2.21522         -5.5886
LJ           2.37055        -4.01409        -3.68473
LJ           2.56486        -2.90018        -5.52849
LJ          -4.60804         4.66007         4.79625
LJ          -3.61026         4.03396        -6.41459
LJ          -5.90819         5.27347        -3.46618
LJ          -1.02212        -4.27781       -0.414628
LJ          -6.37393        -5.47491        -1.89471
LJ         -0.566029         4.79798        -2.43246
LJ          -4.13703        -5.42935        -2.02825
LJ           3.39006         -1.3558        -4.37646
LJ          -3.65428         2.13651         -3.0482
LJ          -3.57959        -1.41892         5.25187
LJ           -5.5936          2.8558        -2.98469
LJ          -4.01206         2.19451        -4.23133
LJ           3.92823         2.74394        0.517015
LJ          -1.60073          4.8088        -2.44462
LJ           6.44916        -3.18919         1.79958
LJ         -0.248131        -3.09064        0.601981
LJ          -4.64836          4.5412        -2.33976
LJ         -0.800606        0.432906         1.70787
LJ           2.21262        -3.56628         1.65957
LJ          -5.05591        0.579401        -2.84986
LJ           2.85702        -2.89855         4.44506
LJ          -3.55213         5.10453         -6.1817
LJ           2.20492        -1.74492         4.41967
LJ            1.4688         -5.7153        -1.73136
LJ           2.87074         4.35848        -6.08885
LJ          -3.47933         -5.1728       -0.799118
LJ          -1.51966        0.629188         4.75932
LJ          0.165196         4.54807        -1.82068
LJ          -4.81623        -6.09215       -0.252142
LJ           2.68658        0.404195        0.293492
LJ          0.859463         2.99362        0.322657
LJ           2.77726      -0.0587788         3.16905
LJ          -1.45387        -3.59242        0.979808
LJ         -0.680418        -6.19912        -3.08047
LJ          -4.05433       -0.861632         -5.3782
LJ          -6.21045         4.61951        -5.87542
LJ           3.61316         4.10957        -4.95186
LJ           3.01561        -1.16005          5.2308
LJ           3.20339        -1.10644          3.1192
LJ           2.96281        -5.28923         4.52634
LJ            1.2189         -4.7947         4.22155
LJ           3.26719         3.24424        -1.67226
LJ         -0.345188         2.20248         4.75052
LJ          -5.44975       -0.894982        0.306555
LJ          -2.22309         5.40277        -1.31542
LJ          -2.46774        -5.95909         4.72955
LJ         0.0150991        -5.37794         5.88316
LJ           3.44877         -1.8958         3.64829
LJ          -5.79714        -5.19707       -0.870268
