108
#Comment!
LJ           2.92193        -4.60527         2.26089
LJ         -0.231219         3.67066        -5.53017
LJ          -4.43639         4.31062        -5.52966
LJ          -1.72296         1.48364         5.65075
LJ          -3.05735         -5.7337        -2.93831
LJ           -1.5074         1.98106        -4.29139
LJ           2.80932       -0.946697        -3.30805
LJ          -4.60685         5.00428        0.353079
LJ           5.47227         4.39143       -0.916402
LJ           3.88406       0.0581411         5.83865
LJ         -0.249533         1.43171        -5.33494
LJ           4.97422         5.60646        0.398469
LJ          -1.28936        -5.93269        -4.24686
LJ           1.08627         6.23167         -2.6056
LJ           1.69497       -0.169286        -6.14632
LJ           5.91615        -4.08134         5.79234
LJ           3.27078        -2.42943         6.33903
LJ         -0.795637        -3.23857        0.149953
LJ           4.53636       -0.848981         2.39523
LJ           -1.3043         -1.1116         2.36306
LJ          -1.85855         3.09578        -6.31969
LJ          -4.73799        -5.39998        -2.84817
LJ          -5.93985         4.86731         1.76303
LJ           3.83108        -2.81901         2.77126
LJ           5.42473        0.984128        -3.23261
LJ           5.26885          6.2541        -1.10738
LJ           3.85557        -4.03391         3.43894
LJ          0.827846        -4.63939         6.33938
LJ           6.41496        -5.13159         4.13149
LJ           2.72513         4.06457         5.71823
LJ            1.0966        0.828888        -2.08446
LJ           1.09916         2.04227         2.11829
LJ         -0.969804         4.87043        -4.46383
LJ          -2.86033        -5.14122         3.88965
LJ         -0.503622         4.63943       -0.234477
LJ           1.45038         6.38719        -3.60279
LJ          -2.91258         3.94598         1.42436
LJ          -3.00549       -0.807715        -5.98902
LJ          -4.51545        -1.93346          4.2856
LJ          -4.50777      -0.0167916        -4.45331
LJ          -5.04492       -0.954395        -4.97625
LJ          -1.21515         2.29868          2.3572
LJ         -0.447529        -3.23282        -2.89676
LJ           -3.9741        -5.80687         6.10042
LJ         0.0478377        -5.69047         6.12253
LJ          -4.35836         5.61252         1.29452
LJ           1.21221        -4.41081        -5.71385
LJ          -3.45343         5.72483        -1.35385
LJ           3.30615         -6.3521         5.75501
LJ          0.953041         3.83046        -0.56108
LJ            3.2611        -1.75329         1.91942
LJ          -4.64074        -5.09652         1.52538
LJ           4.21739        0.516759         2.66087
LJ           5.16045        -5.40763        0.130679
LJ            -5.888        0.180505        -1.05906
LJ           3.28643       -0.136485         -4.3947
LJ           5.60453        -6.11288        -4.76415
LJ           1.90505        -2.93844        -2.32522
LJ           3.90288         3.34521        -3.64118
LJ          -5.56072         4.50672         5.39657
LJ          -6.12136         3.24406        -1.99738
LJ           3.34805         5.67121        0.681585
LJ          -1.02521        -6.02858        -2.53629
LJ          -2.69258        -4.88063        -1.84779
LJ         -0.813679          4.4111         4.91563
LJ          0.538346        -4.65139        -2.94017
LJ           4.75762        -4.27175         4.87315
LJ          -1.64598         2.77545         4.91069
LJ          -2.68116        -1.56761        0.167057
LJ           1.45316         5.87016        -5.96841
LJ          0.991665         1.50656        -3.12496
LJ          -4.61058        -4.63993         2.75215
LJ           2.83887         3.18315         3.86782
LJ          -5.75781         5.85998        -6.12559
LJ          -3.33737        -1.63897        -4.06778
LJ          -2.26955         4.44315        -3.40801
LJ          -4.63453         6.32171         3.48371
LJ         -0.784553        -1.10201         -2.8733
LJ           3.67912          1.2052         4.24944
LJ          -3.04263        -2.35795        -2.95754
LJ          -5.52227        -5.36779        -1.83432
LJ          0.127867        -4.33279        -4.86254
LJ          -2.59942        -5.35658        0.126218
LJ           1.65975         1.59748        -1.01195
LJ           1.56154        -1.02132         5.74125
LJ          -5.20033         3.53071         6.25274
LJ          -2.36796        -3.45428        -1.58395
LJ          -3.44828        -4.79282         5.19879
LJ           2.36049          2.2626        0.514453
LJ           5.35559         1.00354         2.76611
LJ           4.63802        0.158319        -2.98918
LJ          -1.57389         3.74744        -2.47138
LJ         -0.855984        -2.92552         6.11394
LJ           3.59095         2.26824         4.85462
LJ           5.47796       -0.419401         1.21237
LJ          -3.77101        -5.31297        -5.73202
LJ           2.43393         3.85598        -4.27452
LJ          0.251142         1.91618        -2.42916
LJ          -5.54946        -6.15078        -3.09926
LJ         -0.468266         3.18778        -2.60455
LJ            -6.202         2.70766         6.23139
LJ           3.42729         4.60165         6.15196
LJ          0.112122        -2.66858         1.16828
LJ         -0.248672        -4.76313        0.434105
LJ           4.92422         4.75737        -6.24051
LJ          -3.45282         6.24592         4.72918
LJ           5.51591         4.28846          1.6649
LJ           5.81141         4.75824        0.104315
