108
#Comment!
LJ           2.61934         5.26043        -2.79565
LJ           4.01645          4.5625         -6.2448
LJ          -2.86297         1.66681         5.71337
LJ           6.45848         4.18828         4.01204
LJ          -2.82112       -0.870172         4.36288
LJ           -1.5804         6.31716        -4.84362
LJ          -6.17114       -0.308302        -2.96517
LJ          -6.27206          3.7249         2.04475
LJ          -3.45726         4.39042       -0.596984
LJ           5.97673         -3.5589         1.09874
LJ          0.150482        0.263711        -3.50387
LJ           4.23925        -5.85947         1.44694
LJ          -5.99944        -6.05371         -4.8936
LJ          0.809204        -3.99733         1.99525
LJ           4.17042         -4.1627         5.59613
LJ          -5.32994         5.22893         5.96211
LJ           1.18797       -0.556245       -0.102314
LJ          -1.43908         -3.9312        0.578002
LJ           5.19629          3.7343         5.30659
LJ          -2.00324        -2.27424         1.78994
LJ         -0.734411        -3.28503          6.2837
LJ          -4.63059         5.90838        -5.06342
LJ          -1.94218        -3.81333        -1.00788
LJ           6.20998        -5.07904         0.86897
LJ          -5.99519       -0.954218        -1.27933
LJ           4.03246        -5.92521         -2.7454
LJ           2.35345          6.4566         5.16849
LJ           4.26072       -0.250734         2.62117
LJ           1.59522         6.02942         4.30407
LJ           2.41415         3.73045         5.51277
LJ          -2.36883         2.03884        -3.80181
LJ         -0.362481          2.6905         2.41548
LJ          0.347635         3.86141          -6.461
LJ          -5.61449        -3.04405        0.755579
LJ           2.59556          2.8323        -4.35525
LJ          -5.60863        -6.13474         2.18442
LJ          -4.99217           4.629         4.18572
LJ          -3.44598      -0.0669063        -5.11941
LJ          -2.11013        0.213505         6.06657
LJ          -4.51571         1.38497        -1.73828
LJ           3.65949         4.52507        -1.38993
LJ          0.237721         3.37345         4.84399
LJ          -4.17323         4.99023         -2.6236
LJ           2.34522         5.31037         -4.3351
LJ          -1.50301        -2.87965         1.10567
LJ          -4.53863         1.80427         1.38837
LJ           4.66018         6.30743        -1.25677
LJ          -4.92137         2.57605        -1.68989
LJ           5.54834         5.87964         3.60508
LJ          0.744544         3.87824        -5.60096
LJ           2.57521        -1.35049        0.805883
LJ           5.48605        -4.20504         4.10606
LJ           3.28095        -1.26595        -2.16714
LJ           4.32034         2.74236        -1.04912
LJ          -3.69687        -0.34594        -1.92029
LJ            2.7482       -0.358205        -2.16815
LJ           4.96898         -3.6651         -4.2466
LJ           2.32304        -3.03692        -3.26837
LJ           3.54455       -0.436569        -4.76412
LJ          -4.73342         6.11586         4.25809
LJ          -4.31804         4.66001         2.05744
LJ           6.26583         5.08038        -1.90987
LJ          -1.98957        -5.43795       -0.241885
LJ          -4.79918        -4.33969        -1.81724
LJ           0.49132         5.00136        -6.19723
LJ           5.91278         -5.4802        -1.88029
LJ           4.10806        -2.61509       -0.222129
LJ          -3.17529         3.48897         -3.4529
LJ          -3.46657        -1.08377        -4.81117
LJ           4.03177         4.83733        -4.26896
LJ          -1.32919         1.73641        -3.35871
LJ           5.53602         5.06653         2.35318
LJ         -0.310463         4.98546        -5.22943
LJ          -5.00901         -4.2502         3.54829
LJ           4.93657        -3.39258        -3.12104
LJ          -3.61703         4.42063        -1.74624
LJ           2.91815         2.80892         2.42478
LJ          0.472233        -3.08191        -1.06504
LJ           6.13217        0.633797      -0.0810357
LJ            4.1795        -3.15505         6.15223
LJ          -3.71091        -5.96956        -4.84337
LJ            1.3098        -2.62448         6.13377
LJ         -0.184015        -6.19279         1.50237
LJ           2.40393         3.33525         3.36207
LJ          -2.36422        -3.73705        -2.94776
LJ          -3.67785        0.672541        -5.72477
LJ         -0.868484         1.01405        -1.57493
LJ           -4.6851         6.08345           -2.32
LJ           3.17291       -0.443121        0.242811
LJ          -3.67009         3.28306         1.99596
LJ           2.99416        0.573983        0.799629
LJ         -0.397736         6.45235         4.15367
LJ          -1.09571        -3.81349        -2.69774
LJ          -2.12687       -0.464936         5.12593
LJ           5.87445          3.0394         4.70296
LJ          0.319556         4.63339        -4.17927
LJ           2.81067        0.839276        -6.41583
LJ           2.26527       -0.154258        0.836975
LJ           3.90124        -4.64968         1.59567
LJ         -0.141918        -6.36328        -6.29269
LJ            6.1614        0.643638        -3.39538
LJ          0.313082         6.05996         3.57883
LJ          -3.92478        -2.30704         1.01273
LJ          -2.65974         5.13493        -0.45215
LJ          -4.42423         4.56426        0.707422
LJ          -1.83441        -5.83186         5.34712
LJ           4.32137        -4.42239         3.36291
LJ          -5.37784         6.44773      -0.0652303
