108
#Comment!
LJ         -0.589681        -1.11234       -0.298346
LJ           4.47797         -1.8609       -0.434261
LJ          -5.29073         2.85916       -0.607907
LJ          -2.37425         4.86472       -0.984086
LJ          -3.33576         4.95214          2.5701
LJ         -0.134582        -1.20893         1.85796
LJ           -2.3889        -3.93895        -1.84112
LJ          -5.30254        -5.80877          1.3922
LJ           1.78624         -6.1891        0.268399
LJ           4.12651        -4.36597        -4.76424
LJ           3.28752        -6.08003        -2.56234
LJ            4.7132         -3.4458        -1.08791
LJ         -0.194858        -2.13058         5.92644
LJ             2.211        -4.48717       -0.284851
LJ          -3.89902           3.583        -5.96924
LJ           5.13122         3.13215          4.6246
LJ           5.24486       -0.732145        -3.40889
LJ          -5.00544        0.557555        0.554474
LJ           2.05421         2.93373        -4.38304
LJ          -3.11411        -4.85014         5.21875
LJ          -3.50635        -3.80815        -4.53052
LJ           1.00401        -5.65122         5.09925
LJ           1.28615         -1.3681        -6.30873
LJ          -2.43644        -6.23057         5.59232
LJ          -4.60318         4.26653        -6.45384
LJ          -6.11748         -1.3573        0.670734
LJ          -2.58164        -4.99534        -1.26001
LJ          -5.72814          -5.538        -1.19669
LJ          -3.09088       -0.774086         2.93742
LJ         0.0450586         3.16222         -2.8865
LJ          -4.30432         1.05651        -1.26388
LJ          0.767856        -3.42066        -1.21547
LJ           6.00801       -0.746541         2.42067
LJ           -5.3363        0.713882         6.05259
LJ          -3.61292        -2.33488        -2.99468
LJ           4.51573       -0.020058         5.94717
LJ           6.29841       -0.236154        -4.01674
LJ           4.32411         5.22147        -3.86634
LJ          -3.34106         2.53791         1.20268
LJ          -5.04315        -2.50896         5.22813
LJ           2.93504        -5.04799        0.332443
LJ          -5.96986          -5.475        -2.23546
LJ          -4.42892        0.156823          6.0005
LJ          -3.68461        -5.18414        -2.69114
LJ            3.8236         1.18435        -6.33225
LJ          -3.24483         2.92397        -4.05589
LJ           5.69885        -4.86916         2.26259
LJ          -4.58451        0.221623         2.58015
LJ          -1.31758         4.49127        -2.72631
LJ           3.41664        -2.02363        -6.44692
LJ          0.183779        -0.96568         -3.2499
LJ          -4.22682        -5.49292        -1.22144
LJ          -3.18618        0.257882         3.54215
LJ          -3.21783         3.34289      -0.0479935
LJ          -2.49867         3.47784         1.92089
LJ           4.42955         5.55767         1.43233
LJ          -5.82139         0.69378        -5.85985
LJ          -5.18169         4.21521        -3.30982
LJ        0.00600473         1.77068        0.323381
LJ          -6.14436         5.26876         -5.8758
LJ         -0.735975        -3.41333        -1.46184
LJ          -5.23763         3.54309        -5.95184
LJ           2.22577        -5.50615       -0.908258
LJ           5.79227         2.53527        -2.89224
LJ           5.34976          3.5827     -0.00190153
LJ          -2.63736        -5.34773         6.25173
LJ           6.07951        -6.40842         6.20796
LJ          -1.82381        -5.40959         5.66424
LJ           -5.0625       -0.297131       -0.900268
LJ          -5.40807         6.07875         3.99801
LJ          -6.16132        -1.18037        -5.38775
LJ          -5.87747        -4.53454        -5.45701
LJ          0.647139        -2.67285         5.29336
LJ           1.62642        -1.74907         4.85136
LJ          -1.10267        -6.23004         6.39533
LJ           -6.1827         5.17753         2.68841
LJ          -1.47996         4.51205         3.45085
LJ          -5.69439         4.51404        -4.46313
LJ         -0.358767         5.34795         1.99366
LJ           3.58381        -2.70155          5.7566
LJ         -0.524412         -5.2438        -6.35023
LJ           5.06677         3.16572           2.175
LJ           4.78791        -1.06986         4.48319
LJ           6.45764        0.102472           5.933
LJ           2.75865        -4.25465        -4.89159
LJ           3.01939         5.41754       -0.979672
LJ          -1.89272         1.63445         4.06084
LJ          0.756952        -1.63249         3.93225
LJ          -5.37619         5.28418        -3.81403
LJ           3.78341         5.85719         -6.0276
LJ           3.88255          5.5685        -1.85944
LJ           4.08829        -2.76567         -1.5153
LJ          -5.53522        -4.30386        -2.54655
LJ           3.58438        -1.18626         1.07947
LJ           4.21454        -3.63651        -6.32156
LJ          0.442181         1.17985        -1.49429
LJ           6.35671        -6.40991         4.61576
LJ          -2.82903         2.91356        -5.30565
LJ           4.59998        -1.88785        0.518261
LJ            6.4166         3.89924         5.75577
LJ          0.837541       -0.118883        -1.07493
LJ          0.304624        -4.88178        -1.70135
LJ          -4.44099         3.20038         5.93894
LJ           4.87855        -1.91398        -4.58194
LJ            3.5537       -0.430155         1.96725
LJ           2.81723          1.0935        0.653506
LJ           3.64859       -0.230707        -5.13569
LJ          -1.98951      -0.0416031         5.14678
