108
#Comment!
LJ          0.103701        -1.90298         1.59913
LJ          -2.36649        -5.37808        -5.89255
LJ           5.64877         2.42361        -3.91908
LJ          -5.56268        -4.22593       -0.555036
LJ           3.16862        -3.80427        -4.00253
LJ          -5.18417         1.82129       -0.747888
LJ           2.85223        0.482509      -0.0405062
LJ           2.46703         3.46984         2.26818
LJ          -4.18789         0.71432         2.93779
LJ           4.98478        -4.78481         4.37901
LJ           -2.2043         1.30891         5.47313
LJ           3.85015         3.54346        -0.36725
LJ          -4.81186        -4.27637        -5.92341
LJ        -0.0311678        -6.19055        -1.89484
LJ          -6.09502          3.2862        -3.50592
LJ           5.56791        -1.47876         3.79417
LJ          -5.87279          1.4459         1.88835
LJ           4.67615       -0.706941        0.964734
LJ          0.748032        -3.62828       -0.114375
LJ          -4.07002       -0.738906         2.73248
LJ         -0.170416        -4.24851        -6.17543
LJ          -5.82328        -6.20442         2.71675
LJ          -5.91083          3.1473        -5.25415
LJ           1.83261        -4.06962        -3.64031
LJ           2.16521          4.8088         4.08087
LJ          0.971283         2.39735      0.00883619
LJ          -4.01069         1.33089        -4.48181
LJ          -4.23248         5.10459          -1.879
LJ          0.481036        -4.65369         1.34761
LJ          -1.76497       0.0807357         1.32177
LJ          -6.21686       -0.333363         -5.4006
LJ          0.739923        0.806951         2.68414
LJ          -2.15451         3.28001        -4.73383
LJ           6.09328         1.31926        -6.23657
LJ          -4.56947        -3.00446        -5.73908
LJ         -0.326652         5.01795         2.18844
LJ         -0.111835        -3.27261        -3.20651
LJ          -4.11244        -2.04766         4.93566
LJ          -4.34855        -6.41693        -4.08244
LJ          -4.74958        -2.80897         5.88898
LJ          0.890516         3.83954         3.08257
LJ          -3.28075          1.1335        -2.26657
LJ           2.27501        -6.18184        -3.47641
LJ             1.211        -4.23135         2.62148
LJ          -4.65732         1.91291        -1.63796
LJ           5.51841        -6.32229         3.90728
LJ           -4.5084         2.49772        -4.32598
LJ           2.59224        -1.64549       -0.835653
LJ          -5.91751         2.75647        0.731641
LJ          0.841038         4.11623         6.02118
LJ           6.25686         1.56697         2.88278
LJ          -2.17205        -2.62916         2.28083
LJ          -5.22903          4.0777         3.12194
LJ          -3.03108       -0.390231        -4.47756
LJ           4.43209         1.70519       -0.891424
LJ           2.56087       -0.553474         4.68312
LJ          -6.03349        -5.92394        -6.02865
LJ          -1.54624         5.37413        -1.05224
LJ           4.02072        -4.44422        -1.94911
LJ            4.6504        -5.11279        0.684175
LJ            3.1618        -2.42184        -5.03521
LJ          -2.55843         -2.3398         4.37417
LJ           5.26722        -3.85287         1.32911
LJ           1.39834        -5.41161         1.46692
LJ          -4.45905         3.49097          3.7047
LJ           4.09892        -4.64898         5.26891
LJ          -5.25535        -1.05954        -5.35277
LJ          -3.86497        -6.40451         4.30991
LJ          -4.37333       -0.549688         4.81999
LJ           3.07854          3.3136       0.0415111
LJ           5.59872        -1.84141        -1.33341
LJ          -1.67292        -1.57934         2.46083
LJ         -0.117414        -2.76811       -0.364659
LJ          -5.88509       -0.955675        -2.02405
LJ           6.35689        -5.72697        -2.77041
LJ           5.15112         3.97102        -1.77156
LJ           2.04435        -1.10166        -4.25328
LJ           1.06142         0.83421        -6.15527
LJ           2.59052        -6.11492        -5.80611
LJ           3.93388        0.931339        0.551328
LJ           4.44746        -6.20827         1.75002
LJ          -2.63644        -5.03215         5.65363
LJ          -1.55899         -2.4603        -3.18171
LJ           4.59867         5.56427         1.54142
LJ          0.469686         5.58058        -3.65336
LJ           4.71774        -4.21924        -4.86187
LJ          -2.07402        -4.38197        -2.44567
LJ          -1.23065        -4.54747        -1.02217
LJ          -1.06505        -5.12878        -2.12506
LJ           3.55147         2.74295         1.00944
LJ           3.60889        -2.09828         -3.3506
LJ          -5.10611        -1.51091        -1.42837
LJ           5.17812         -4.7585        -1.02011
LJ          -2.17444         5.01273        0.364292
LJ          -5.69466        -5.68891        -4.05793
LJ           2.27292         -3.6325        0.390063
LJ          -4.90849         0.89401        -3.86517
LJ           1.50488          -3.496        -2.75604
LJ            3.2407         6.42923         3.88347
LJ           1.33084         6.21602       -0.652502
LJ           5.57057        -4.07565        -3.97192
LJ           3.66329         4.05834          5.0165
LJ           2.87927        -1.32838         3.96839
LJ           1.66967         2.47702         -2.1019
LJ           1.43093         4.22125      -0.0409945
LJ          -5.55907        -3.70536         1.22512
LJ          -6.12547        -3.30411        -4.57536
LJ            3.1815         2.97052        -1.35102
