108
#Comment!
LJ          -5.89784        -4.20151         4.69384
LJ           2.00747       -0.840928         2.18807
LJ          -1.04413         1.63168       -0.119237
LJ          -2.93766         3.70387         1.25632
LJ          -5.46038          3.5023        0.170486
LJ          -1.80828        -5.30598         3.83758
LJ          -3.11196         5.90819        -1.18351
LJ          0.821299        -1.84701        -1.31572
LJ           3.75986        -1.23825        -1.63559
LJ           3.01581        -1.29225        -2.95511
LJ           3.04995         3.75449        -3.03716
LJ           5.56167         6.31579        0.925763
LJ          0.339068        -6.03202        -5.10321
LJ         -0.316026        -1.85845        -3.76301
LJ           3.83143          5.7824        -5.16943
LJ          -1.83695         5.16547         1.54541
LJ         -0.371553         2.94263         4.13358
LJ          -2.66242         4.00811          5.0077
LJ           3.42472         5.02656         -5.8087
LJ          0.794808        -3.95355          3.1524
LJ          -4.02594        -2.59372         5.67373
LJ            2.8342         5.98549         4.20641
LJ          0.486971        -2.24718         5.08053
LJ           1.21028          1.3181         5.05659
LJ          -4.06338        -6.34823        -3.52898
LJ          -5.86229       -0.488399        -2.19009
LJ           1.06486         5.98915         1.02092
LJ            3.2525        -5.15651        -3.00083
LJ          -2.74852        -4.06909          2.0286
LJ          0.550656         4.58411       -0.606386
LJ           1.52034         2.00465         6.40393
LJ          -6.14397        -6.28411        -4.08764
LJ           3.50684        -4.35028         2.33052
LJ          -4.16438        -1.24023         6.34212
LJ          -5.23947        -1.10407         6.42824
LJ           5.31428         5.25631         4.10246
LJ           6.12486         3.47015       -0.156893
LJ           4.14723        -1.47014        -6.37231
LJ          -5.45372         -5.6558        -1.21809
LJ           0.87444        0.440004        -3.37983
LJ            6.0314        -1.78157          4.9183
LJ           4.26572        -4.69217        -2.23278
LJ           1.61623          1.3157         -5.1711
LJ          -6.03059         4.49526       -0.479759
LJ          -5.46786       0.0210978          1.2145
LJ          -1.04777        -3.65562        -1.34787
LJ           3.13119         4.82585         3.28792
LJ           -4.2548       -0.509639        -2.94307
LJ          -2.22199        -4.47188       -0.335633
LJ           5.08741        -5.56916        -4.70847
LJ          -1.51447       -0.993767         4.13636
LJ           4.39735       -0.120263        -4.18815
LJ           2.89873        -3.38614         6.21133
LJ         -0.162649         5.80762       -0.547389
LJ          -2.80549        -5.21398        -2.23123
LJ           0.68977       -0.103716      -0.0550001
LJ           0.68176         1.60644        0.279676
LJ           6.39611        -4.93965         -5.6804
LJ          -2.94163         4.66773        -4.95459
LJ          -5.05426        -4.80031        -1.94253
LJ           4.56297         3.83729         2.02657
LJ          -5.23417          4.0553        -2.35677
LJ          -5.86391         -5.2921        -4.06034
LJ           5.23668         3.98641        -5.11595
LJ         -0.326727         3.50245         1.41975
LJ         -0.110861        -4.69759         2.73161
LJ           1.64294         4.74404         4.67146
LJ          0.956118        -1.10386         2.83113
LJ          0.165896        -2.07536         1.44298
LJ            5.2449         5.62854       -0.122436
LJ          -5.20256        -5.21571        -3.24385
LJ          -4.02173        -5.47243         -2.1854
LJ          0.745082        -1.98422         6.21267
LJ           5.90694         0.69467         4.91729
LJ         -0.210351         4.39123         -4.3028
LJ          -6.11111         2.26301       -0.807536
LJ          -5.54537          1.0005         5.48486
LJ          -5.68879         4.92405        -1.88618
LJ           2.91283       0.0743385         3.57126
LJ           5.03335        0.632374        -3.75251
LJ         -0.304857         5.31066        -3.55083
LJ            1.8989         5.14388         6.03949
LJ          -4.50793      -0.0762946        -1.29594
LJ           4.21993          3.5748         3.64901
LJ           2.33354         -3.9403        -3.00951
LJ         -0.505135         4.56769       -0.842706
LJ          -1.31746        -4.88535        -2.09014
LJ          -2.15557        -2.34829        0.699273
LJ          -6.19787        -2.53871         2.54319
LJ           3.49238         5.57827       -0.523272
LJ           3.84127        -5.76525         2.10562
LJ           3.08627        -4.11911         1.30251
LJ          -4.41143         5.37957        -1.62995
LJ          -4.13183         3.00011         3.99119
LJ           5.89935        -5.96483         6.39831
LJ           6.19388       -0.848992       -0.771365
LJ           4.90923         4.37425        0.388217
LJ          -2.44749         3.30858        -5.08981
LJ          -4.50443         4.61037         6.29445
LJ           2.12861         0.84631        -2.39975
LJ           1.41921        -3.10479         5.51288
LJ          -0.35045        -4.16202        -4.76968
LJ          -6.13628           1.821        -6.25089
LJ            1.2193       -0.728756          1.5252
LJ          -2.16018        -3.06602         1.99428
LJ         -0.163926         5.46189         4.03089
LJ          -4.09922       -0.885248         2.72075
LJ          -2.30538        -3.22335        -2.77759
