108
#Comment!
LJ         -0.940335        -1.68805        0.638015
LJ           4.18258        -1.66155        -0.30196
LJ          -4.77084           2.703        -0.56542
LJ          -2.45451         4.76909         -1.7265
LJ          -3.17398         4.51222         2.63849
LJ         -0.208365        -1.80432         1.73933
LJ          -1.25304        -4.00384        -1.57816
LJ          -4.78007        -5.09735          1.1861
LJ           1.61975         -4.7939         0.29624
LJ           4.85638        -4.42169        -4.51071
LJ           3.21734         6.34183        -2.21669
LJ            4.8321        -3.92455       -0.982439
LJ          0.128541        -2.31331         6.30062
LJ           1.67805        -4.81547       -0.884619
LJ          -4.43156         3.59476        -6.25307
LJ           4.63391         2.91323         4.29038
LJ           4.48961       -0.205726        -4.09778
LJ          -4.50803        0.918364        0.519066
LJ           1.45002         2.33875        -4.68575
LJ          -2.49073        -4.85082         4.91166
LJ          -3.57626        -3.59163        -4.60603
LJ          0.249543        -6.22932          5.0839
LJ          0.936613        -1.36115          6.2584
LJ          -4.36754        -5.77541         5.29753
LJ          -4.71286         4.48842        -5.43966
LJ          -6.17667        -1.49919        0.255271
LJ          -2.21634        -5.27217        -1.00431
LJ           5.97742         6.34312       -0.850326
LJ          -3.52399       -0.987723         2.25912
LJ          0.403916         4.25179        -2.54699
LJ          -3.78048         1.05068        -1.46556
LJ           1.24324        -3.69895       -0.906213
LJ           4.20658        -1.15449         2.39032
LJ           -4.7272         1.00973         5.79094
LJ          -4.66274        -1.63299         -3.4356
LJ           4.62628        0.916538         4.97212
LJ          -5.86394       -0.460355        -3.82537
LJ           5.03399         6.05441        -3.98998
LJ          -4.04793         3.40325         1.00627
LJ          -4.48165        -2.97176         6.15701
LJ           3.23239         -5.6669       -0.883535
LJ          -6.37038        -5.40037        -1.85864
LJ          -3.88572        0.189684         -6.1557
LJ          -4.21235        -5.50366        -2.36064
LJ           4.76248         1.21866         6.27803
LJ          -3.82147         3.90176        -4.36423
LJ          -6.14049        -4.77374         1.37269
LJ            -4.315       -0.498144         1.87602
LJ           -1.5421         5.01886        -2.42901
LJ           3.43765        -2.36135        -6.32744
LJ          0.216612        0.123592        -4.20751
LJ          -4.82899        -4.99008       -0.604527
LJ          -2.36319       -0.520458         3.74806
LJ          -2.79062         3.52214      -0.0873999
LJ          -2.57774         4.37917          1.6691
LJ            4.0203         4.82571         1.28979
LJ           -5.3585       0.0121851        -5.09222
LJ          -5.25341         4.70633        -3.81891
LJ         -0.334395         2.15274       -0.349576
LJ          -5.83723         5.31264         -6.0169
LJ         -0.502852        -3.11022        -1.12457
LJ          -5.55224         3.71249        -5.86902
LJ           2.91689        -4.97859        -1.85107
LJ           5.76205         2.80335        -2.93772
LJ           6.36861         3.47077       0.0244021
LJ          -2.30762         -4.9393         6.02976
LJ           -6.3853         5.52547         6.12914
LJ         -0.911259          6.4607         5.28379
LJ          -6.34616       -0.358829       -0.295514
LJ          -5.94838         5.56864         4.71138
LJ          -5.97806        -1.04196        -5.87469
LJ          -5.04154        -4.13621        -5.60715
LJ           1.10003        -2.71208          5.4485
LJ           1.43585        -1.74518         5.05062
LJ         -0.974622        -6.26104        -5.93709
LJ          -6.38094           4.686         2.59057
LJ          -2.64636         4.35531         3.56035
LJ          -5.96902         4.89884        -4.92954
LJ         -0.149732         4.51907         2.26296
LJ           4.02765        -3.98027          6.2544
LJ         0.0270781        -5.58114        -5.76716
LJ           4.43242         3.65192         2.74455
LJ           5.35244       -0.961671         3.68424
LJ          -6.43233        -1.15704         6.16104
LJ            2.0349        -4.64268         -4.6773
LJ           2.92846         6.43961        -1.17458
LJ          -1.87364         2.54581         5.02883
LJ          0.964072        -1.60249         4.07987
LJ          -6.24947         6.09964        -3.61426
LJ           4.29646          5.5069          6.2583
LJ           3.99325         5.75462        -1.10176
LJ           3.89263        -2.87096        -1.55761
LJ          -5.33201        -4.65489        -2.18906
LJ           3.40444      0.00928278        0.667273
LJ           4.15107        -3.48693        -5.26845
LJ           1.20941        0.942705        -1.41458
LJ           -5.9541        -6.03937         4.56421
LJ          -2.66679         3.08618        -4.81505
LJ           4.79897        -2.52721         1.41843
LJ            6.4513         3.84058        -6.46165
LJ           1.01352       -0.865297        -3.31914
LJ        -0.0149233        -4.96673        -2.28613
LJ          -5.37571         4.67431         6.24978
LJ            4.3312         -2.7194        -4.25902
LJ           3.25608        -1.23748          2.0839
LJ           2.42056         1.80107          1.2678
LJ           4.30676       -0.419603        -5.82014
LJ          -2.09731       -0.398936         5.87647
