108
#Comment!
LJ          -6.11525         5.64499         6.12785
LJ          -4.31168        -3.49681         5.93644
LJ          -5.96549        -4.39391        -5.29274
LJ          -4.30778         -6.1884        -5.15438
LJ          -1.72937        -5.09231        -6.45766
LJ           0.30589        -3.63037        -6.29568
LJ          -2.34802        -4.77217        -3.66789
LJ         -0.243599        -6.20935        -4.77267
LJ           1.82429        -6.22408         6.28066
LJ           4.13839        -4.88944        -5.61114
LJ           2.44967        -5.12924        -4.20077
LJ           4.54064         6.12023        -3.75671
LJ           6.06956        -1.81167        -5.68905
LJ          -4.59284        0.291015         6.40579
LJ           6.41076         0.77216         -3.7672
LJ          -4.64515        -1.58687        -4.31897
LJ          -2.40125        -1.46017         5.96671
LJ          0.290218        -1.01149        -5.78861
LJ          -1.79911        0.392633        -4.35968
LJ           0.70364        -2.33216        -3.56762
LJ           3.54728        -2.36748         6.28664
LJ            5.1556        0.678808        -6.31332
LJ           3.39127        0.158449        -4.96329
LJ           3.36054        -2.67231        -3.90804
LJ          -5.52818         3.08153        -6.28291
LJ          -3.76367         4.30086         6.32973
LJ          -5.33915         4.68179        -3.98214
LJ          -3.98862         2.70106        -4.15988
LJ           -1.7274         1.61282         6.18323
LJ          -1.24674         4.72706        -6.11927
LJ          -2.43648         4.86876        -3.76026
LJ          -0.25523         3.30257        -4.05744
LJ           2.32226         2.37347        -6.04077
LJ           4.31822         3.80212         6.04847
LJ           2.41216         4.71237        -4.83626
LJ           4.25177         3.09927        -4.03459
LJ          -5.60897         6.24827        -1.92896
LJ          -5.51425        -3.84307         -2.9074
LJ          -5.40356        -4.45165       -0.486208
LJ          -4.58356         6.02042        0.517501
LJ          -2.55928        -6.36036        -1.49119
LJ         -0.332717         -4.9618        -2.36299
LJ          -2.50787        -3.87461     -0.00290459
LJ          -0.43338         6.38744        0.372406
LJ           2.21906         5.85315        -2.18008
LJ           5.09454        -4.20304        -2.22529
LJ           2.59162        -5.51228         0.53368
LJ           4.70209        -6.36491       -0.429616
LJ           6.21827         -1.5367         -2.5478
LJ          -4.43343         1.00592        -1.77302
LJ           6.25081       0.0767275       -0.310542
LJ          -4.78506        -1.87847       -0.583267
LJ          -1.86084        -2.08011        -3.15998
LJ          0.435929        0.659517        -3.41487
LJ          -1.97641       -0.326696        -1.00845
LJ         0.0372805        -3.46842      -0.0545399
LJ           2.52247        -4.15295        -1.62804
LJ           3.80849        0.413033        -2.50958
LJ           1.71848       -0.697093       -0.443527
LJ           4.03425          -1.579       -0.245684
LJ           6.23472         2.65869        -1.92671
LJ          -4.46776         3.71365         -1.4304
LJ            6.4414         4.03844        0.663312
LJ          -4.66073         1.93522        0.854054
LJ          -1.70111         2.52903        -1.71099
LJ         -0.748378         4.80071        -1.73666
LJ          -1.91361         4.14475        0.598813
LJ           0.23991         2.07932       -0.111694
LJ           1.94939         2.98516        -2.30295
LJ           3.78639         4.06046        -1.36385
LJ           2.06684         4.25821        0.256628
LJ           3.66867         1.79847        0.120548
LJ           6.41174        -6.26703         1.93067
LJ          -4.64085         -4.5048         1.93341
LJ            6.4614        -4.87613         4.30973
LJ          -4.18107         6.43254         4.02101
LJ          -1.90026        -5.76308         2.48404
LJ          0.162445        -4.64256         2.46313
LJ          -1.78958        -3.13701         3.84238
LJ         -0.652183        -6.19041         4.73923
LJ           2.28323         5.96164         2.69291
LJ           3.93648        -4.37641         2.17786
LJ           2.70989        -4.25762         4.45097
LJ           3.93721        -6.46287         5.02441
LJ           6.33657        -2.51814         1.05844
LJ          -5.52082        -0.41431         2.05811
LJ          -6.37598        0.598127         4.08992
LJ          -4.85192        -2.44434         3.74525
LJ          -2.80752        -1.67255         1.72463
LJ         -0.325585         -1.6142           1.829
LJ          -1.23975         0.50475         3.60712
LJ          0.951179        -1.93676         4.22707
LJ           2.52517        -2.40138         1.65678
LJ           3.76725      -0.0812243          2.0327
LJ           2.51888       0.0389253         5.23212
LJ           4.82377        -2.25145         4.28214
LJ           6.09392         1.74083         1.75939
LJ          -4.93662         4.37903         2.44498
LJ           6.00522         4.11642          3.8524
LJ          -3.99908         1.87457         4.11788
LJ          -1.68253         1.27525         1.01692
LJ         -0.150319         4.25641         2.43739
LJ           -1.8055         4.02985         4.08571
LJ        -0.0651907         2.20528         4.83218
LJ           1.61994        0.860406         2.90607
LJ           3.82526         3.79594         2.03043
LJ           1.45106         4.53894          4.7194
LJ           3.68056         1.84758         4.13783
