108
#Comment!
LJ          -3.06704        0.857457        -1.00149
LJ          0.916394        -1.63692       0.0511099
LJ           1.38246       -0.958166         1.46026
LJ           2.33527        -1.19809        -2.64747
LJ         -0.189514        -2.19448         4.77021
LJ           3.95974         1.00573         4.48578
LJ           3.48167         2.75114         2.68425
LJ           4.92418       0.0576223         1.26808
LJ          -2.14528       -0.319704         5.08871
LJ          -1.76129        -5.62831         1.02632
LJ          -1.05214        -2.32104         3.06891
LJ         -0.331334        -5.16613         -1.9965
LJ          -2.08675         2.24659       -0.673912
LJ          -5.86642        -2.51655         3.62455
LJ          -3.08643          5.1852        -5.09099
LJ         0.0635533        -2.19056          3.1193
LJ           2.67533        -3.87674        -3.31276
LJ          -6.37244         4.07522        -6.31351
LJ         -0.728444        0.719099        0.264765
LJ          -1.18045        -4.90178       0.0932249
LJ          -2.29462        -2.24006        -5.45694
LJ          -3.63535         1.33974        -3.78842
LJ            -6.412       -0.283944        -3.53553
LJ           3.53664         1.92062         6.22481
LJ          -3.57541        -4.42083         5.76217
LJ           5.87433         2.01345         3.33933
LJ          -1.49342        -2.62157         2.00386
LJ          -3.26171        -1.99563        -5.54946
LJ          -3.19855        -6.43115      -0.0653173
LJ          -2.58154       -0.482808        -1.78447
LJ           3.07988         1.35823         4.99067
LJ          -3.99751         1.49527         5.24711
LJ            6.2587        -1.80922        -3.06091
LJ           5.83785         5.55943         1.04056
LJ           5.78083         4.97772         3.56413
LJ          -4.72274        0.440044        -6.30488
LJ           4.97619         2.44172         3.70194
LJ          -1.42321       -0.882529         4.32178
LJ          -5.03956        -6.07746        0.970075
LJ          -1.03596        -4.66301         2.28587
LJ           -1.2597        0.720627         2.97358
LJ          -4.94372          3.4849        0.351146
LJ          0.556642        -6.11971        0.236647
LJ          -3.11705         6.19619         1.55889
LJ          0.888116        -1.00063        -3.12058
LJ           1.59084        0.473501        -3.01673
LJ          -1.40354        -4.61069         5.13526
LJ         0.0315574       -0.656968          5.1661
LJ           5.26155          6.1248        -3.11564
LJ          -1.09556        -6.01172        -6.02395
LJ           3.87472         4.45431         5.85533
LJ          -4.96159        -4.15012        -5.80401
LJ          -2.32327        -6.09323        -6.36117
LJ           6.01598         5.10764       -0.275039
LJ          -3.20854        -3.82645         4.32579
LJ        -0.0664455       -0.675374         4.16171
LJ          -3.71969         4.97221         3.92743
LJ          0.299801         3.08849        -3.82382
LJ           1.60141        -2.89715         5.01566
LJ           2.10618         -5.4621         4.98112
LJ           3.12701         2.33141        0.471084
LJ         -0.803133        -4.39104        -5.68701
LJ          -5.63832         -2.2473         -4.1625
LJ           4.30273         3.66041         3.88287
LJ          -1.80053          1.5824        -1.87777
LJ           6.12587       -0.126551       -0.911222
LJ         -0.326027        -4.97595       -0.942356
LJ          -1.51586         4.17454         1.85561
LJ           4.90465       -0.890538          1.1666
LJ           2.74478        -3.14376        -5.61134
LJ          -4.93618        -4.71079         2.73231
LJ            -6.021       -0.856871        -2.66506
LJ           3.49668        -6.41889           3.017
LJ          -4.43943         -3.6319        -4.49112
LJ           -3.0473        0.605502         -5.9703
LJ           2.60952         3.49493         2.96032
LJ          -3.47588         4.18963          4.7134
LJ          -6.22071        -2.79164        -2.69076
LJ          -2.04805          2.8768         2.65996
LJ           4.56924        -3.19766        -1.62516
LJ          -0.29598         2.73699       -0.578952
LJ          -2.67096         5.60723         2.53239
LJ          -1.73646         4.35864        -2.71406
LJ          -4.06844       -0.388478         3.71961
LJ           5.14828         -1.0514        -1.99468
LJ          -4.53583         2.11525          3.0339
LJ           2.46112        -3.75597         4.89104
LJ          -3.26424        -5.40909         1.67208
LJ          -2.64333        -2.01675        -1.38544
LJ           1.57029        -2.20505        -4.74746
LJ           3.95193        0.798112        0.264803
LJ          -1.18436         -4.8772         6.07498
LJ         -0.613763        -1.86584          1.5346
LJ          -1.34827          5.2702        -4.31239
LJ          -2.95231        0.897545          2.4345
LJ          -4.61705         5.19911        -1.84297
LJ          -5.78218        -5.57661       -0.443058
LJ           1.18775         6.33453        -5.22446
LJ          -3.09608         1.18096         -2.8706
LJ          -5.64324         4.33169        -1.09307
LJ          0.196745         4.04898        -4.83317
LJ          0.825573        -5.18841        -6.14672
LJ         -0.184141        -4.11447         4.21814
LJ           5.83821         2.33048         2.25746
LJ          -3.27624         3.19331        -5.86573
LJ            2.4153         4.82539        -3.47264
LJ           5.25401         4.67722        -3.83852
LJ          -4.92241        0.411526        -4.11708
