108
#Comment!
LJ           2.04729          5.8725         6.31074
LJ          0.469448        -2.66634         6.20392
LJ          -3.71264        -2.58454        -4.29856
LJ          0.769654         -3.7952        -4.92788
LJ           5.84518        -3.26117        -5.84492
LJ            6.0573        -2.21765         4.66718
LJ           5.59999        -4.58986        -2.09292
LJ          -5.26481         5.26979        -1.94677
LJ          -3.91244         4.63127         4.83443
LJ           3.45577        -5.50523         5.91726
LJ           5.24088        -5.57654         6.40936
LJ          -3.50703         5.20199        -3.53109
LJ            1.3367        -1.11629        -5.15031
LJ          0.922152       -0.840749        -6.22075
LJ           1.56976         1.08945        -2.36731
LJ            1.9547        -3.74847        -1.77584
LJ           3.00432        0.687142         5.96587
LJ           5.37019        -3.26503         5.96845
LJ           1.41653        -3.50137        -2.86419
LJ           1.94447        -6.34368         4.22104
LJ           -1.3843        -3.24458         6.10715
LJ           1.85963         4.75317         3.08621
LJ          -1.55346       -0.855685        -4.73582
LJ          -3.68419          -1.601        -2.40773
LJ          0.263792         6.07991          5.8157
LJ           1.44704         2.52712        -5.95695
LJ          0.273679        -4.72405        -4.43712
LJ            1.6202          1.1614         6.36032
LJ           6.01971         1.34544         5.21608
LJ           5.67166         2.11666        -2.18003
LJ           6.43159         3.73944        -3.46304
LJ           6.26092           2.915        -1.73198
LJ          -3.15711         2.13709         4.67647
LJ         -0.648141         2.31129        -5.31965
LJ          -3.99707         5.97227         5.07003
LJ          -1.47702           0.019        -2.75835
LJ           2.40098          4.8555         -1.9042
LJ          -1.39508        -5.38307        -3.43501
LJ           2.21779        -4.14537       -0.319592
LJ          0.800541        -5.68546        0.452795
LJ           5.63853         -6.1374        -1.67107
LJ           4.89477        -5.38692        -4.70186
LJ          -3.59859         4.87539        0.115743
LJ           3.13213         5.59227         3.05137
LJ          -5.44189         5.93736         -5.6303
LJ           5.07269        -5.05572         4.40792
LJ           -5.0508         4.53865       -0.962361
LJ          -4.03079         6.17581        0.537676
LJ           1.58422        -2.19266        -3.21253
LJ           2.51699         2.43314        -6.37418
LJ          -1.73843         5.01112           1.314
LJ        0.00270999        -1.26152       -0.442878
LJ          -1.05544        -2.86159        0.137532
LJ           5.88647          1.4979       -0.221319
LJ            4.9777        -0.87289       -0.523261
LJ           4.55983          2.7945        -1.47401
LJ           1.69251        -3.86296         5.71696
LJ           -4.2433         0.54631        -2.67258
LJ           4.84282         3.89507        0.759723
LJ          -1.32937        -5.33416       -0.658724
LJ          -3.64861         4.26368          -1.678
LJ          -5.31284         1.55597         2.41653
LJ          -2.58544        -6.25337        -1.67688
LJ           1.11247         1.66034        -3.47976
LJ           4.46907         5.47915        -2.46589
LJ          -4.52776         5.16211         1.23239
LJ           5.62235         4.54531         3.61366
LJ           5.31515         1.39428        0.681673
LJ           5.23959          5.3536         5.82289
LJ           1.53425       -0.328831        -1.02829
LJ           5.64799         5.04215        -2.06834
LJ         -0.320955          4.0594        -2.06213
LJ           1.03649        -6.12279         3.23052
LJ           4.36717        -3.63543        -1.21895
LJ         -0.975347         -5.7037         3.74143
LJ           2.80935          3.7581         4.33041
LJ           2.84999        -5.35228         3.25929
LJ            4.8317        -4.74962         2.90661
LJ          -1.20689         -3.9461         1.77134
LJ           4.54692        -2.90954         3.48541
LJ          -2.57511         5.83801         3.36103
LJ          -3.73665        -5.59815         2.09614
LJ          -2.14504        -4.09609         4.61996
LJ          -3.89837        -6.31224        -5.74744
LJ          -2.56279         5.86793         -3.1964
LJ          -0.69764        0.362317         1.56587
LJ           1.77822         4.03395         5.49805
LJ         -0.247469         -1.5323         4.06943
LJ          -3.18737         2.34784         3.01312
LJ           5.51891         -0.7594         5.09685
LJ           5.91326         2.28409         1.97978
LJ          -6.18013        -4.22243         3.87562
LJ          -2.29474        -2.37542         1.65444
LJ          -4.02064          1.1417         2.51093
LJ          -3.70833         1.03561         3.98971
LJ            3.9188         2.22097         5.74771
LJ          -3.04806         2.61547         5.97721
LJ           1.03796         5.76318         1.10731
LJ          -2.83309          6.2179         5.26322
LJ           1.56326        -1.94027         4.21105
LJ           1.13103        -1.43372         5.76164
LJ          -2.67185         2.01278       0.0348718
LJ           5.54601         2.44813         5.56444
LJ           5.49753        0.397067         4.72397
LJ          -3.22414       -0.073681           2.432
LJ            1.2925         3.15832         2.75308
LJ          -3.15087         4.66641         5.75555
LJ          -3.15148        0.146996         3.77095
