108
#Comment!
LJ           2.65966         1.45467        -5.20369
LJ          -5.13797        -5.08483        -3.49183
LJ           2.13639        -0.62533        -6.16347
LJ          -2.98427         5.18194         5.47248
LJ          -4.57376        -5.00568        0.405264
LJ          -3.14337         2.47977         6.44242
LJ        -0.0455793        0.810807        -2.94669
LJ           5.48247         4.84281        -3.89234
LJ          -1.39136        -1.14718        -3.89401
LJ           6.08998        -6.12802        -1.18912
LJ         -0.928527         4.85256        -1.87894
LJ           3.26689        -1.57468         3.07111
LJ           2.96644        -5.87957        -3.07448
LJ          -3.76654       -0.726462        -4.64552
LJ          0.169938        -4.61771       0.0355824
LJ          -6.32637         1.09807        -5.31273
LJ          -2.20198         4.95505        -2.79378
LJ          -2.15893        -3.96444      -0.0432653
LJ          -4.20114        -2.94709         3.04522
LJ         -0.726628        -2.98972         1.82398
LJ           1.62334       -0.235076         5.90217
LJ          -3.92772        -3.48762         4.52779
LJ          0.155153       -0.655699        -2.07029
LJ          0.470898        0.260215         3.42712
LJ          -5.55123       -0.546701         -1.0833
LJ           3.19673        -1.72716        -2.19955
LJ          0.299851         1.97853        -6.00434
LJ          -3.78961         3.34231        -1.38267
LJ           -0.5079        -2.26653         4.88068
LJ            3.3971        -2.66083        -6.09457
LJ          -5.58905          2.4178        -4.02091
LJ          -3.18382         2.87174         2.45621
LJ          -1.04209        -4.40087          2.5255
LJ           2.78253         1.69072        -3.75592
LJ           1.00249        -2.45529        -3.61752
LJ           4.92888        0.416227        0.784586
LJ          -4.82215          1.4673        -4.33961
LJ          -5.20735        -1.22969        -3.84035
LJ          -1.78745         5.33897         5.82492
LJ          -3.81115         1.54436         3.09458
LJ          -2.54813        -1.23481         4.67441
LJ           2.96214        -1.29077        0.820571
LJ           5.15952        -3.07724        -2.61036
LJ           6.26187        -6.28736        -6.45448
LJ         -0.612847        -1.86384       -0.557109
LJ           3.37046         5.70637         4.39453
LJ          -3.90745        -5.93297        -1.45607
LJ           1.68308        -3.64462        0.351926
LJ          -3.66227        -5.34482         4.10499
LJ            1.5381            5.23         5.61319
LJ          0.538711         3.42193        -3.27731
LJ          -2.85975        -1.17932        -3.94185
LJ           1.97774        -2.23017        -4.73101
LJ           3.32235        -4.86834        -3.85053
LJ           1.23059        0.947449        -4.52692
LJ           5.88619         -3.2777        -1.40383
LJ          -6.16223        -1.66625         6.08552
LJ           2.23833        -5.42263        -4.50903
LJ          -0.20829        -4.99711         6.14678
LJ          -4.40655        0.408116         3.41639
LJ          -3.19633         2.92768        -2.59276
LJ          -5.15207         5.16772        -4.46555
LJ          -3.28652        -2.35012        -1.02169
LJ          -6.28207         5.35392        -5.20951
LJ          -2.74107         4.90022       -0.139153
LJ          -3.53317        -5.56599        -2.73566
LJ           2.15687       -0.248426         3.74229
LJ          -2.67802       -0.250625         -4.3192
LJ          -3.29128        -1.00415          2.5261
LJ          -1.90706        0.892535        -1.05248
LJ          -5.99928         3.49899        -4.28698
LJ           2.96842        -1.56796       -0.840348
LJ           -2.3542          2.8265        -1.80722
LJ           3.67877         -2.7112        0.659049
LJ          -3.34024        0.426523         6.10473
LJ          -6.27169         4.91094        -3.91811
LJ          -4.81793        -2.23227         1.02156
LJ           4.17659        -3.19557         5.49815
LJ          -4.31204         1.31089        -6.24163
LJ           2.76939         -4.4106         5.09078
LJ          -1.98778        -6.42127        -3.37206
LJ           4.83795         1.04623         3.86718
LJ           3.79691         -6.3939        -1.57301
LJ          0.751829         2.82569        -3.93104
LJ          -3.09731        -5.63242         3.12884
LJ          0.604804        -2.17226         2.67918
LJ           1.38817         -5.9451        0.628327
LJ          -6.30457        -4.62159        -1.14138
LJ           2.45986         1.46005        0.205097
LJ           4.57737         3.98449        -1.71119
LJ           1.06858      -0.0107168          4.2512
LJ          -3.27522        -1.33041        -2.60674
LJ          -2.15077         4.26871        -4.98214
LJ          -6.18252         -1.8729        -2.60039
LJ           -1.9782        -5.56791        -6.02589
LJ           5.97475         4.73974        -6.20447
LJ           3.65761        -2.32772          5.8499
LJ           4.63117        0.116496         3.22573
LJ            2.6974        -5.76405        -6.17784
LJ           1.53431        -2.99871         2.54771
LJ          0.043075         5.18612        0.327764
LJ          -1.33983       -0.157108         3.97818
LJ           5.48131        -2.14983        -1.96086
LJ          -2.68914        -5.20025       -0.138137
LJ          -0.76434        -2.81279        -4.06376
LJ           2.55077        -4.72648         6.37719
LJ           5.58448       -0.429597          3.3317
LJ           -5.7885         -6.3014       -0.698493
