108
#Comment!
LJ           2.44877         1.37337        -5.32214
LJ          -5.34794         -5.2425        -3.73642
LJ           1.76445       -0.627119        -6.21498
LJ          -3.35791         5.33881         5.44125
LJ          -4.30507        -5.18247        0.139813
LJ          -2.99314         1.98031        -6.23381
LJ          -0.28394         0.45806         -3.1435
LJ            5.7426         4.88356        -3.68705
LJ          -1.47314       -0.662817        -4.72083
LJ           6.02409        -6.08544         -1.1783
LJ         -0.954113         5.52326        -1.97626
LJ           3.28295        -1.68265         3.09347
LJ           2.85614        -5.97142        -3.27352
LJ          -3.29726       -0.871097        -4.98526
LJ          0.587231        -4.75329        0.403385
LJ          -6.17158         1.23756        -5.62421
LJ          -1.95304         5.06141         -3.0569
LJ          -2.25471        -3.96916       0.0442622
LJ          -4.30138        -3.32662         3.19891
LJ          -1.12993        -2.90224         1.74268
LJ           1.53068        0.033511         5.74946
LJ          -4.05359        -3.78006         4.71514
LJ          0.358223       -0.675421        -2.07065
LJ         0.0248147        0.607669         3.20461
LJ          -5.59841       -0.858551       -0.992479
LJ           3.08585        -2.15676          -2.168
LJ          0.524947         1.92094         -5.5891
LJ          -3.66438         3.21275        -1.34409
LJ         -0.302212        -2.34161         4.65232
LJ           3.61172        -2.33408        -6.06546
LJ          -5.32493         2.56272         -3.8347
LJ          -2.93696         2.97944         2.46869
LJ         -0.953928        -4.72039         2.73791
LJ           2.29115         1.77523        -3.61971
LJ           1.28392        -1.94877        -3.75803
LJ           4.31657      -0.0260647         1.02445
LJ          -4.94212         1.63533        -4.60613
LJ          -4.92889        -1.18789        -3.72489
LJ          -1.67158         4.96404         6.23141
LJ          -3.89062         1.46546         2.79146
LJ          -2.14529        -1.53785         4.39593
LJ           2.54621         -1.0693         1.35522
LJ           5.15479        -2.72402        -2.72348
LJ           6.24298        -6.39501         6.34101
LJ         -0.851934        -1.79085       -0.756423
LJ           3.73431         6.27062         4.25223
LJ          -4.08907        -5.95212         -1.1926
LJ           2.05779         -3.2452        0.213233
LJ          -4.10422        -5.58653         4.25515
LJ             1.402         5.14886         5.69942
LJ          0.593304         4.01361        -3.02535
LJ          -2.33116        -1.20115        -4.01164
LJ           2.01516        -2.27599        -4.59769
LJ           3.57163        -4.24889        -3.69561
LJ          0.819125         1.17775        -4.73013
LJ           6.01197        -3.06863        -1.29144
LJ           6.42405        -1.66876         6.22882
LJ           2.39466        -5.47361        -4.13621
LJ         0.0757967        -4.69771         6.32339
LJ          -4.40887         0.96399         3.56386
LJ          -3.21444         2.79137        -3.06688
LJ          -5.11626         5.21678        -4.45906
LJ          -3.26292        -3.11859       -0.802743
LJ           6.36396         5.45586        -4.61746
LJ          -2.43271         4.89948       -0.385102
LJ          -3.59015        -5.53472        -2.69472
LJ            2.2987       -0.385181         4.32369
LJ          -2.96546        0.138242        -4.25812
LJ          -3.35058        -1.05089         2.84337
LJ          -2.30536         1.09099        -1.28381
LJ          -5.86523         3.37144        -4.35248
LJ           3.03668       -0.942757       -0.738784
LJ          -2.75378         3.10749        -1.66649
LJ           3.49782        -2.90296         1.14236
LJ          -2.87607       -0.121799         5.44447
LJ          -6.13584         4.79899        -3.54275
LJ          -4.34513        -1.90312         1.09505
LJ            4.0278        -3.31703         4.97697
LJ          -4.35361         1.23869        -5.80834
LJ           2.78422        -4.22087         4.96081
LJ          -2.10331         5.93209        -3.47678
LJ           4.35311        0.801659         3.82454
LJ            3.4402        -6.40962        -1.85278
LJ           1.38084         2.58877        -3.86878
LJ          -3.13608         -5.5946         2.67776
LJ          0.633045        -1.73704         2.79591
LJ           1.40416        -6.26352         0.27119
LJ          -6.05314        -4.62034       -0.999733
LJ           2.43747         1.34201         0.26089
LJ           4.22859         3.75287        -1.44676
LJ            1.3197       0.0672285         4.67239
LJ          -3.04551        -1.56334        -2.19313
LJ          -1.89726         4.49994        -5.19973
LJ          -5.94493         -1.7653        -2.94528
LJ          -2.48102        -5.88571        -5.99476
LJ           5.69881         4.63738         -6.0712
LJ           3.57912        -2.17866         5.68902
LJ           4.33216       -0.143415          3.1186
LJ           2.81905        -5.80231        -6.43395
LJ           1.99071        -3.13409         2.38873
LJ          0.428261         5.08665       0.0805334
LJ          -1.23119       0.0735221         4.10059
LJ           5.60695        -1.77148        -1.65884
LJ          -2.56665        -5.54277       -0.318474
LJ         -0.971977        -3.19192        -4.55551
LJ           2.19429        -4.78683         6.31458
LJ           5.44843       -0.659354         3.52391
LJ          -5.91526         -6.2491       -0.699804
