108
#Comment!
LJ           1.66212         3.06571        -3.66633
LJ           5.68443         5.78675        -5.74238
LJ          -1.35573       -0.181916         5.87694
LJ           6.41995         6.31892         5.08566
LJ          -4.05159          2.0519         1.34414
LJ          -1.92589        -2.98409        -4.71097
LJ          -2.71976        -1.52782        -3.06958
LJ           6.27266         3.51547        0.142789
LJ          -3.09685           3.011         2.13225
LJ           5.89424        -5.12914       -0.441079
LJ          -1.12892        -1.97858         -2.9116
LJ            3.2268        -3.88822          2.6272
LJ            4.3493         5.93896        -4.67728
LJ          0.606701        -2.80523         4.84506
LJ           4.35396         -5.8896         3.79742
LJ           -4.5193         3.51379         6.22915
LJ           1.11789         1.76966         -2.5486
LJ          -2.42101        -4.19778        0.514114
LJ          -5.46537         5.88113         4.88409
LJ          -4.28148        -2.55567         1.27299
LJ          0.163014       -0.159633          6.3688
LJ          -4.92399        -5.95056        -6.41496
LJ         -0.330874        -2.09056        -2.14638
LJ          -4.14232         4.30744         1.36241
LJ          -5.02315        -1.80078       0.0579469
LJ           2.80772        -5.32592        -2.19253
LJ           1.83898         4.95189        -6.34397
LJ           6.08545         2.02047         0.60404
LJ           2.02013        -4.00031         3.50084
LJ           3.48517         1.10615         6.13219
LJ          -3.11289         3.06839         -4.1687
LJ          -1.12869         3.12725         2.55704
LJ         -0.192259         5.45176         4.59569
LJ           4.08004        -1.74842       -0.644596
LJ           3.79289         2.27673        -5.15493
LJ          -1.53205        -3.95245          2.9888
LJ          -5.91137         3.34189         5.70492
LJ          -3.26821       -0.648298        -3.52276
LJ         -0.514516         1.07455         6.02803
LJ          -4.22489         1.37005      -0.0402702
LJ           1.39431        -5.57795         1.13345
LJ          0.828558         1.93338         4.01971
LJ          -6.26458         1.57225        -2.85831
LJ           5.09198         4.96025        -5.99219
LJ          -2.10952        -1.32388        -1.74458
LJ           -6.0744        -1.56632         2.87765
LJ           6.31164         6.30196       -0.629784
LJ           5.56069        0.350619       -0.798471
LJ           6.15962         6.04264         3.89291
LJ          0.488043         4.32121        -6.24159
LJ           1.80918         -3.8129       -0.498887
LJ            2.2738        -2.37799         6.14772
LJ           2.32211        -2.32649        -3.32471
LJ           4.36583        0.151208        -2.21025
LJ          -2.00855        -0.34582        -2.38825
LJ            4.1212       -0.798303        -1.60357
LJ           4.52774        -2.40623        -5.35031
LJ           2.35625        -3.65422        -3.57176
LJ           3.05262        -2.52081        -5.34342
LJ          -4.59556         5.38794         5.08248
LJ          -3.81724         4.04867         5.67228
LJ          -6.06538         5.25382        -3.16544
LJ         -0.679996        -4.23852       -0.268968
LJ          -6.07169         -5.0323        -1.85761
LJ         -0.261125          4.9168        -3.20757
LJ          -4.42251         -5.4924        -1.93801
LJ            3.6574         -1.5759        -3.54573
LJ          -3.65644         2.38535         -3.0106
LJ          -3.60825        -1.49183         5.75305
LJ           -6.3645         3.28608         -3.2766
LJ          -3.41709         1.91594        -4.03522
LJ            4.2954         3.15957        0.861026
LJ          -1.49087         4.84057        -2.97688
LJ          -5.70369        -3.17196         1.90504
LJ          0.294187        -3.52861       -0.310132
LJ          -4.42671         4.52725        -2.21824
LJ        -0.0707792        0.896564         1.84211
LJ           1.81923        -3.48241         1.20364
LJ           -5.3306        0.472595         -2.3162
LJ           2.43146         -3.0275         4.59211
LJ          -3.83311         5.37506         6.29417
LJ           2.20454        -1.80119         5.01069
LJ          0.689032        -5.64465        -1.52351
LJ           2.85876         4.10884         6.08179
LJ          -3.44566        -4.97228        -1.42208
LJ          -2.14919        0.849186          5.2532
LJ        -0.0422198         3.84218        -1.75767
LJ          -4.82443          6.4301       -0.308757
LJ           2.80755        0.247049        0.240369
LJ         -0.077877         3.16382        0.617878
LJ           2.79366        0.141422         2.74034
LJ          -1.18202        -4.16804         1.58351
LJ         -0.478218        -5.75102        -2.51279
LJ          -3.62686       -0.666593        -5.82917
LJ           5.88512         4.17147        -5.90501
LJ           2.99424         4.16206        -4.80364
LJ           2.87556       -0.838187         5.38796
LJ           3.02409        -1.00996         2.66908
LJ           2.96099        -5.15226         4.06891
LJ          0.986805         -5.1073          4.6983
LJ           3.82547         2.74197        -2.00707
LJ        -0.0746467         2.84501         4.54247
LJ          -4.99767       -0.876372        0.692837
LJ          -2.29455         5.36761        -1.13126
LJ          -2.77069         6.39792         3.98369
LJ         -0.414614        -5.46744         5.79985
LJ           3.71585        -2.36215         3.59523
LJ          -5.64859        -5.28026       -0.761522
