108
#Comment!
LJ           2.98078        -5.12968         1.54777
LJ          0.143966         3.37908        -5.31741
LJ           -4.3909         4.15851        -6.35557
LJ          -2.83574         2.21221         5.02907
LJ          -2.79807         -5.1028        -4.83959
LJ         -0.686459         2.85094        -4.86073
LJ             3.091        -1.49586        -2.76815
LJ          -5.07978         4.44373        0.915003
LJ          -5.90921         4.90403       -0.905003
LJ           5.23043      -0.0601647          4.2709
LJ          0.163917         1.37538        -4.93567
LJ           5.05043         6.03056        0.740542
LJ          -2.07407        -5.76396        -4.31707
LJ          0.299808        -5.77264        -1.96395
LJ           2.29076         -1.0329        -6.36614
LJ           5.99861        -5.04042          5.4403
LJ           2.31783         -2.2035         4.92079
LJ         -0.794634        -3.43238        0.134932
LJ           4.42437      0.00348518         3.20908
LJ         -0.981441        -1.27532         2.28594
LJ          -1.69007         4.57453         6.36279
LJ          -4.47643        -6.24251        -3.21441
LJ          -4.74177         6.05137         1.28553
LJ           4.36987        -2.97645         2.07543
LJ           5.91537        0.468866        -2.70514
LJ           5.05571         6.31961        -1.75135
LJ           3.21267        -4.67606         3.37105
LJ           1.59341        -3.49101           5.353
LJ           5.15748        -5.32913         4.64132
LJ           2.68141           4.125         5.83972
LJ          0.093993        0.794537        -2.53796
LJ           0.76414         2.17093         2.17509
LJ          -0.65917         4.72754        -5.22637
LJ          -3.32808        -4.59135         3.15653
LJ          0.027719         3.90421        -1.25954
LJ           2.08487         5.83704        -2.40354
LJ          -3.63545          4.8243         2.21038
LJ          -3.06646       -0.648825        -5.77684
LJ          -4.55652       -0.867946         5.18946
LJ           -4.4501        0.318375        -3.86935
LJ          -6.03967        0.377059        -4.25007
LJ         -0.795452         2.74806         3.15893
LJ         -0.608825        -4.59161        -2.39764
LJ          -2.55572        -5.62435        -5.95876
LJ         -0.318192        -5.09687         4.97326
LJ          -3.71788         5.27441        0.858863
LJ           1.91535        -5.29421        -4.89411
LJ          -2.60816         5.16189        -2.14177
LJ           4.33876         5.90238         5.85925
LJ           1.60798         4.84368        -1.87282
LJ           3.25331        -1.90206         1.79237
LJ          -4.66842        -5.61116         2.12488
LJ           4.14121       0.0531602          1.1949
LJ           4.70056         -6.2858       -0.117869
LJ          -5.61721       0.0212985        -1.28313
LJ           3.11414        -0.12453        -3.97906
LJ           5.39836        -6.17359        -4.72058
LJ           2.48993        -2.34154        -2.60943
LJ            3.6597         2.59066        -4.03913
LJ          -5.04874         4.54783         5.65463
LJ          -5.51732         3.74665        -1.26803
LJ           4.31749         5.15454       0.0692256
LJ          -2.19132         6.17443        -1.90701
LJ          -3.03746        -4.35922        -1.74969
LJ         -0.443841         4.34256         5.11155
LJ           1.90138        -5.06813        -2.39227
LJ           4.79954        -4.16875         3.91408
LJ          -1.90637         3.25557         -6.4522
LJ          -2.96143         -1.3788       -0.951411
LJ           2.03134         5.95743        -5.34011
LJ          0.438165         1.70542         -3.0634
LJ          -5.55722         -5.3039         2.80418
LJ           2.03323         3.65939         4.57821
LJ          -5.44299        -6.39896         6.04636
LJ          -3.25521        -1.96889        -4.22801
LJ          -2.82167         4.76131        -3.67104
LJ           -5.8489         5.47525         3.28446
LJ         -0.574803        -1.66977        -2.73833
LJ           4.13712         1.26487         3.13854
LJ           -4.4843        -2.65369        -3.73937
LJ          -4.92016        -5.23188         -2.4097
LJ          0.189856         -3.7922         -5.2834
LJ          -2.52097        -5.62762        0.554088
LJ           1.70255         2.11638       -0.123551
LJ         -0.298531        -1.78242         -5.9287
LJ          -5.05664         2.62706        -6.39439
LJ          -2.10119        -2.83908        -1.59658
LJ          -4.05557        -5.22687         6.36157
LJ           2.67042         1.46232        0.643816
LJ           5.87776        0.633614         3.39102
LJ           4.31177        0.480899        -2.18101
LJ          -1.97589         4.86902        -2.94923
LJ         -0.686511        -3.01805        -5.66985
LJ           2.25708         1.60189           4.923
LJ           5.67971        0.449509         1.72499
LJ          -3.24153        -6.28306        -4.80097
LJ           2.72096         3.05095         -4.6406
LJ          0.522513         1.89527        -1.73327
LJ          -6.44716         -5.7375        -2.06431
LJ         -0.687496         3.53411        -3.30136
LJ          -5.64091         1.74283         6.41925
LJ           2.96212         5.23834         5.43392
LJ         -0.969886        -2.90148         1.06165
LJ           -1.2506        -5.99509        0.443326
LJ            4.9222         5.64806        -5.42783
LJ          -3.10437         6.42712         4.81798
LJ           5.14907         5.22835         2.22141
LJ           6.01415         5.01283        0.149609
