108
#Comment!
LJ            -5.866       -0.781247       -0.281389
LJ          0.330338        -3.48342         0.98692
LJ           5.34185        -5.18534         3.01031
LJ           4.40869          5.7098      -0.0854571
LJ          -3.16816        -4.70305         3.38457
LJ          0.229791         3.95385         5.36341
LJ           5.16294         3.14036        -6.25438
LJ          -5.69182         2.77761         3.01492
LJ          -2.88838        -2.55989        -2.40803
LJ          -5.83835         5.70223        -5.88904
LJ         -0.213875        -1.40793        -6.30198
LJ          0.467646         -3.5606         6.06854
LJ          -5.84883        -4.13823        -1.69691
LJ            -4.053        -2.43565         5.17769
LJ          -4.47344        -6.16415        -4.03347
LJ          -0.45052        -6.39994         5.46576
LJ          -6.21645        -3.73625        -4.02278
LJ           4.14052         3.74853         5.11902
LJ           3.82102      -0.0581192       -0.584519
LJ          -1.39549         6.00951       -0.263422
LJ           5.88525        -5.99467         4.21767
LJ          -4.45975          3.6155       -0.143409
LJ          -3.98407       -0.973788         -1.7141
LJ           4.80562         1.99726        -5.10444
LJ           2.18408         2.55336        -6.36826
LJ          -4.29761        0.506645         4.87813
LJ           1.82922        -1.23403        -2.94645
LJ          -4.11858          2.0084          4.4967
LJ            1.3335        -3.68266         1.74864
LJ          -1.80692        -2.92104        -2.01161
LJ          0.232455         3.21913          6.2462
LJ          -5.97437       -0.914196        -3.88049
LJ           4.22884        -4.09533        -2.51644
LJ           5.34055        -2.51721         1.27199
LJ            5.5529        -4.92527         5.26359
LJ          -6.24635        -1.61725          3.1171
LJ           2.12692       -0.486234         5.60043
LJ          -2.23097         -3.7532         4.27303
LJ          -4.85181         3.77844         1.21204
LJ         -0.496164         1.64375         3.35742
LJ            -2.224        -5.80622        -1.39832
LJ          0.732152         1.11214       -0.361797
LJ          -1.06283        -2.31045        -3.43589
LJ          -6.41441         2.88279         1.59524
LJ          -1.64906        -1.97774         3.29705
LJ          -1.56598          2.0372        -2.27079
LJ           5.87879         6.24914        -5.57966
LJ          -4.55292       -0.524642        -3.88701
LJ           3.49638        -6.08271         -1.6518
LJ           2.84149         6.38289         3.21952
LJ          0.313809         2.27793        -1.73276
LJ           6.26048        -4.78228         3.75136
LJ          -1.88707         3.03343         1.95773
LJ            5.5776        0.728604         3.16458
LJ          -4.08841        -1.56309         4.07711
LJ           2.00216         4.86538         -6.1622
LJ           5.66201         5.23543         4.38254
LJ           0.31259         1.28794         -1.5483
LJ          -2.77536        -3.60892        -4.08178
LJ            2.8769        -5.57177         4.67238
LJ           0.33401         3.02109         1.65829
LJ           1.53109         3.99115        -3.01805
LJ          -4.31273         1.91247        -1.20929
LJ           1.64458         3.62988          4.0863
LJ         -0.834055         1.47498        -1.02829
LJ          -1.90865         1.61241        -5.16083
LJ          -4.48988          1.5289         6.27211
LJ           1.55265        -5.96254       -0.447297
LJ          -1.54398        -4.27811        -5.14378
LJ          -4.48943         -1.6152        -5.06276
LJ           4.22117        -2.51075         2.42603
LJ          -5.29105       -0.744971        -1.31159
LJ          -1.14444        -4.85661        -1.42696
LJ          -4.09238        -4.91944         4.48805
LJ          -3.72214        -4.94325         6.20154
LJ         -0.770433       -0.164948          4.1676
LJ          -4.54228         5.87739        -4.69643
LJ           4.63788        -4.36286        -3.81962
LJ          -3.07236        -5.17477        -1.12965
LJ            -0.361         -5.1003        -5.68542
LJ          -1.64534         1.29348         5.21673
LJ          -5.32471         4.24543         5.93612
LJ           -5.6326        -2.35237       -0.946417
LJ          -6.07204         3.62499         3.43977
LJ         -0.219158        -4.53531         -1.1836
LJ          -5.02687         2.34283         4.95659
LJ           3.48823         -4.4844        -2.09641
LJ          -3.77968        -4.01165         2.48826
LJ           5.12535         6.44973        -2.65396
LJ           4.97957        -1.97414        -6.02281
LJ           0.93447        -2.31992        0.961494
LJ           1.09096        -4.61806        -2.94543
LJ            3.3923          6.0775         5.47281
LJ          -1.62369        -6.35268          3.9143
LJ          -5.15281          -1.218         1.09454
LJ          -4.37719         5.57152        -1.05775
LJ          -2.23064        -2.75752         -1.0251
LJ           2.75842        -5.20875        -2.37641
LJ          -1.51174         2.99923        -4.84732
LJ           -5.8964         4.39233        0.616725
LJ          -3.91595        -3.72663         4.82936
LJ           1.07102         4.41995          6.1713
LJ         -0.575689        -1.53538         3.79816
LJ           -6.1686       -0.924601         5.56956
LJ          -3.74732        -2.01101       -0.097795
LJ           1.58388         5.80016        -3.08117
LJ          -4.15175        -2.10751          1.3321
LJ          -3.79039        -3.70088        -3.61851
