108
#Comment!
LJ           3.43008          3.6644        -4.24177
LJ          -4.55307        -1.95674        -6.31466
LJ           4.74186         1.80347        -1.91509
LJ          -4.85255       -0.732874         5.80282
LJ         -0.484596        -5.52842         5.40995
LJ           3.72519         4.81371          3.5509
LJ          -4.00104        -6.14584       -0.171994
LJ           4.10486         3.81303         3.01225
LJ            1.3559         3.94178         3.81274
LJ          0.946478        -2.43149        -1.12924
LJ          -5.37221        -5.92722        -3.10152
LJ          -5.65667         4.45153        -3.33642
LJ          -5.52375        -0.11687        -6.20339
LJ           2.47395         2.76128         5.63188
LJ          -5.82089           2.649        -2.98373
LJ          -1.02896        -6.23207         3.76083
LJ          0.806439         6.36235          4.0237
LJ           4.88774         5.23968         4.44981
LJ           1.46176         6.40389          1.7073
LJ           2.94649        -2.20472        -5.48985
LJ           2.22425        -6.06442         3.92792
LJ          -1.56511          6.2192        -3.62705
LJ           2.99906        -4.64223      -0.0729295
LJ           5.10192        0.502414       -0.778785
LJ           3.87528         6.01256         2.22354
LJ          -4.59619       -0.445333        -6.13422
LJ         -0.317309        -2.70769        -2.56335
LJ         -0.589754         2.26797         4.29757
LJ          -4.20952        -2.09778         2.35517
LJ            1.8133        0.596962         2.06391
LJ           1.45678         3.29507        -1.72475
LJ           1.03499          1.3496         2.16942
LJ           1.52952         3.48987          1.7455
LJ           5.06574         4.33905        -3.00393
LJ        -0.0898955         -5.1755       -0.740566
LJ           -1.8639        -3.74282        -0.50081
LJ           6.34115         1.57994        0.319642
LJ          -5.55411         4.29872        -1.47389
LJ           -5.3349        -5.35244       -0.831778
LJ         -0.605585        -4.64618        -2.83228
LJ          -2.49715         -5.4299        -3.65899
LJ           1.91636         3.70796        -5.93721
LJ          -5.36645         3.36972         1.95075
LJ           3.84501         4.27254         5.75209
LJ          -4.60169         4.68704          2.8123
LJ           5.98307        -4.26829         2.16399
LJ           5.62936        -0.94928        -1.80582
LJ          -5.60902        -6.07704        -1.70397
LJ          -3.56047        -5.74925        -4.25125
LJ          -1.67858         1.42767       -0.245752
LJ         -0.201464        -1.09129         2.50323
LJ           6.10913        -2.00882        -1.10375
LJ          0.758309        -5.07813          3.2899
LJ           2.33855         1.33467         1.75384
LJ          -3.79792        -1.19507       -0.477851
LJ          -1.25591         5.20912        -2.08279
LJ          -1.97436        -2.15471       -0.205306
LJ           3.32955        0.767978        -3.20438
LJ          -6.04297         5.46224       -0.198645
LJ           6.30136         5.54963         6.40747
LJ           5.90766         -6.1047         -2.9543
LJ          0.411157         0.79724         4.89469
LJ          -2.34033       -0.743041         4.75142
LJ          -4.11288        -4.09119        -1.85633
LJ          0.636238        -1.50184        -4.07201
LJ          -5.51128        -1.98611        -5.91791
LJ          -3.96918        -5.03602        -1.79276
LJ           2.40577         1.51319         3.16806
LJ           5.03119        -6.07168         1.65563
LJ           4.65738        -4.74858         2.10337
LJ           6.21671        -4.86002        -3.84389
LJ          -1.13419        -5.39263        -4.74334
LJ           2.83851         -4.0827        -1.73327
LJ           5.28115        -2.60529         5.65021
LJ          -6.21099        -6.36361        0.575423
LJ           2.91863        -4.71997         6.21666
LJ         0.0794734         -6.4413         1.76552
LJ           3.27512        -3.40139         -4.9299
LJ          -1.65835        -3.07099         2.64292
LJ          -2.54268         2.18389         1.38276
LJ          0.303371         5.92938         5.38252
LJ           6.40973         3.64264        -3.40279
LJ        -0.0135597         4.28168        -5.74774
LJ           3.42001         4.48563        -2.97192
LJ           2.58139         3.02808        -4.83171
LJ          -5.70265         2.45252       0.0360074
LJ          -5.28538        -4.40233         5.17398
LJ          -5.44294         2.20689         6.08498
LJ         -0.209707         5.08047         5.82959
LJ           4.31156          4.1444         4.38036
LJ          -2.02152         4.84341       -0.678523
LJ          -6.41712        -5.52326         2.78046
LJ           3.66694        -4.53636         1.06873
LJ          -4.15393        -3.65278         2.70238
LJ          -1.98695         2.15488          4.3775
LJ          -5.25119        -5.19375         -4.5335
LJ          -5.39826         6.18831         3.20013
LJ          -1.07343        -4.48514        -4.10094
LJ          -4.99443        -2.31086         5.78063
LJ          0.774197        -0.54006         5.27731
LJ           1.89523         6.14161        -3.82758
LJ          0.675973        -2.20993          1.4103
LJ           -3.8676        0.731864        -4.17211
LJ           3.08766         2.31227         3.38955
LJ          0.386144        0.151647         1.46408
LJ           1.47678     -0.00766157         2.97927
LJ           1.22386         3.31114        -6.45665
LJ          -3.42729        -2.84279       -0.554746
