108
#Comment!
LJ           -4.7306        0.992864        -2.02951
LJ          0.586557         2.75699       -0.386619
LJ          -2.72849          -6.183         2.45507
LJ          0.556933        -1.83364        -6.17248
LJ            1.0907       0.0244838           4.651
LJ          -5.51626       -0.549183         3.50867
LJ            2.6014         4.27936        0.647529
LJ           4.12632         4.47467         2.30993
LJ            1.2842       0.0701496        -4.01368
LJ          -4.81916        -4.82033        -4.43834
LJ          -6.33938         -5.2548        -2.27704
LJ           1.85714         3.95429         2.68431
LJ           1.38421        -4.33291       -0.727345
LJ           4.79418         -2.3164          1.1601
LJ           -2.3789         6.08698        -1.45586
LJ           4.08154         2.55743        0.574517
LJ         -0.518871        -3.26412        -1.98009
LJ          -6.18858        -5.64612        -4.52526
LJ          -4.67247         4.76549        -1.58801
LJ          -1.15083       -0.799181        0.241051
LJ          -4.26537        -2.18042         1.98479
LJ           2.87152        -1.24336        -2.46994
LJ           -4.9307        0.593951        -3.35748
LJ           4.24018         1.89442        -6.13097
LJ            5.2412         2.44384         3.98453
LJ           5.68597         3.82734        0.420067
LJ           4.79122        0.552388         2.95707
LJ          -5.47032        -4.30754        -2.18687
LJ           4.07068         4.18105         -2.1404
LJ          -6.04078         4.49306        -4.08689
LJ          -6.24224        -1.49684         2.03078
LJ           2.09668         1.11575         3.23722
LJ          -4.57714        -3.63325        -2.22663
LJ            5.4954         1.81367        0.517723
LJ          -6.30449         2.69364        0.508298
LJ          -5.10879         2.24847         5.99116
LJ          -6.41956        -4.67927         4.96971
LJ          -4.50045        -2.75934        -3.58119
LJ          -4.31239        -3.65455        0.984578
LJ          -1.82789         4.77069         3.18352
LJ          -1.32628         5.03708         -2.1101
LJ         -0.868103        -5.88263       -0.148134
LJ           2.94659        -2.55235       -0.567508
LJ          -5.56464        -5.81647        -1.94596
LJ           2.25861       -0.492564         4.48324
LJ           3.95878        -6.39509        -4.41638
LJ          -2.25361         -3.3719      0.00417398
LJ           6.18363         2.81775          5.4801
LJ          -2.93439         2.77415         6.06437
LJ          -4.96806         5.34072         1.32199
LJ          -4.01533         4.98158         2.04721
LJ          -4.40942        -3.84726        -4.25474
LJ          -1.16101        -2.53562        -5.73464
LJ          -4.12096         2.40737         -5.9825
LJ            4.7085         4.47399      -0.0631983
LJ          -3.18109         2.26608          0.7206
LJ         -0.897854        0.132585        -1.93792
LJ          -1.16451         -1.6241        -2.39582
LJ           4.85036         -5.9726         1.92835
LJ           3.39702        -2.35372          3.5667
LJ          -6.34345         3.78867         1.46554
LJ           3.37228         -5.4867         -5.9899
LJ          -2.24444         5.45136        -3.95677
LJ           3.19893         3.97544         1.82619
LJ           1.66698        -1.43997        -6.29414
LJ          0.918123        -2.37578         4.62203
LJ          0.378182       -0.999981        0.999589
LJ           6.37755        0.896993         5.72557
LJ          -1.13264       -0.211797        -4.28382
LJ          -5.70624        -3.20132        -5.44438
LJ           2.07171         4.43503         3.63247
LJ           5.35395         1.55828        -3.84036
LJ            3.3059        -3.22069        -5.27992
LJ          -3.97169        -2.86936        -4.50211
LJ           -4.3533         2.42476         5.23257
LJ            3.5517         4.16901         3.42832
LJ          -1.02739         -5.5358         1.19007
LJ          -4.39969         -1.8599        -2.49553
LJ          0.141404        -1.11691         -4.7961
LJ          0.207947        -3.66262        0.319194
LJ         -0.597296         1.97376         5.55579
LJ          -1.85969         5.31689         4.21038
LJ           4.49358        -0.46714         4.74273
LJ          -4.84246        -5.94654        -1.31098
LJ           3.40503         2.83788        -5.86776
LJ          -2.88849        0.466081         1.65838
LJ             1.442        -4.16855        -2.64332
LJ          -4.02707        -5.80318        -2.22069
LJ           1.59745         3.90271        -2.30475
LJ          -2.65509         -3.2988        -4.27565
LJ           3.07316         6.43739        -2.39995
LJ          -5.31404         3.18822         3.65909
LJ          -4.08263         2.63865         1.31108
LJ           0.51083         5.32436        -6.25318
LJ          0.693024         5.33944         2.55499
LJ          -5.65641         5.58032        0.355072
LJ             1.935        0.598112        -1.54601
LJ         -0.332758         5.11147         4.85474
LJ           -6.2253         3.71507        -3.11891
LJ           4.12257         4.84142        -2.87617
LJ           4.52433         5.41026          6.3041
LJ          -1.69363        -4.63769         1.15573
LJ           5.68498          1.1693           1.519
LJ          -6.09146        0.334846          1.8493
LJ           1.10621        -1.74368        -1.47144
LJ           3.71672         5.00229        -4.12571
LJ          0.412493         1.16721         4.80957
LJ          -5.70047        -4.17931       -0.823995
