108
#Comment!
LJ          -5.94312         1.30883        -1.25067
LJ          -4.24734        -3.23656        -5.45703
LJ          -5.61626         2.70758        -3.00181
LJ           2.94107         5.17272         3.70135
LJ          0.910776         1.57719         3.10224
LJ           2.79293       0.0251972         1.60608
LJ          -2.90742         5.04054         2.40978
LJ          -3.83486         3.02136         2.33235
LJ           4.96842         3.41906        -3.34984
LJ           1.19421        -2.42496         6.35284
LJ          -3.86212      -0.0666676         6.44982
LJ          -6.22743         5.77086        -3.79974
LJ          0.269184         4.94817         3.91796
LJ          -4.67079         4.74737        -5.01502
LJ          0.579836         2.62983        -3.31889
LJ          -3.42294        -2.39329         2.75286
LJ          -3.60348        -5.87463         3.68607
LJ          -3.05511        0.786034         2.45255
LJ          0.389317         6.05017        -5.31342
LJ           5.37701         -2.1376         1.64297
LJ           1.82689        -5.94221         4.96511
LJ          -3.35719         5.02919        -1.72499
LJ           5.66378         5.87502        -2.26053
LJ           3.11945         3.51705       -0.311494
LJ           4.03105         5.66029         1.42931
LJ          -1.43971       0.0596937        -2.82121
LJ          -1.67005        -5.67319          2.5098
LJ           4.84188         2.59443         1.22896
LJ           3.42487         -4.6841         1.08871
LJ          -4.66515         2.21419        -3.43509
LJ          -1.14607         1.55737         4.10494
LJ         -0.162232        0.744172         4.11146
LJ          -3.70902         4.67793          2.8402
LJ         -0.704923        -3.94242        -3.90353
LJ           4.00443         3.31951        -2.78168
LJ           -1.2151         1.29047         1.44013
LJ          -4.04428        -3.61224         5.76179
LJ          -6.07601       -0.523813         2.46157
LJ          -2.91996         6.18558         2.98643
LJ           -2.1333        -2.22146         5.77589
LJ         -0.414988        -1.00563        -2.53185
LJ          -6.00014         2.27853       -0.539292
LJ           5.37716          4.2132         4.20349
LJ           1.47084        -4.49983        -6.44487
LJ           5.34085         2.03306        -1.39629
LJ           5.19906        -4.47778         3.33096
LJ           4.86513        0.353329       -0.228459
LJ          -2.42501         -3.4686       -0.806791
LJ            2.3279        -1.07413        -3.90235
LJ          -1.39292       -0.294283        -4.49445
LJ           5.60151         1.24832        -2.83305
LJ         -0.948992        -5.17106          2.1066
LJ           4.66612        -3.32787        -5.65645
LJ           1.14569         0.38663         2.53534
LJ          0.853303        0.217812       -0.877041
LJ           -1.5072         1.49856         3.04536
LJ          -6.22078         4.96664         2.90693
LJ          -1.32821         1.18905        -3.74462
LJ           4.17505           -6.03        -1.73658
LJ           4.75419         6.36081         2.65712
LJ           2.11615         5.05352         5.98468
LJ           5.52576        -1.68866         4.98248
LJ          -4.46181         5.64451        -3.47323
LJ           3.72233        -3.86814        0.413789
LJ          -2.05142         1.18294       -0.383768
LJ           -1.2306        -4.52877       -0.223317
LJ          -2.29007         1.91665          3.8518
LJ           6.34139        -3.98249        -2.77299
LJ          -4.51783          3.1786         4.83328
LJ          -2.18604        -1.81121        -4.08952
LJ         -0.315862        -3.60564            4.67
LJ         -0.238639        -1.40092         5.32813
LJ           2.71962        0.343437        -5.97222
LJ           5.57067        -3.27659        -1.34178
LJ           3.38978         2.88863        -3.63699
LJ          -1.77612         4.60363        -3.51067
LJ         -0.347697         3.02486        -0.61309
LJ          -3.01646        -1.32229         6.23982
LJ           3.16015        -2.17945         4.97418
LJ           6.35366         5.68195         6.20086
LJ           4.48071        -2.57743         5.18943
LJ          -5.06673        -3.71841         4.92517
LJ         -0.183496        -0.82088        -3.52408
LJ         -0.520765         5.02889         2.16655
LJ          -5.62043         -1.5507        -6.19675
LJ           4.66846        0.732834         -1.1219
LJ          -1.36051        -1.71281          5.4364
LJ          -5.18782        -5.76271         -5.8515
LJ           1.33956         5.24811         2.16353
LJ          -2.16775        -3.51187         2.44363
LJ           3.27269          -4.353        -2.62583
LJ           6.23429        -5.04241         2.03981
LJ           6.37861        -5.16993       -0.608787
LJ            3.2813        -5.72258         1.32373
LJ          -1.69618         3.29259         5.26431
LJ           6.37827        -2.70214        -6.17969
LJ          -4.95343        -2.60557       -0.438596
LJ           0.47039        -2.75146         3.37273
LJ           5.57017        -5.68305         3.08788
LJ           1.71163         4.09467         5.22297
LJ           3.24362        0.366034        -2.63554
LJ           3.37894        -6.15492         3.75297
LJ          -1.30045        -0.85212        -0.18172
LJ           3.59474          4.1227         -1.2144
LJ          0.779421        -4.78913         1.06398
LJ           -4.4026        -2.73584         3.31785
LJ          -4.36619         4.39989         6.10644
LJ          0.189975         5.40983        -2.08695
