108
#Comment!
LJ           6.34783         -1.2763       -0.618156
LJ        -0.0959369        -3.26705         1.80575
LJ           5.15446        -5.94823         1.53371
LJ            4.5923         4.13608        0.400873
LJ           -3.5492        -4.26752         2.24238
LJ           -1.0287         3.74625         5.28795
LJ           5.75135         3.41506        -5.43545
LJ          -5.90302         3.37635          1.7768
LJ          -1.39976        -0.91944        -1.29938
LJ          -3.26942          5.1108         5.26055
LJ         -0.213016        -1.45165         4.67202
LJ          0.712778        -3.36786         4.82426
LJ           5.74998         -5.3505        -1.40891
LJ          -3.99678        -3.12087         5.65296
LJ          -5.09303        -5.46472        -2.76652
LJ         -0.379284          5.9756         5.64774
LJ          -5.25707        -3.65261        -3.42175
LJ           2.91939         3.81743         5.22005
LJ           1.72844        -0.39534       -0.703173
LJ          -1.78433         5.26236       -0.695821
LJ          -4.75756          5.6911         4.52555
LJ          -4.47646         3.70999        0.475426
LJ          -3.53527       -0.395879        -1.65951
LJ           5.24475         2.34858        -4.99652
LJ           4.20841         3.66426         5.85932
LJ          -3.57156         1.16133         5.26596
LJ           4.34631       -0.922461        -2.84384
LJ          -3.42093         2.28908         5.73836
LJ          0.980445        -3.82594         2.43913
LJ          -2.21279        -1.85521        -1.58851
LJ         -0.272174         4.04624         6.14911
LJ           5.89543        -2.12525        -2.42556
LJ           5.67873        -4.19132        -3.61717
LJ           4.54888        -1.82999          2.3029
LJ           5.68341        -3.07123         3.90565
LJ          -6.45222        -2.13817         2.08249
LJ           1.34729        -1.16352         6.15269
LJ          -2.88011        -4.63308         4.30393
LJ          -5.09523         2.66809         1.61207
LJ           0.19373       -0.224222          3.5659
LJ          -3.43382         5.52718       0.0727068
LJ          -0.49128        0.394943        0.572254
LJ          -1.63037        -1.10033        -4.19404
LJ           5.69012         1.81258        0.279225
LJ          -2.85997        -3.39483         4.33587
LJ          -2.80121          1.9015        -1.45365
LJ           5.55232         4.93769        -3.38923
LJ          -4.14521       -0.662693        -2.91143
LJ           4.34518        -5.89399        -3.00172
LJ           4.37632         6.03206         2.65032
LJ         0.0172883         2.22962       -0.373477
LJ          -5.99772        -5.12697         3.65158
LJ          -1.44008         2.10643        0.546436
LJ           6.01096        -1.52013          3.0306
LJ          -4.37633       -0.921279         4.02102
LJ           2.14253         3.66225        -4.58484
LJ           4.48436         5.09847         4.72969
LJ         -0.353049        0.356826         -2.5384
LJ           -2.7327        -4.81832        -5.53529
LJ           2.88554        -4.23303          5.8245
LJ           2.91943          3.2676         2.03415
LJ           1.71961         5.17362        -1.68841
LJ          -3.98102         3.06621       -0.320196
LJ          0.525261         3.20946         4.31199
LJ         -0.709668         1.77272        -1.25746
LJ          -0.58724         1.91862         -6.1655
LJ          -5.64825         2.23781         6.25891
LJ           1.75283        -6.32871       -0.469154
LJ         -0.181211        -4.76421         6.00352
LJ           -3.4776       -0.643744        -4.52958
LJ           3.46939        -3.14389         3.44308
LJ          -4.04512        -1.22475        -1.14155
LJ          -1.32723        -3.55914        -1.65022
LJ          -3.69662        -5.34085         4.11407
LJ          -3.60693         6.10327         5.69098
LJ             -1.15      -0.0155666          5.0992
LJ          -4.41644        -5.60695        -3.67338
LJ           4.19863        -4.33593         -3.7496
LJ          -3.40498         -3.4052        -1.97062
LJ           1.34481        -4.60333        -5.16883
LJ          -1.78351        0.678809         3.38364
LJ          -4.74274         4.26677        -6.14924
LJ          -5.47964        -0.94492        -1.43035
LJ           5.20025         4.52331         3.81508
LJ          0.922088        -6.20639        -1.41177
LJ           -5.3796          3.2348         3.04681
LJ           5.02598        -4.88094        -3.20423
LJ           -4.2315        -3.44165         2.59727
LJ          -5.99308         5.45335        -3.26663
LJ           5.93265        -1.92893        -6.37659
LJ        -0.0464565       -0.719413         1.36047
LJ           1.37208        -4.30678        -1.94084
LJ           2.51234         5.34816         6.09847
LJ          -1.81779         6.24143         1.42721
LJ          -5.61846        -1.42646         0.15944
LJ          -4.88414         6.14031       -0.796673
LJ          -3.46413        -2.09323          -1.349
LJ           2.32959        -6.34364        -2.27103
LJ          -1.33346         4.96233        -6.20981
LJ           6.38394         4.42814         1.21671
LJ          -5.15213        -2.51161         4.13218
LJ           1.64688         3.46515        -5.72099
LJ          -2.06968       -0.981922         4.01364
LJ          -5.90359        -2.02625         5.60237
LJ          -3.51091       0.0466192         1.67698
LJ           1.36525        -6.13875         -3.1777
LJ          -4.37631        0.957149          2.6177
LJ          -5.99093        -4.44731         -5.3369
