108
#Comment!
LJ          -2.62998         5.65149         5.81475
LJ           5.00653         -3.3326          5.9982
LJ          -2.37917         -4.5105        -5.33086
LJ           5.04549        -6.01258        -5.15136
LJ           1.85485        -4.73898        -6.23738
LJ          -3.26714        -4.05458        -6.35628
LJ           1.14722        -4.97607        -2.96419
LJ          -3.80348        -6.09674        -4.73363
LJ           5.32415        -6.28664         5.56889
LJ          0.539232          -5.057        -5.27671
LJ           6.08363        -5.23532        -4.65843
LJ          0.959808         6.11209        -3.64615
LJ          -3.33624        -1.70966        -5.14233
LJ           4.74513        0.268298         -6.2642
LJ          -2.97129         0.81781        -3.67231
LJ           4.75522        -1.64932        -4.81525
LJ           1.11961        -1.22246        -6.32262
LJ          -3.21426        -1.25391        -6.35856
LJ           1.27752        -0.19403        -5.47651
LJ           0.70935        -3.75939        -5.90818
LJ          -5.79639        -2.56106         6.16376
LJ           1.76739         0.67553        -6.21313
LJ          -6.04262        0.348944        -5.81299
LJ         0.0116551        -2.59816          -3.637
LJ          -2.14354         4.38406        -6.35811
LJ           5.66086         3.93405        -6.42336
LJ          -1.75462         4.45826        -4.02639
LJ            5.3939          2.7417        -4.15684
LJ           1.80182         1.78695         5.70726
LJ          -4.59613         3.85662        -5.73854
LJ           1.10875         4.61502        -3.78011
LJ          -3.84424         3.76748        -3.99211
LJ           5.89831         2.47062         -6.1225
LJ           0.76109         3.74664         5.93393
LJ           5.95497         4.67383        -4.73499
LJ          0.690437         3.24887        -3.98253
LJ          -2.05415         5.98983        -1.88035
LJ           3.66449        -3.92712        -3.02447
LJ          -1.96406        -4.28849       -0.622942
LJ           4.74071          6.1922        0.807726
LJ          0.993887        -6.33562        -1.53939
LJ          -3.82947        -5.04473        -3.02199
LJ          -2.82822        -5.99471        0.471748
LJ          -4.24084         6.13356        0.364438
LJ           5.77218         5.84471        -2.33616
LJ           4.56599        -4.35897        -4.82995
LJ           6.10514        -6.10142       0.0282312
LJ           1.22306        -5.83524       0.0996949
LJ          -3.16275        -1.53504        -2.61984
LJ           4.95271         1.17854        -1.68522
LJ          -3.13529        0.123614       -0.411664
LJ           4.59793        -1.85887       -0.474071
LJ          -2.02578       -0.787773        -1.11637
LJ          -2.82868        0.984652        -2.22376
LJ           1.54294       -0.308468        -1.04384
LJ          0.702237        -1.26505         -0.3191
LJ           3.15893        -3.98168        0.964138
LJ          0.272186        0.398716        -2.42812
LJ           4.52559         1.10514       -0.818968
LJ           1.23094         -3.3819         0.22446
LJ          -3.10828         2.88241        -1.73721
LJ           5.68223         3.34072       -0.836701
LJ          -2.94345         4.06638        0.783194
LJ           5.29743         2.31304       -0.969944
LJ           1.95452         2.83908        -1.80165
LJ          -4.28371         5.18927         -1.8057
LJ           1.65125         4.08507        0.836561
LJ          -3.27413         1.78252        0.218958
LJ           4.70543         3.33004        -2.73238
LJ          0.254636         3.50085         -1.5237
LJ           5.62801         4.19211       0.0845137
LJ           1.14374         2.32796       -0.737374
LJ          -2.93036        -6.28033         1.54591
LJ           4.74358        -4.64407         1.91604
LJ           -2.8894        -5.24533         4.33095
LJ           5.17105         -6.3229         3.98906
LJ           1.70661        -5.59748         2.44534
LJ            -3.451        -4.65509         2.47417
LJ          0.890368        -2.88047         3.55527
LJ          -4.21345        -6.00388         4.71798
LJ           5.84294         5.90191          2.7281
LJ          0.387692          -4.494         2.16842
LJ           6.25657        -4.18543         4.46349
LJ          0.460781        -6.31906         5.82867
LJ          -4.09852         -3.5329        0.301761
LJ           3.82731       -0.386828         2.05526
LJ           -2.8942         1.47555         4.07274
LJ           4.54028        -2.50363         3.75777
LJ          -3.55406       -0.991833         1.68315
LJ           1.51167        -1.24022         2.54328
LJ           2.27901        0.782183         3.47722
LJ          -2.54907        -2.58261         4.03884
LJ           6.05333        -2.39491         1.62888
LJ          0.271993        0.567876         2.79207
LJ            6.1346        0.204414         5.50048
LJ           2.09394        -1.89683         4.79099
LJ          -3.91946         1.29713          3.5858
LJ           4.46677         4.37357         2.81791
LJ          -3.51017         4.20967         3.65663
LJ            5.4624         1.09318         4.04314
LJ          0.711949        0.979811         1.66821
LJ          -3.57665         4.23403         2.20713
LJ           1.74245         3.98582         3.88306
LJ          -3.60738          1.9916         5.16578
LJ            5.1845        0.426663         2.58846
LJ          0.268461         3.87886         1.75214
LJ           5.01093         4.48975         4.96676
LJ          0.135596         1.30796         3.84328
