108
#Comment!
LJ           4.10645        -3.89461         -3.9002
LJ         -0.792641        -3.78972         5.60398
LJ           5.14483         2.05596        -0.24824
LJ          -6.44183         1.90446        -2.15507
LJ          -5.74036      -0.0587098       -0.583279
LJ          -0.47797         5.05579         5.71169
LJ          -5.30033         3.62473        -2.91544
LJ           4.13985        -4.80106        -1.98706
LJ          -4.10256          0.8991         4.35884
LJ           4.78101         2.83327        0.356446
LJ         -0.225473      -0.0181195         -3.1784
LJ           2.37319        -0.62914         2.00429
LJ          -1.10834         4.15801        -4.16675
LJ          -3.40898         5.08499         5.40504
LJ          -1.94327        -4.02804        -3.05971
LJ           2.86376         5.34562         4.36625
LJ          -3.71766         1.12591       -0.799633
LJ          0.196965        0.175619         5.92821
LJ          -4.76544        -2.77393        -3.96964
LJ          -2.49313         5.09102        0.347497
LJ          0.807952        0.505864        0.990467
LJ          -1.16782         6.22195        -2.21193
LJ          -6.24146         5.26836         1.25583
LJ          -6.39658         4.00909        -1.83177
LJ          -6.08698        -6.39203        -5.87257
LJ          -3.09543         2.79995         -3.7832
LJ          0.503683         2.48454       -0.577206
LJ         -0.843202        0.836268        0.919826
LJ          -1.30456         -5.5922         3.32398
LJ          -1.77034       -0.221274       -0.332546
LJ          -6.01991         5.50777         3.02698
LJ            1.9705        -5.99917           3.308
LJ          -5.16356        -1.73477        -6.27264
LJ           3.79026         1.63751         5.88515
LJ           1.34702         5.13761         4.32841
LJ           4.70189         -5.8322        0.524586
LJ          -1.36898        -4.07208        -5.45416
LJ           5.51712         3.51802          4.9544
LJ          -4.43647        -2.10234         3.03805
LJ           3.52646        -4.76091         2.42177
LJ           -5.0221       -0.815568        -6.29399
LJ           4.60765         1.62639         1.10188
LJ          -1.66673         2.52176          3.9962
LJ           4.75656        -0.66169        -2.65376
LJ          -3.94873        -1.01588         5.11359
LJ           6.38818        0.569848       -0.336422
LJ           3.07252        -6.01533         2.02953
LJ           -2.7658       -0.565991          1.9695
LJ          -4.46171        -4.03888         5.35783
LJ           -3.5164         4.12897        -1.76509
LJ          -4.10636        0.847539         1.98354
LJ          -1.37368         6.25262          4.2483
LJ          -2.51058        -3.40476        -4.21534
LJ           -3.1198         2.84215        0.522471
LJ          -5.08787        -1.35633         5.20523
LJ           2.89501        0.134144        -0.46947
LJ          -1.81886         4.17326        -5.14422
LJ          -3.68609        -2.55252        -5.30627
LJ          -5.20399         4.55321         2.95577
LJ          0.905559       -0.622576         -3.5788
LJ          -2.08855         3.09198         2.84512
LJ           4.03328          3.4587         2.81922
LJ           -2.1068         5.46524       -0.851117
LJ          -3.94022         4.56815         4.72073
LJ           1.69078         3.70208         2.19271
LJ           4.12578         4.60823         3.31983
LJ           4.71522         4.55649         6.31251
LJ           3.30869         4.73714         5.97839
LJ           1.88552        -5.46485        0.890254
LJ          -1.26138         2.48636        -1.66005
LJ         -0.943932        -6.10143        -4.36768
LJ          -3.78202         3.17563        -3.20186
LJ         -0.880496        -3.35274        -2.80941
LJ         -0.783473         4.89447        0.197298
LJ          -2.04235         2.79963        -3.50361
LJ          -2.84627        0.526001        -5.89447
LJ          -5.91325         -3.9154         2.19584
LJ           5.49245        -6.31787        -2.46611
LJ          -1.70179        -1.42857         5.40696
LJ           5.55182        -2.84674        -2.34361
LJ          -1.06154      -0.0264413        -2.36684
LJ          -1.35944         5.31951        -5.50192
LJ          -2.86537         2.12333        -1.97129
LJ          0.582268         6.35087          2.1572
LJ           2.76942         1.22948        -5.30714
LJ           0.33167        -5.75943        0.673503
LJ          -5.14888         -4.9203         5.22888
LJ          -4.42865        -3.02904          1.1327
LJ       -0.00965256        -0.64759         -4.3384
LJ           3.07534         -2.3374        -5.85553
LJ          0.982267         2.40806         3.46153
LJ           2.33074        -3.68802         1.53423
LJ          -0.56787         3.15344        -4.49473
LJ          -3.98263         3.05247          5.5029
LJ          -5.93781        -2.22063        -3.52524
LJ           1.80831        -5.14611       -0.782184
LJ         -0.700791         2.07199       -0.264882
LJ            3.0694        0.736868        -6.20699
LJ          -1.81247        -2.72245         1.21621
LJ          -5.98901        -4.69659        0.489119
LJ           4.34195       -0.268958         4.50736
LJ           3.05822         1.29097        0.993291
LJ           3.55201       0.0270331          5.2341
LJ          -3.55279         6.09713         5.41177
LJ          -0.79513        -5.18473        -5.69112
LJ           4.73874        -2.24352        -5.00355
LJ           3.57092        -4.08059        -5.10827
LJ           1.16026        -4.86012         2.54021
