108
#Comment!
LJ           6.39481        -1.26205       -0.585083
LJ        -0.0835232        -3.25906         1.76533
LJ             5.172        -5.91193         1.59946
LJ           4.58427             4.2         0.38079
LJ          -3.53801        -4.29672         2.29931
LJ         -0.988303         3.75589         5.27502
LJ            5.7321         3.41396        -5.47413
LJ          -5.89736         3.38868         1.77836
LJ           -1.4523       -0.966111        -1.34806
LJ          -3.37057         5.13106         5.33002
LJ         -0.211628        -1.45393         4.75344
LJ          0.703528        -3.37594         4.87408
LJ           5.80479        -5.30155        -1.41848
LJ          -3.99543        -3.09171         5.64307
LJ          -5.07466         -5.4866        -2.80208
LJ         -0.381844         5.99886         5.63969
LJ          -5.29165         -3.6558        -3.44869
LJ           2.96367         3.81563         5.20304
LJ            1.8136        -0.38165       -0.698248
LJ          -1.76553         5.29145       -0.678362
LJ          -4.85097         5.74001          4.5127
LJ          -4.45721         3.67559        0.422701
LJ          -3.54268       -0.409385        -1.66224
LJ           5.22256         2.32379        -4.99475
LJ           4.11581         3.64073         5.91963
LJ          -3.60266         1.11977         5.24753
LJ           4.24385       -0.934938        -2.84825
LJ          -3.44096          2.2916         5.68929
LJ            1.0048        -3.82587         2.41788
LJ          -2.17096        -1.95356        -1.60339
LJ         -0.245349         4.00743         6.16488
LJ             5.937        -2.07619         -2.4856
LJ           5.61948          -4.197        -3.55314
LJ           4.56343        -1.86368         2.27363
LJ           5.67639        -3.14546         3.96329
LJ           6.46243        -2.08279         2.15759
LJ           1.38029        -1.13561         6.13087
LJ          -2.87403         -4.5479         4.29569
LJ          -5.10648         2.73264         1.59388
LJ          0.126469       -0.204468         3.56244
LJ          -3.43313         5.59106      0.00240418
LJ         -0.440714        0.423302        0.536502
LJ          -1.60625        -1.14935        -4.16445
LJ           5.72155         1.85399        0.331201
LJ          -2.82035        -3.42042         4.29821
LJ          -2.75499         1.90814        -1.48971
LJ           5.55753         4.98703        -3.48453
LJ          -4.16541       -0.654973        -2.95293
LJ           4.31617        -5.89685        -2.94733
LJ           4.31217         6.04543         2.67384
LJ         0.0451548         2.24413       -0.422591
LJ           -6.0329         -5.1169         3.64544
LJ          -1.45919         2.14472         0.60496
LJ           6.01677        -1.46133         3.00418
LJ          -4.36396       -0.944745         4.02251
LJ           2.16171         3.68542        -4.65679
LJ           4.52856         5.10864         4.72052
LJ         -0.322257        0.389796        -2.50461
LJ           -2.7334        -4.76907        -5.47634
LJ           2.88533        -4.28693         5.77772
LJ           2.81455         3.25755          2.0187
LJ           1.74742         5.24525        -1.75459
LJ          -4.01356         3.04982       -0.322662
LJ           0.57242         3.22576         4.30088
LJ         -0.729823         1.75444        -1.25015
LJ         -0.641068         1.90485        -6.12424
LJ          -5.61016         2.22141         6.23551
LJ           1.72605        -6.30216       -0.539747
LJ         -0.240381        -4.74354         6.07473
LJ          -3.51736       -0.684557        -4.55709
LJ           3.51279        -3.11334         3.38745
LJ          -4.04119         -1.2817        -1.15756
LJ          -1.33344        -3.57461        -1.64637
LJ          -3.67043        -5.28899         4.12295
LJ          -3.61008         6.18899         5.71524
LJ          -1.13438      -0.0162962         5.08109
LJ          -4.41327        -5.67381        -3.73002
LJ           4.20668        -4.33913        -3.76816
LJ          -3.39096        -3.48469        -1.93816
LJ           1.27947        -4.62465        -5.18817
LJ          -1.78362        0.712755          3.4555
LJ          -4.76915         4.25986        -6.18147
LJ          -5.49491       -0.999522        -1.41156
LJ           5.27183         4.48099         3.79477
LJ          0.911818        -6.15093        -1.37007
LJ          -5.36235         3.18617         3.15392
LJ           4.96412        -4.86345        -3.16498
LJ          -4.21818         -3.4577         2.58578
LJ          -6.05877          5.4965        -3.23536
LJ           5.89002          -1.931        -6.35897
LJ        -0.0111168       -0.797644         1.34552
LJ           1.36089        -4.31576        -1.98362
LJ           2.54755         5.37986         6.07378
LJ          -1.80961         6.25473         1.52821
LJ          -5.62353        -1.41399        0.181193
LJ          -4.82117         6.12244       -0.795966
LJ          -3.48241        -2.05111        -1.31352
LJ           2.29812        -6.39334        -2.21995
LJ          -1.34497         4.88556        -6.15049
LJ           6.43528         4.37426         1.23477
LJ          -5.10763        -2.56278         4.15467
LJ           1.61984         3.50538        -5.77146
LJ          -1.96533       -0.957239         3.98027
LJ          -5.91203        -1.98014         5.59956
LJ          -3.52215      -0.0358437         1.61484
LJ             1.371        -6.20054        -3.17453
LJ          -4.36149        0.832245          2.5571
LJ          -5.90668        -4.41523        -5.26589
