108
#Comment!
LJ          -5.18695         0.95146        -2.17949
LJ          0.336147         3.08394       -0.365346
LJ          -2.89103        -5.53095         2.65985
LJ          0.324395        -1.78787        -6.38209
LJ           1.26933       -0.269438         4.54826
LJ          -5.39328       -0.683574         3.31923
LJ           2.62361         4.34039        0.431263
LJ           4.04982         4.53247         2.67755
LJ           1.50996        0.041837        -4.05331
LJ          -4.62978          -5.029        -3.79968
LJ           5.84279        -4.88341        -1.89445
LJ           2.15671         3.50933         2.76582
LJ           1.71378        -4.01801       -0.791313
LJ            4.6341        -2.26609        0.994297
LJ          -2.38286        -6.43125        -1.28728
LJ           4.54149          2.5071        0.344622
LJ         -0.701401        -3.23263        -1.99913
LJ          -6.00155         -5.4847        -4.23329
LJ          -4.00565         5.21091         -1.7505
LJ          -1.10379      -0.0725104        0.218441
LJ          -4.87353        -2.22231         2.64204
LJ           3.52525        -1.21795        -2.11482
LJ           -4.7509        0.825853        -3.20749
LJ            4.1402         1.71262         -5.6037
LJ            5.3816         2.26686         3.50604
LJ           5.90824         3.87079        0.227472
LJ           5.39011        0.762335         2.90167
LJ          -5.44595        -4.54148         -1.9197
LJ           4.62159         3.77983        -2.39427
LJ          -6.41204         4.58947        -4.21338
LJ          -5.95601        -1.68497         1.89835
LJ           2.56363         1.06047         3.21619
LJ          -4.44749        -3.99875         -1.8427
LJ           5.54404         1.59223        0.178729
LJ          -6.17359          2.6065        0.143896
LJ          -5.22754         2.52858         5.90491
LJ          -6.26564         -5.4096         5.16154
LJ          -4.80865        -2.68744        -3.57985
LJ           -4.2233        -3.49644          1.0156
LJ          -2.08741          4.5711         3.38256
LJ         -0.666603         4.67405        -2.43963
LJ          -1.54717        -5.29353      -0.0170354
LJ           2.84648         -1.7943        -1.01021
LJ          -5.82402        -5.88129        -2.35759
LJ           2.35743        -0.48745         4.13627
LJ           4.67578        -5.81489        -4.70223
LJ          -2.33817        -3.38149       -0.360316
LJ          -6.36366         3.16303         5.08743
LJ          -2.85121         2.47173         5.82457
LJ          -5.42188         5.28552           1.837
LJ          -3.84251         4.70769         2.01076
LJ          -4.62631        -3.82135        -4.39776
LJ         -0.848895        -2.38057        -5.79999
LJ          -3.88363         1.95503         -6.0215
LJ           4.38122         4.00928        0.592457
LJ          -3.42335         2.60898        0.485022
LJ         -0.692392       -0.413167        -2.37748
LJ          -1.06204        -2.05948        -2.42201
LJ           5.13271        -6.16435         1.90621
LJ           3.58908        -2.19606          3.4937
LJ            5.8578         3.96441         1.61139
LJ           3.47846        -5.81606        -6.02142
LJ          -3.16968         5.23929        -3.77639
LJ           3.13411         4.17572         2.06313
LJ            2.1348        -2.04506         6.27343
LJ          0.513328         -2.4363         5.09757
LJ          0.391421        -1.72019        0.993386
LJ           5.99068        0.734262         6.03812
LJ           -1.3749       -0.220211        -3.92397
LJ          -6.21266        -2.88066        -5.25672
LJ           2.63799         4.48655         3.89857
LJ           5.10218         1.67672        -3.83278
LJ           2.93968        -2.50924        -4.94738
LJ          -4.37283        -2.78883        -4.73127
LJ          -4.22565         2.39567         5.24375
LJ           3.33886         4.08905         3.31703
LJ         -0.551074        -5.70728         1.12175
LJ          -4.55837        -1.86907        -2.43704
LJ            0.2016        -1.38926        -4.13797
LJ          0.531509        -3.73905         0.68928
LJ         -0.676207         1.78089         5.89406
LJ          -1.99171          5.1246         4.34065
LJ           4.82568       -0.941394         4.35427
LJ          -4.70167        -5.75347        -1.20617
LJ           3.03979         3.08917        -6.03815
LJ          -2.77898        0.339397         1.66132
LJ           1.33578        -4.22352        -2.23683
LJ          -4.29881        -6.09864        -2.31553
LJ           1.75562         3.89017         -2.0389
LJ          -2.71005        -3.50827        -4.29941
LJ           3.10785        -6.11666        -2.69151
LJ          -5.59537         3.07173         2.93517
LJ          -4.39857         2.76667         1.05897
LJ          0.751073         5.41299         6.05636
LJ           0.75504         5.79655         2.58102
LJ          -5.55488         5.59043         0.63385
LJ           1.81534        0.118973        -1.95395
LJ         -0.482764         5.02442          4.6099
LJ          -6.37083         4.15359        -3.24535
LJ           4.01094         5.17156        -2.93759
LJ           4.85618         5.56561         6.00989
LJ          -2.08287         -4.4576         1.83536
LJ           5.81464         1.69923         1.31507
LJ          -5.73774      -0.0353341         2.03166
LJ           1.39758        -1.99772        -1.23994
LJ           3.65611          5.2498        -4.37891
LJ         -0.163555         1.38281         4.68164
LJ          -5.77061        -4.31953       -0.693633
