108
#Comment!
LJ           -3.0979        0.202456         0.39965
LJ          -3.56877        -3.52554         -5.5535
LJ           5.22504         3.16055        -2.60011
LJ          0.195999        -6.45828         2.41042
LJ           1.77052         4.06981        0.696496
LJ           4.04652         1.54225         1.30489
LJ         -0.557465         3.55472         1.61156
LJ           6.36252         1.80185         1.75145
LJ           5.58943         2.44457        -5.77656
LJ           2.13057        -2.68199         5.53619
LJ          -3.67283        0.950553         5.14114
LJ          -5.94651         6.33813        -4.16672
LJ          -1.50449         6.18749         4.50435
LJ          -2.78597         5.36899         -4.1003
LJ           2.43328         2.55582        -3.23265
LJ           -4.7887        -1.82337         2.94092
LJ          -4.83443         5.98861         3.53864
LJ          -5.10207        0.254526         1.55672
LJ          0.367372        -5.99059        -4.11738
LJ          -6.41965        -2.83109         4.10405
LJ           1.54291        -5.55768         5.92845
LJ          -4.71303         5.35094          -4.827
LJ           6.32656         4.72652          -3.205
LJ           3.15645          4.8452        -1.76658
LJ           3.70438         5.57569         2.51151
LJ          -1.21939         1.00763        -1.95518
LJ          -2.50914           5.242          4.7232
LJ          -6.37481          2.8825       0.0523583
LJ           2.35151        -4.66539         1.25297
LJ          -3.58075         1.51157        -1.79578
LJ          -2.62951        0.284433         5.25066
LJ         -0.115584        0.107948         3.60181
LJ          -2.95457          3.7745         4.35392
LJ           1.96893        -1.97006         -4.6296
LJ           5.50949         1.19694        -3.75511
LJ          -1.08132         2.46468         1.71858
LJ          -3.13669        -4.67691        -5.58208
LJ          -5.87969        -1.52705         3.69162
LJ          -3.64736         6.21093         4.82011
LJ          -3.33695         -3.1488         6.15568
LJ          0.057067        0.612269        -1.36226
LJ          -5.07001         1.61266       -0.767683
LJ           4.36433         4.91065         6.11934
LJ           0.39761        -3.25179         6.08546
LJ           5.58399         2.44989        -1.93866
LJ           4.77907         -5.8916         3.71886
LJ          -6.42834         1.71049        0.368545
LJ         -0.809747        -2.70895       -0.825968
LJ           3.66053        -4.14255        -1.89817
LJ          0.542129        -2.00065        -5.18844
LJ          -5.99357         1.63973        -5.40642
LJ          -1.44994        -4.31642         2.21907
LJ           6.17242         -4.7586        -4.55287
LJ          0.621825         2.05089         4.03555
LJ           2.22088        0.668479       -0.840111
LJ          0.175225         1.19034         3.43441
LJ          -6.12531         6.02728         4.57847
LJ          -1.45466         2.73916        -2.79578
LJ           2.42503        -3.69298         -3.9537
LJ           4.78038        -5.93008         2.12072
LJ           2.11227        -6.08128        -6.16215
LJ           6.08898        -1.41472         5.34632
LJ           -5.7967        -5.53569        -6.27066
LJ           3.14992        -4.37406        0.571248
LJ          -2.94384         1.50958         2.08554
LJ          0.464005        -4.61148         1.80654
LJ          -2.76518         1.17573         5.87375
LJ          -5.75704        -5.10363        -4.43919
LJ           -4.8291         1.75294         4.65471
LJ         -0.253166       -0.175846        -1.99143
LJ          -2.67775        -2.88086          2.7936
LJ         -0.807328        -1.54736         4.39639
LJ            2.1441         1.03427        -3.34257
LJ           5.79905        -3.41627        -2.60596
LJ           3.68301          2.9518         -3.7067
LJ           -3.8122         4.36782         -2.6962
LJ          0.360109         1.52222        -1.78534
LJ          -6.01294       0.0660889         5.01213
LJ           2.97533        -2.75544         6.16582
LJ           5.52342         4.81786         3.13045
LJ           4.45889          -4.043         3.72423
LJ          -4.14701        -4.88507         4.50101
LJ         -0.447114        -1.46075        -3.52639
LJ          -3.14792         5.72298          2.6234
LJ            6.3263        -3.16794         4.99006
LJ           5.20664        -0.56892        -2.61865
LJ          -1.05337        -3.08232        -5.23475
LJ          -4.53302        -5.01122        -4.69067
LJ          0.418995         6.33174         5.89968
LJ          -4.10656       -0.988444         2.31087
LJ           4.16839        -3.50368         -3.0584
LJ          -5.86733        -4.28181        0.658969
LJ          -5.49631        -4.90912        -1.43853
LJ           1.49429        -6.31206       0.0456697
LJ          -3.14373         5.02646        -6.18412
LJ           4.88213        -3.23797         4.54885
LJ          -4.93488        -1.43918        -1.61695
LJ          0.981893        -2.98329         1.25229
LJ           5.29195        -6.45173         2.97006
LJ           1.16956          3.2538         3.52614
LJ           3.87968        -1.31465        -2.87244
LJ           3.19261         5.62608         4.28567
LJ         -0.663953        -1.05922         1.00137
LJ           4.24534          3.9484         -2.2286
LJ          0.944372         6.42452         1.08037
LJ          -5.45074        -2.73828         1.49841
LJ          -5.43435         6.22325        -4.94099
LJ           1.59427         3.91653        -2.20717
