108
#Comment!
LJ         -0.646506         5.97999         5.20968
LJ            2.9236          -3.011         6.06823
LJ          -2.01126        -4.02756        -5.00315
LJ           3.04535        -5.12388        -4.97481
LJ           3.72131        -4.41297        -5.63739
LJ          -5.38277        -4.28755          6.4266
LJ           3.21184        -5.09969        -2.39925
LJ          -4.93118         6.42795         -3.9949
LJ          -5.72749          6.2565         4.89903
LJ          0.257675        -5.53804        -5.92932
LJ          -5.89427        -5.02813        -5.86952
LJ          -1.19485         5.79824        -3.54309
LJ           -1.2303        -1.44493        -5.14493
LJ            2.7711        0.178625        -5.81546
LJ         -0.767808        0.833366        -3.11886
LJ           3.03858        -2.01804         -4.6311
LJ           2.93866        -1.01313           -6.27
LJ           -5.2992        -1.86484         6.43819
LJ           1.21727        -1.83294        -4.34717
LJ           1.40111        -5.50936         5.14747
LJ          -3.70542        -2.91484         6.08601
LJ           1.61336         2.40925          4.9342
LJ          -3.74643        0.563028         -6.4176
LJ          -1.76909        -2.39057        -3.19874
LJ         -0.425324         6.02265        -6.29414
LJ           3.69351         3.49046        -6.27712
LJ         -0.353059         5.38652        -4.25094
LJ            3.4358            2.08        -5.13116
LJ           3.67787         1.62996         5.54322
LJ           -5.9421         2.85924        -4.45383
LJ           3.22886         4.26929        -3.75005
LJ          -5.58571         3.95021        -3.42526
LJ          -5.14648         2.46116          6.1714
LJ          -1.36312         3.71345         5.75213
LJ          -5.22002         4.92132        -5.40301
LJ         -0.718071         2.50975        -3.63183
LJ       -0.00858713         5.49013         -1.8381
LJ           1.29208        -4.38264        -3.26212
LJ        -0.0671257         -4.1184       -0.764198
LJ           2.67029        -6.36764        0.972651
LJ           3.12348        -6.11026        -1.65801
LJ          -5.84104        -5.32541        -3.75899
LJ          -3.32844         6.04111        0.118415
LJ           6.05813         5.54467         1.21095
LJ          -6.04728         6.33318         -3.3887
LJ           4.90866         -4.6542         6.28298
LJ          -4.98098         6.39243       -0.582742
LJ         -0.981371         -5.6884        0.411813
LJ         -0.970901        -1.55027        -2.70895
LJ           4.09743         1.73256        -3.66285
LJ          -2.21487         2.05468        0.313909
LJ           2.47071        -1.76338        -0.38666
LJ          -1.76116        -1.48635         -0.3956
LJ          -4.70476         1.20614        -1.45657
LJ           3.31284       -0.544398       -0.923693
LJ           2.29535        0.704697       -0.757238
LJ           2.55351        -3.57186          3.2307
LJ          -1.87497         0.38013        -2.32086
LJ           4.85159         2.77744        0.558395
LJ          -0.12579        -4.52378        0.639025
LJ          -2.19603         3.26794        -1.67634
LJ           6.17427         2.60777        0.802441
LJ          -2.35254         4.35871         0.41705
LJ           3.34536         2.03615        -2.16356
LJ           3.84632         4.09721        -2.69996
LJ          -5.27182         5.37625       -0.922154
LJ           3.64996         3.90463         1.50837
LJ          -5.28365         1.44828         0.41569
LJ           4.54393         4.08532        -4.29468
LJ         -0.244143         2.15594        -1.46096
LJ          -5.58654          4.4091       -0.157518
LJ          0.405803         2.99301        -1.33324
LJ         -0.699398        -6.41428          1.8038
LJ           3.75126         -4.4929         1.05881
LJ         -0.898173        -6.08673         4.55902
LJ           3.07197        -6.28114         3.86398
LJ           2.93096        -5.63751         3.01703
LJ          -5.57744        -4.76121         2.50113
LJ         -0.061892         -3.7118         2.06032
LJ          -6.04519        -5.02936         4.39018
LJ          -5.00006         5.85077         2.97147
LJ          -1.58996        -4.92822         2.22857
LJ          -4.53466        -4.13042         4.55261
LJ          -1.60886        -6.20341         -6.3645
LJ          -3.98446         -5.5417       -0.966639
LJ           1.72557       -0.159399          1.8917
LJ         -0.681567         2.56063         4.69552
LJ           2.42281        -2.60094         3.73652
LJ          -3.54623        0.727078         2.32398
LJ           3.55901        -1.05069         3.42623
LJ           4.05145         1.34664         2.97206
LJ          -4.58532        -3.27255         3.88704
LJ           -4.7891          -2.382         1.62783
LJ          -1.47746        0.781112         2.52806
LJ          -5.08078        0.451254         5.26007
LJ           3.00709       -0.322074         5.75798
LJ          -2.73417         1.14573         5.12593
LJ           2.59795         4.90515         2.61473
LJ          -2.21861         4.23245         5.15168
LJ            3.5142       0.0884667         3.98485
LJ          0.824874      -0.0749538         3.63079
LJ          -4.09069         4.13338        0.386331
LJ           3.67979         3.56542         4.23462
LJ          -5.53233         1.37303         4.83991
LJ          -5.73438        0.106534         2.48768
LJ          -0.34075         3.82662         1.74291
LJ          -5.78446          4.4378         5.33964
LJ          -2.04718        0.941881         4.45913
