108
#Comment!
LJ          0.781683        -2.65257         1.86159
LJ            -1.991         6.34491        -5.91835
LJ            6.2911         2.91456        -3.92962
LJ           4.63869        -2.96763         -2.0136
LJ           4.29774       -0.981555         6.19524
LJ           -4.1842        0.974018        -1.09814
LJ           3.73985        -0.51274        -1.74002
LJ         -0.138704         5.14776         1.78989
LJ          -2.24536         1.25595        0.629643
LJ          -5.27287         5.55741         5.90888
LJ          -1.90649          1.4032         5.73639
LJ           4.89627          3.5538       -0.815845
LJ           5.59325        -3.94883        -4.72062
LJ           1.00428        -5.20598       -0.883293
LJ          -3.74796         2.70126        -4.31405
LJ           4.77978        -1.61801         4.57038
LJ           -6.0719        -0.57865         0.50211
LJ           3.17559        -1.25166        0.807432
LJ           1.17852        -4.42068        0.101154
LJ          -3.12347       -0.214545         2.81509
LJ         -0.966563        -3.65385        -5.72036
LJ           -6.3037        -5.41388         0.76472
LJ           6.34777         2.97577         6.07642
LJ             2.345        -3.96452        -5.19145
LJ           2.75278         4.48879         5.46738
LJ           2.57901         3.49183         1.00515
LJ          -3.00008        0.512276        -4.08666
LJ          -2.82591        -5.94007        -3.52973
LJ         -0.300448        -4.61537         1.40792
LJ         -0.793617        0.485683         2.56104
LJ           5.52016       -0.812395        -4.16164
LJ           1.33297         1.18726         2.32646
LJ          -2.14437         3.01853        -2.68901
LJ          -4.80124         2.82751         6.01335
LJ           -3.0726        -4.62431         5.60083
LJ          0.289063         6.17858         2.51666
LJ        0.00163655        -1.64963        -2.13057
LJ           -3.1799        -1.75563         5.69872
LJ          -4.23665        -6.00884        -1.92529
LJ          -4.60468        -1.83711         5.80198
LJ           0.21184           5.143         4.15805
LJ          -2.68037         1.06043        -2.77406
LJ          0.938844        -4.14112        -2.96533
LJ           2.13674        -4.59461          2.0289
LJ          -2.55963         1.94688        -2.11883
LJ           6.04296        -6.45328         3.31261
LJ          -2.99977         1.10879        -5.17083
LJ           4.24883         -1.9676       -0.774764
LJ          -4.20446       -0.227499         1.81866
LJ          0.588565        -5.22231         4.82105
LJ           4.46243        0.599086          1.6342
LJ          -2.87001        -2.72381          2.0773
LJ          -6.01589         3.51231       -0.403849
LJ          -4.37464        -1.68368         -1.7406
LJ           5.16086         1.84299       -0.646553
LJ           3.04138      -0.0689109         6.28411
LJ          -6.00927        -6.14738        -5.55452
LJ          -1.33523        -6.37311        -1.22457
LJ            4.1534        -5.00053        -1.78804
LJ           5.64981        -5.86295         1.07871
LJ           3.66709       -0.269941        -5.18056
LJ          -1.14366        -3.73457         3.74529
LJ           4.22773        -4.08561        -1.33021
LJ          0.316052        -6.03812         1.74391
LJ          -3.46121         3.82108         3.87803
LJ           6.35263        -4.39089         6.28015
LJ           6.19639        -1.41957        -4.98057
LJ          -2.88422         5.27992         2.38748
LJ          -3.97206        -1.40569         4.61137
LJ           1.07927         4.62453         2.33442
LJ           3.90178        -1.38112        -3.41719
LJ          -1.84469        -1.72867         1.96229
LJ          -3.62296        -2.28775        0.279847
LJ          -5.89807        0.574334        -3.07364
LJ          -5.29611        -3.85691        -2.71554
LJ            3.3566         3.41965         -1.3542
LJ           2.33001        -2.22871        -4.98753
LJ          -1.83141         0.58996         -4.2351
LJ           2.49775         4.79695         -5.5435
LJ            3.5045        0.154354        0.591201
LJ           4.37987        -6.19327        0.787732
LJ          -2.17568        -4.94533         6.26407
LJ          -1.88854          -3.223         -2.9562
LJ           3.45025         4.54908        0.367605
LJ          -2.18422         3.92475        -1.21348
LJ           4.89409        -5.99217        -5.00025
LJ          -2.24906        -3.97022        -1.64284
LJ           -1.0733         -4.2857         0.81917
LJ        -0.0233953         6.31156        -1.32283
LJ           3.01317         2.47142        0.215325
LJ           3.35292        -1.91688        -4.30196
LJ          -4.91094        -0.14146        -1.89738
LJ            2.5671        -4.49293        0.703384
LJ          -3.82959          4.3504         1.56487
LJ           6.24082        -4.74359        -2.91861
LJ           4.46555        -3.03682         1.06003
LJ           6.26003         1.90958        -4.16694
LJ           1.54019        -2.96725        -2.74862
LJ           1.21876        -6.39199         5.40033
LJ            1.2489         6.34202        -2.33773
LJ           5.81932        -5.24649        -5.34269
LJ           3.68879         3.46312         5.24011
LJ           4.03397        -1.39911         3.39689
LJ           1.13344        0.924019        -1.49522
LJ        -0.0382783          3.9597        -1.50039
LJ          -5.07596        -4.52442         2.23107
LJ            6.1258          -1.217        -3.44692
LJ            4.0272         3.35178      -0.0962925
