108
#Comment!
LJ           1.78206         1.20892        -5.53334
LJ          -5.90548        -5.69312        -4.38133
LJ          0.791567       -0.542128         -6.4353
LJ          -4.33172         5.78361         5.37727
LJ          -3.70417        -5.99084     -0.00556842
LJ          -2.65247        0.559869        -5.51963
LJ         -0.896321       -0.527703        -3.66778
LJ           5.84643          4.4329        -2.57135
LJ            -1.968         0.55865          6.1428
LJ           5.79263        -5.89589        -1.19169
LJ          -1.10517        -5.64455        -2.31071
LJ           3.35116        -1.87946         3.12181
LJ           3.01102         6.16329        -3.66878
LJ            -2.178        -1.52267        -5.96928
LJ           1.74204        -5.15157          1.3895
LJ          -5.58249         1.67764        -6.31158
LJ          -0.92276         4.10633        -3.05439
LJ          -2.44851        -3.99093        0.338232
LJ          -4.54389        -4.39137         3.75705
LJ          -2.22026         -2.6849         1.52244
LJ           1.45252        0.657699        -6.26355
LJ          -4.41805        -4.57761         5.05961
LJ          0.872643       -0.697707        -2.12055
LJ          -1.22128         1.47511         2.72519
LJ           -5.8384        -1.73632       -0.791298
LJ           2.80352        -3.30283        -2.07136
LJ           1.10557         2.85674        -5.53425
LJ          -4.64577         2.96442       -0.790826
LJ          0.203025         -2.5092          4.0086
LJ           4.14267        -1.47436        -6.15086
LJ          -4.58551         2.78991        -3.62702
LJ          -2.29623         3.22969         2.51045
LJ         -0.723032        -5.56514         3.29855
LJ           1.96777        0.474289        -2.68215
LJ           2.06839       -0.605836        -4.16608
LJ           2.61666        -1.23266         1.72607
LJ           -5.4495         2.32162        -5.26566
LJ          -4.19584        -1.10059        -3.33075
LJ          -1.31097         3.83952         6.35426
LJ          -3.98912         1.42009         1.88547
LJ         -0.947922        -2.40024         3.65391
LJ           1.58166       -0.488913         2.76154
LJ           5.20862        -1.70555        -2.87492
LJ           6.18906         6.21691          6.0035
LJ          -1.53578        -1.59844        -1.31598
LJ           4.70767        -5.12689         3.87816
LJ          -4.77597        -6.28454       -0.933035
LJ           3.10203        -2.16766       -0.106997
LJ          -5.25365        -6.20367         4.64043
LJ           1.03728         4.93541         5.93417
LJ          0.707253         5.67712        -2.26689
LJ         -0.909564        -1.20134        -4.38574
LJ           2.09713        -2.36651        -4.20918
LJ           4.19428        -2.61573        -3.25863
LJ         -0.123227        0.701678        -4.13984
LJ           6.28409         -2.2296        -1.09028
LJ            5.4896         -1.6751        -6.31104
LJ           2.40736        -4.96762        -3.93998
LJ          0.914653        -3.92737        -6.14584
LJ          -4.49784         2.31952         4.04456
LJ          -3.27202         2.44846        -4.21202
LJ          -5.33824         5.27837        -4.27386
LJ          -2.91518         -4.6227       -0.484319
LJ           6.22106         6.11453        -3.48148
LJ          -1.60852          4.8924        -1.07914
LJ          -3.77659        -5.48059        -2.50372
LJ           2.62913       -0.736848         5.93337
LJ          -3.39973         1.53081        -3.98291
LJ          -3.48081        -1.18121         3.71848
LJ          -3.38621         1.65456        -1.91978
LJ          -5.40438          3.0117        -4.44415
LJ           3.20296        0.745292       -0.441524
LJ          -2.52535         3.73999        -1.88041
LJ           4.04345        -3.15148         1.71117
LJ          -1.67311        -1.51424         3.62223
LJ           -5.4594         4.62281        -2.90057
LJ          -3.06131        -1.01849         1.30551
LJ           3.46032        -3.57156         3.64154
LJ          -4.38758         1.07263        -4.58961
LJ           2.89562        -3.66256         4.72473
LJ          -2.69734          5.6464        -4.40787
LJ           3.06061      -0.0828345         3.57922
LJ           2.48549         6.44165        -1.94511
LJ           2.03593         3.33085        -4.48258
LJ          -3.26207        -5.47845         1.49494
LJ          0.648168       -0.595778         3.15764
LJ            1.3897         5.88402       -0.703146
LJ          -5.40933         -4.7908       -0.615069
LJ           2.40539        0.984683        0.388194
LJ           3.28825         3.13087       -0.736648
LJ           1.85391        0.219287         4.44984
LJ          -2.37783        -2.18477        -1.08469
LJ          -1.32336         5.26871        -4.78736
LJ          -5.30627        -1.44972        -3.92303
LJ          -3.83534         6.16362        -5.91928
LJ           4.98806         4.40238        -5.66516
LJ           3.44297        -1.88103          5.3081
LJ           3.71276        -0.89107         3.04697
LJ           2.96419        -5.68616         5.77763
LJ            2.1289        -3.68409         2.67701
LJ           1.49828         4.79098       -0.580345
LJ         -0.907785        0.691443          4.3601
LJ           6.09441        -1.10896       -0.894365
LJ          -2.34093        -6.37012       -0.796122
LJ          -1.52571        -4.20419        -5.88296
LJ           1.37786         -5.0797         6.10485
LJ           4.76698        -1.13539          3.9257
LJ          -6.06669        -5.97782       -0.683176
