108
#Comment!
LJ          -5.76422         5.64454         6.12799
LJ          -4.66241        -3.49672         5.93632
LJ          -5.61436        -4.39399         -5.2926
LJ          -4.65879        -6.18841        -5.15444
LJ           -1.3776        -5.09281        -6.45787
LJ        -0.0449266        -3.63069        -6.29566
LJ          -1.99656        -4.77268        -3.66729
LJ         -0.594455          -6.209        -4.77318
LJ           2.17538        -6.22416         6.28043
LJ           3.78635         -4.8898        -5.60966
LJ           2.80176        -5.12912        -4.20203
LJ           4.18942         6.12051        -3.75683
LJ           6.42009        -1.81158        -5.68872
LJ          -4.94311        0.291065         6.40567
LJ           -6.1657        0.771977        -3.76671
LJ          -4.99638          -1.587        -4.31903
LJ          -2.05103        -1.46023         5.96664
LJ        -0.0602252         -1.0119        -5.78822
LJ          -1.44762        0.392615         -4.3595
LJ          0.352903        -2.33199        -3.56799
LJ           3.89816         -2.3675         6.28594
LJ           4.80406        0.678161        -6.31219
LJ           3.74281        0.159115        -4.96417
LJ              3.01        -2.67294        -3.90821
LJ          -5.17557         3.08353        -6.28293
LJ            -4.116         4.29956         6.33051
LJ          -4.98791         4.68139        -3.98225
LJ          -4.33955         2.70235        -4.15998
LJ          -1.37576         1.61323         6.18186
LJ          -1.59738         4.72727        -6.11878
LJ          -2.08577         4.86842        -3.76029
LJ         -0.605866         3.30289        -4.05705
LJ           2.67341         2.37381        -6.04075
LJ           3.96746         3.80181         6.04854
LJ           2.76306         4.71201        -4.83614
LJ           3.90076          3.0996        -4.03462
LJ          -5.25841          6.2482        -1.92864
LJ           -5.8655        -3.84292        -2.90717
LJ          -5.05318        -4.45149       -0.486198
LJ          -4.93495          6.0205        0.517987
LJ          -2.20817        -6.36062        -1.49141
LJ         -0.684079         -4.9619         -2.3636
LJ          -2.15708        -3.87456     -0.00271328
LJ         -0.784187         6.38716        0.372405
LJ           2.57009         5.85262        -2.18006
LJ            4.7444        -4.20295        -2.22537
LJ             2.943        -5.51216        0.533824
LJ           4.35102        -6.36461       -0.429424
LJ          -6.35747        -1.53672        -2.54787
LJ          -4.78421         1.00641        -1.77276
LJ          -6.32514       0.0764825         -0.3102
LJ          -5.13636        -1.87873       -0.582803
LJ          -1.50992        -2.07999        -3.16014
LJ         0.0845509        0.659514        -3.41551
LJ          -1.62626        -0.32629        -1.00827
LJ         -0.313677        -3.46868      -0.0541856
LJ           2.87326        -4.15341        -1.62819
LJ           3.45839        0.413059        -2.51003
LJ           2.06989       -0.697548       -0.443137
LJ           3.68315        -1.57845       -0.245041
LJ          -6.34076         2.65869        -1.92666
LJ          -4.81892         3.71314        -1.43066
LJ           -6.1339         4.03822        0.664348
LJ          -5.01279         1.93514        0.854439
LJ          -1.35016          2.5297        -1.71045
LJ          -1.09967         4.80052        -1.73653
LJ          -1.56248         4.14489        0.598647
LJ         -0.111838         2.07929       -0.111595
LJ            2.3008         2.98617         -2.3023
LJ            3.4339         4.06013        -1.36381
LJ           2.41837         4.25785         0.25596
LJ           3.31855         1.79872        0.120711
LJ          -6.16326        -6.26705         1.93022
LJ          -4.99174        -4.50526         1.93292
LJ          -6.11454        -4.87634         4.30945
LJ          -4.53176         6.43252         4.02065
LJ          -1.54847        -5.76234         2.48423
LJ         -0.189337        -4.64328         2.46303
LJ          -1.43911        -3.13687         3.84209
LJ          -1.00298        -6.18987         4.73985
LJ           2.63353         5.96145         2.69287
LJ           3.58509         -4.3763         2.17753
LJ           3.06065        -4.25784         4.45092
LJ           3.58581        -6.46238         5.02497
LJ          -6.23892        -2.51756         1.05787
LJ           -5.8718       -0.413843          2.0581
LJ          -6.02517        0.598215         4.08904
LJ          -5.20206        -2.44473         3.74531
LJ          -2.45623        -1.67281         1.72471
LJ         -0.676714        -1.61459         1.82917
LJ         -0.888973        0.505506         3.60745
LJ          0.600907        -1.93668         4.22694
LJ           2.87604        -2.40133         1.65646
LJ           3.41618      -0.0809302         2.03257
LJ           2.86949        0.039547         5.23163
LJ            4.4728        -2.25172         4.28307
LJ           6.44577         1.74053          1.7586
LJ          -5.28844         4.37937         2.44434
LJ           6.35611         4.11656         3.85185
LJ          -4.34972         1.87436         4.11813
LJ          -1.33131         1.27556         1.01595
LJ         -0.501664         4.25647           2.438
LJ            -1.454          4.0297         4.08524
LJ         -0.417449         2.20453         4.83275
LJ           1.97138        0.860086         2.90664
LJ           3.47472         3.79596         2.02991
LJ           1.80129         4.53933         4.71917
LJ           3.32957         1.84671         4.13798
