108
#Comment!
LJ          0.164883         5.90733         5.41323
LJ           2.20051        -2.91097         6.12301
LJ           -2.5079        -3.61282         -4.7961
LJ           2.37762        -4.74057        -4.95492
LJ             4.414        -4.30474        -5.47226
LJ          -5.81935         -3.8051         5.94767
LJ           3.90324        -5.01484        -2.25999
LJ           -4.9774         6.07148        -3.36727
LJ          -5.22794         5.83285         4.78908
LJ          0.953697        -5.79891        -6.28016
LJ          -6.34178        -5.13586        -6.13758
LJ          -1.88327          5.6074        -3.54859
LJ         -0.503089        -1.35716        -5.13994
LJ           2.12415       -0.061332        -5.82994
LJ        -0.0513344        0.815405        -2.77963
LJ           2.80886         -2.5273        -3.79492
LJ           3.05268       -0.613216          6.3538
LJ          -5.99199        -2.19278         6.36226
LJ           1.23568         -2.3662        -3.93135
LJ           1.62444        -6.12771         4.52493
LJ          -3.02113        -2.99987         6.09814
LJ           1.64381         3.01667         4.30338
LJ          -2.91972        0.485222        -6.28484
LJ          -2.34351        -2.16799        -2.96607
LJ        -0.0316956         6.37121        -6.37178
LJ           3.01657         3.30006        -6.21096
LJ         -0.139858         6.17565        -4.33376
LJ           2.82093         1.75163        -5.58648
LJ           4.23581         1.54139         5.50439
LJ          -6.26847         2.77638        -3.68652
LJ           4.15399         4.08304        -3.69825
LJ          -5.98574         3.68753        -2.92902
LJ          -4.61123         2.30357         5.69647
LJ          -1.58753         3.21439         6.07422
LJ          -4.85383         5.22091        -6.03776
LJ         -0.977806         1.82896         -3.4113
LJ          0.699078         5.31582        -1.85718
LJ          0.490228        -4.65411        -3.27947
LJ          0.616505        -4.11843       -0.660202
LJ           1.95342         -6.2183         1.05741
LJ           3.86545        -6.04895        -1.71221
LJ           6.37491        -5.27832        -4.16043
LJ          -3.53856         5.73026      -0.0546226
LJ           5.20741         5.59577         1.74273
LJ          -5.93897         6.42846         -4.1246
LJ           4.93875        -4.78165         5.71241
LJ          -4.53486          6.0876       -0.790914
LJ          -1.92573        -6.03591        0.503898
LJ         -0.252158        -1.67344        -2.82682
LJ           3.72832         1.94511        -4.36169
LJ          -2.01753         2.90238        0.634305
LJ           1.74795        -1.62396       -0.398504
LJ           -1.5583        -1.88462       -0.241328
LJ          -5.35113         1.28736        -1.16479
LJ           3.80863       -0.645741       -0.808594
LJ           2.95184         1.31442       -0.945515
LJ           2.31723        -3.64104         3.96903
LJ          -2.57712         0.42773         -2.4192
LJ           4.70328          3.3281        0.972161
LJ         -0.462318        -4.51991        0.687121
LJ          -2.61355          3.5397         -1.7068
LJ          -6.32007         2.37577         1.35053
LJ          -2.70987         4.76804       -0.119586
LJ           2.70487         1.95687        -2.57975
LJ           3.98931         4.53434        -2.57719
LJ          -5.16034         5.32332       -0.149002
LJ           4.35817         3.84315         1.76081
LJ          -5.98597         1.34833        0.475285
LJ           4.77514         4.46521        -5.15495
LJ          0.263249         1.43404        -1.40309
LJ          -6.05741         4.38946       -0.836023
LJ          0.196045         3.32769        -1.54329
LJ         0.0549594        -6.38771         1.86958
LJ           3.93068        -4.23719        0.402622
LJ         -0.312197        -6.08177         4.40437
LJ           2.34348         6.29993         4.23745
LJ           2.93501        -5.58084          3.1276
LJ          -6.31611         -4.7959         2.54872
LJ         -0.412522        -4.00803         1.57369
LJ           6.45433        -4.33974          4.1271
LJ          -4.28511          5.8445         3.06775
LJ          -2.22623        -5.10897         2.21054
LJ          -3.80979        -4.14632         4.57843
LJ          -2.28269         -6.2227        -6.17513
LJ          -3.78198        -6.13242        -1.50472
LJ           1.01949     -0.00556355         1.79424
LJ         0.0102116         2.98099         4.94221
LJ           1.61572        -2.34242          3.7778
LJ          -3.53084         1.32587         2.54775
LJ           4.21013        -0.95983         3.88212
LJ           4.58326         1.61414         2.69292
LJ          -5.32728        -3.57102         3.87073
LJ          -4.06394        -2.38036         1.63432
LJ          -2.09926         0.81887         2.44513
LJ          -4.61777         0.64481         4.94742
LJ           3.41506        0.473442         5.73222
LJ          -2.67737         1.43468         5.92098
LJ           2.06835         5.24691         2.26976
LJ          -2.26246         4.72202         5.26343
LJ           2.91935       -0.466793         4.02959
LJ           0.88018       -0.437519         4.27389
LJ          -3.39802         3.73435        0.212039
LJ           4.24716         3.24813         4.59873
LJ          -6.13488         1.03083         4.78692
LJ          -5.03386      0.00270262          2.4613
LJ          0.189534         3.69278         2.09518
LJ          -5.04106         4.44661         5.48395
LJ          -2.34211         0.69854         4.27805
