108
#Comment!
LJ           1.77129        -3.64183         2.14779
LJ          -1.39669         4.89127        -5.77872
LJ          -5.49783         4.13883        -3.98752
LJ           1.61158        -0.97562        -4.70446
LJ          -6.11695         2.68426         2.03266
LJ          -3.36948       -0.109161        -2.51451
LJ           3.58518      -0.0297112         -3.2282
LJ          -3.11275        -6.38328        0.958757
LJ          0.752842         2.52173        -1.06904
LJ          -1.59356         2.06323        -4.98366
LJ          -1.52889         1.52098         6.21785
LJ           4.60431         4.68556       -0.596506
LJ           2.09429        -4.88827        -3.71624
LJ           1.62961        -6.34863        -2.02216
LJ         -0.549375         1.62283        -5.50561
LJ           4.77995        -1.71242        -6.28241
LJ           6.30472        -3.11725        -2.07438
LJ           1.14471        -2.61667        0.656798
LJ           2.83342        -2.88705        0.626478
LJ          -2.33083       -0.441264         2.52466
LJ           -2.0206        -1.89301        -5.63673
LJ          -6.09588        -3.95284        -1.79904
LJ           5.53577         2.77964         3.96109
LJ           2.99733        -3.52765         5.54426
LJ           4.65753         3.20541        -5.46785
LJ           5.29652         5.35062         1.37188
LJ          -5.79531        -1.22662        -6.34396
LJ          -1.36195        -4.24587        -5.35239
LJ          -2.00847        -5.06323         2.56672
LJ          0.708236         2.05596         3.94988
LJ           3.09959        -1.16279        -3.28051
LJ           2.14471         1.71221         1.78286
LJ          -1.87633         4.07366         -1.2347
LJ          -2.08122         5.01415         5.23557
LJ           -1.9816        -6.03492         2.93575
LJ          0.500097         -6.3516         5.16521
LJ         -0.787354        0.901535       -0.776118
LJ          -2.93288        -1.25989         6.45328
LJ          -3.69918        -5.62528        0.976459
LJ          -4.17776        -1.25421        -6.19057
LJ           -2.0409        -5.16093         5.52632
LJ          -2.32104         1.37154       -0.552336
LJ         -0.322747         0.43839        -3.48279
LJ           5.03001         -5.1933         3.84534
LJ          -0.41832         1.38396        -3.35175
LJ          -6.36513         6.08228         1.96365
LJ         -0.841243        -1.21552        -5.44174
LJ          -6.26739         -4.1406        -0.48625
LJ          -1.04388        -3.38347         3.80343
LJ         0.0630651       -0.551428         2.95849
LJ           3.46588       -0.342436         1.59212
LJ           -4.0301         -3.2628         1.42419
LJ           5.59636         2.39271        -5.08519
LJ          -6.20496        -3.20265        0.751913
LJ           6.10345        0.799028       -0.388504
LJ           3.33792      -0.0163303        -5.43124
LJ           6.34978        -6.03484        -4.97106
LJ         0.0168589        -4.79925        -1.62739
LJ           4.10869         5.90749        -2.59846
LJ           5.64473         5.32031         2.72884
LJ           4.78962         1.68292        -4.02677
LJ          0.879515        -5.47101         2.62548
LJ           1.87904         -3.8734        -2.97882
LJ          -0.90402        -5.69954       0.0211674
LJ          -2.16816         4.35131         4.23493
LJ          -3.58245         -4.3271        -4.97508
LJ           5.01231        -2.88069        -5.23692
LJ          -1.65857         3.48038        0.832323
LJ          -2.46988        -1.98653         3.45494
LJ         -0.705587         5.41097         4.88495
LJ           2.79819        0.499014        -4.66868
LJ          -2.45371        -3.13403          1.9565
LJ           5.08232       -0.206926          2.1049
LJ          -5.96433         2.67414         -4.2916
LJ          -3.97238        -1.72231        -3.07807
LJ          0.846467         3.46419         -1.9629
LJ         -0.414644         -3.9548          5.4895
LJ          -1.28039       0.0610071        -3.29216
LJ           2.60205         2.11019        -5.51721
LJ           1.47668       -0.707154        -1.17379
LJ           5.47693        -5.87378       -0.443339
LJ         -0.438779        -5.29233        -5.49416
LJ          -2.45862        -4.55479        -1.81605
LJ           2.68032         2.70396       -0.493687
LJ          -5.73797         1.60245          1.9524
LJ          -6.44261         5.40164         -5.6869
LJ          -2.25324         -3.1976        -1.35716
LJ          -2.40256         -4.0231         2.52526
LJ          0.981093         4.63864       -0.281001
LJ           2.99589         1.89655         1.26762
LJ           4.45678        -1.44584          -5.406
LJ          -3.75236          1.7139        -2.25353
LJ         -0.634296        -3.29499         2.80777
LJ          -5.84337         3.62526         3.35499
LJ           5.30368        -2.87033       -0.986908
LJ          -5.83733        -3.22588         2.57255
LJ           3.80194          3.0489        -4.54558
LJ           1.72986        -2.05517        -2.63654
LJ          -1.75741        -6.30572        -5.56595
LJ          0.572329          5.2041        -2.60964
LJ           5.93595         5.81702         6.19999
LJ           3.29343         3.73136         6.40156
LJ           3.87155        -1.41555         1.90938
LJ          0.733209        -1.22848       -0.575782
LJ          -3.19269         3.64079        -3.96468
LJ          -4.49537        -5.74438         3.54645
LJ           5.89567         1.38783        -1.57313
LJ           5.05466         3.77346         0.37609
