108
#Comment!
LJ          -1.53326        -2.27933         1.53756
LJ           3.85698        -1.49924       -0.160424
LJ          -4.20707         2.54397       -0.471485
LJ           -2.7135          4.5486        -2.46214
LJ          -3.54134         4.33348         2.38898
LJ         -0.064473        -2.47248         1.71092
LJ         -0.576781        -4.50105        -1.73547
LJ          -4.00166        -4.30009        0.968824
LJ           1.52907        -3.31083        0.546873
LJ           5.47617        -4.29005        -4.37699
LJ            3.5265          5.6857        -2.38976
LJ           4.80793        -4.33924       -0.957498
LJ          0.665942        -2.48252        -6.24152
LJ           1.20389        -5.12988        -1.44393
LJ          -4.85874         3.90024          6.2236
LJ           4.08404         2.69989         3.87586
LJ           3.70014        0.340464        -4.90176
LJ          -4.42505         1.07654         1.63962
LJ          0.935192          1.8479        -4.98417
LJ           -1.7162        -4.59438         4.54325
LJ            -3.729        -3.38374        -4.77399
LJ          0.522295        -6.39531         4.89447
LJ          0.370368        -1.51791         5.80345
LJ          -5.83952        -5.25387         5.91806
LJ          -4.53189         4.51378        -4.98225
LJ          -6.32475        -1.39073       -0.272239
LJ            -1.885        -5.77376       -0.639107
LJ           4.63066         5.32215        -0.56813
LJ          -3.36325        -1.52749         1.90442
LJ          0.768988         5.42907         -2.1807
LJ          -2.80095         1.24926        -2.83342
LJ           1.76102        -4.14542        -1.05036
LJ           3.58424        -1.44281         2.84254
LJ           -4.0239         1.23382         5.63491
LJ          -5.32821        -1.80283        -3.73883
LJ            4.7694         2.01832         4.16799
LJ          -5.74725        0.113762        -3.65821
LJ           5.40163        -5.96221        -4.44511
LJ          -4.72101         4.36087        0.710314
LJ          -3.59303        -2.99665         -6.1232
LJ           4.09603        -4.78211        -1.64137
LJ           6.10796        -5.49829        -1.34903
LJ          -3.41776        0.280311        -5.39359
LJ          -4.73799        -6.01005        -1.99283
LJ           5.75181         1.13696         5.70791
LJ          -3.50345         4.72314        -3.87876
LJ          -5.28351        -4.77659         0.89105
LJ          -4.61903        -0.87846        0.794526
LJ          -1.59825         5.67936        -2.15636
LJ           3.52196        -2.84468         -6.1608
LJ          0.168072         1.09124        -5.19569
LJ          -5.41832        -4.39067       -0.565934
LJ          -1.51391        -1.39861         3.91829
LJ          -2.40407         3.71903      -0.0367711
LJ          -2.43566         5.10065          1.0324
LJ           3.59175         4.02554          1.1574
LJ           -4.3175        0.120677        -4.35895
LJ          -5.27429         5.18065        -4.46571
LJ         -0.692199         2.55659        -1.08048
LJ          -6.08426        -6.06528        -5.84558
LJ          0.470901        -2.25413       -0.488543
LJ          -6.12264          3.9542        -5.50751
LJ           3.56574        -4.41112        -2.76267
LJ           5.73435          3.0949        -2.98888
LJ          -5.42083         3.34629       0.0540504
LJ          -1.97481        -4.54831         5.71126
LJ           5.65225         4.72947         6.02341
LJ          -1.06274         4.90836         5.22124
LJ           5.30144       -0.664299        0.453044
LJ          -6.21618         5.45881         4.54387
LJ          -5.61934        -1.56835        -5.63733
LJ          -4.36282        -4.15228        -5.32916
LJ            1.3492        -2.83329         5.79113
LJ           1.57824        -1.53083         5.26059
LJ         -0.699958        -6.09158        -5.40754
LJ            6.3301         4.16247          2.4977
LJ          -3.62524         4.07741         4.29945
LJ            -6.305         4.59652        -4.63516
LJ         0.0640856          3.6295         2.55277
LJ           4.51807        -5.24766        -5.90271
LJ          0.444845        -6.10909        -5.19699
LJ            3.7679         4.14014         3.39803
LJ           5.91768       -0.843781         2.77768
LJ           6.11426         -2.5396          5.5306
LJ           1.26761        -5.06071        -4.45533
LJ           2.11506         6.06588        -1.18342
LJ          -1.85924         3.52405         6.06267
LJ           1.09262        -1.55967         4.16654
LJ           6.22764          -6.052        -3.07126
LJ           4.89372         5.12456         5.57584
LJ           3.86558         6.16749       -0.438522
LJ           3.80535        -3.08433         -1.4824
LJ          -5.15485        -4.76963        -1.70912
LJ           2.85936         1.59828        0.415632
LJ           4.11121        -3.86023        -4.93727
LJ           2.02634        0.670389        -1.32517
LJ          -5.88615          -6.184         3.74668
LJ          -2.67528         3.38676        -4.20229
LJ           5.33025        -3.48574         2.29436
LJ           6.07408         4.06531        -6.11606
LJ           1.14647        -1.59575        -5.78923
LJ         -0.412491        -4.96337        -2.80665
LJ          -5.44205            4.84        -6.44052
LJ           3.77996        -3.20948        -3.23315
LJ           1.70168        -2.27131         1.62484
LJ           2.00648         2.54237         1.91763
LJ           5.03185       -0.595855         6.39683
LJ          -2.23733       -0.771981        -6.27606
