108
#Comment!
LJ          -4.01939         5.46966         6.17662
LJ          -6.37244        -3.50865         5.95978
LJ          -3.91548        -4.42993        -5.31843
LJ          -6.35849        -6.15632        -5.18281
LJ          0.332945        -4.94228         -6.4338
LJ          -1.75344        -3.80266        -6.31625
LJ         -0.280857        -4.85495        -3.38156
LJ          -2.30372        -6.17136        -4.76077
LJ           3.89953        -6.24586         6.00625
LJ            2.0733        -4.98029        -5.39141
LJ           4.51552        -5.12607        -4.40595
LJ           2.46231         6.12555        -3.71768
LJ          -4.79732        -1.77745        -5.47068
LJ           6.28262        0.285121         6.40503
LJ          -4.46782        0.786133        -3.73996
LJ           6.20617        -1.61762         -4.4924
LJ          -0.31225        -1.39241         6.16128
LJ            -1.789        -1.07973        -5.96957
LJ          0.150346        0.224129        -4.89081
LJ           0.29938         -2.8795        -4.46275
LJ           5.59922        -2.36723         6.25045
LJ           3.07518        0.595683        -6.17026
LJ           5.44642        0.248868        -5.19037
LJ           1.28595        -2.68863        -3.91362
LJ          -3.45681          3.4705        -6.35407
LJ          -5.84664         4.12221         6.40361
LJ          -3.28361         4.65139        -3.99369
LJ          -6.04207         2.72515        -4.15998
LJ          0.325462          1.6947          5.9818
LJ          -3.31819         4.71957        -6.10875
LJ         -0.381071         4.77535        -3.76735
LJ          -2.31778         3.41318        -4.02806
LJ           4.39312         2.42127        -6.07498
LJ           2.24308         3.76761         6.03511
LJ           4.46959         4.69546        -4.79122
LJ           2.18873         3.14609         -4.0236
LJ          -3.55634         6.23955        -1.92047
LJ           5.32344        -3.84138        -2.90795
LJ          -3.34647        -4.45369       -0.472874
LJ           6.28083         6.05194        0.651359
LJ         -0.491659        -6.35973        -1.50792
LJ          -2.40328        -4.97957        -2.63428
LJ          -2.31223        -4.84678        0.114471
LJ          -2.48673         6.38954        0.342594
LJ           4.28816         5.84575        -2.23588
LJ           4.30922        -4.30013        -3.35463
LJ            4.6521        -5.70184         0.31679
LJ           2.63323        -6.16254       -0.219838
LJ          -4.65175        -1.54205        -2.57693
LJ           6.42347         1.05078        -1.74905
LJ          -4.61945       0.0900256       -0.346328
LJ           6.08183        -1.87166       -0.540486
LJ          -1.42358        -1.52422        -2.26935
LJ           -1.5126        0.803636        -2.90422
LJ         0.0684241       -0.316605        -1.00821
LJ         -0.178026        -2.50741       -0.166245
LJ           3.34785        -4.08102       -0.523873
LJ            1.7661        0.414099        -2.50358
LJ           3.47733       0.0673222       -0.615537
LJ            2.2801        -2.34225      -0.0416642
LJ          -4.57758         2.74387        -1.85117
LJ           6.35758         3.54765        -1.49269
LJ          -4.42893          4.0476        0.711391
LJ           6.45891         2.10459        0.102116
LJ          0.355672         2.51975        -1.63181
LJ          -2.80519         4.85295         -1.7477
LJ          0.141607         4.14688        0.629602
LJ          -1.82995         1.95905       0.0261466
LJ           4.01706         3.16811        -2.19382
LJ           1.71406         3.92609        -1.42684
LJ           4.12995         4.23039        0.192155
LJ           1.62125         1.80357        0.121827
LJ          -4.44575        -6.27516         1.82056
LJ           6.23234        -4.56169          1.9269
LJ          -4.40602        -4.94713         4.29363
LJ          -6.24468        -6.42306         4.02385
LJ          0.205835        -5.75386         2.48327
LJ          -1.94982        -4.63885         2.47104
LJ          0.291153        -2.94072         3.88748
LJ          -2.69587        -6.17219         4.75243
LJ           4.32648           5.953         2.69433
LJ           1.88715        -4.36991         2.15772
LJ           4.75855        -4.24661         4.44496
LJ            1.8696        -6.41365          5.3294
LJ          -4.53127        -2.49412         1.00309
LJ           5.36395       -0.396288         2.05331
LJ          -4.31195          0.8729         4.08127
LJ           6.03095         -2.4569          3.7471
LJ          -3.19047        -1.84623         1.42294
LJ          0.063723        -1.45985         2.14115
LJ           0.81305        0.524822         3.61975
LJ          -1.13693        -2.13277         4.16737
LJ           4.57126          -2.405         1.64013
LJ           1.69898        0.139185         2.23521
LJ           4.58237       0.0938941         5.29937
LJ           2.77337        -2.27563         4.31822
LJ           -5.0268         1.56259         2.51082
LJ           5.92717         4.34517         2.58868
LJ          -4.85729         4.15841         3.64113
LJ          -6.07117         1.60362         4.10074
LJ          0.378942         1.42862        0.788915
LJ          -2.20701         4.24251         2.48994
LJ          0.252424         4.01626         3.99867
LJ          -2.12221         2.12658         5.00453
LJ           3.70102        0.700118         2.78887
LJ           1.77504         3.81623         1.98189
LJ           3.51962         4.52841         4.79161
LJ           1.61717         1.75514         4.06551
