108
#Comment!
LJ           3.13285         1.67331        -4.74489
LJ          -4.21091        -4.60992        -2.54586
LJ           3.40195       -0.755482        -5.93812
LJ          -2.14917         4.29045         5.56701
LJ          -5.54413        -4.34823         1.31647
LJ           -3.7346         4.24184         5.53698
LJ          0.826714         2.05883         -2.2165
LJ            4.8188         4.73723        -4.77443
LJ          -1.11026        -3.01143       -0.989043
LJ           6.42744        -6.06582        -1.18905
LJ          -1.02792         2.37606        -1.42147
LJ           3.16131        -1.12371         2.99608
LJ           3.38364         -5.4208        -2.56654
LJ          -5.20923        -0.82014        -3.36929
LJ          -1.25006        -4.09788         -1.3499
LJ            6.2036        0.802486        -4.09744
LJ          -3.01912         4.54985        -1.76059
LJ          -1.83919        -4.00911       -0.307966
LJ          -3.47918        -2.05922         2.56182
LJ          0.330761        -4.18606         1.75024
LJ           2.00901        -1.11216          6.2394
LJ          -3.49505        -2.37574         3.58774
LJ         -0.664344       -0.531642        -2.11561
LJ          0.279848        -0.32793         1.68966
LJ          -5.37764         0.56535        -1.43865
LJ           3.56929       -0.220607        -2.03267
LJ         -0.493172         2.15848         5.57479
LJ          -4.49162         3.99303        -1.31453
LJ          -1.26708        -1.97235         5.69255
LJ           2.77297        -3.98991        -6.18162
LJ          -6.42732         1.70134        -4.81764
LJ          -4.13363         2.27116         2.58931
LJ          -1.06481        -2.96925         1.64901
LJ           4.62817         1.32167        -4.21726
LJ        -0.0964543        -4.19569        -3.23688
LJ          -5.76675         2.01987      -0.0845117
LJ          -4.70257         1.12186        -3.41093
LJ          -6.40267        -1.53003        -4.26317
LJ          -1.70308        -5.88441         4.41336
LJ          -3.52836         1.89413         4.02944
LJ          -3.97902      -0.0955803         5.64446
LJ           3.92588        -1.07447        -1.22651
LJ           4.96471        -5.09161        -2.56356
LJ           6.35442        -6.03749        -5.92364
LJ          0.257674        -2.13162        0.152383
LJ           1.91972         3.75296          5.0266
LJ          -3.35762        -5.98227        -1.87891
LJ          0.213723        -5.13731        0.865033
LJ          -2.77566        -3.65327         4.85011
LJ           2.15945         5.43706           5.198
LJ         -0.378181         3.39743        -2.06057
LJ          -4.85937        -2.04852        -4.80814
LJ           1.77142        -2.07446        -5.14645
LJ           2.03494         5.73282        -4.58686
LJ           2.90431        0.285312        -3.87132
LJ           5.56796        -3.60737        -1.72177
LJ          -4.91296         -1.6513         5.56126
LJ           1.66145        -4.92307        -4.70435
LJ          -1.40413        -6.08205         5.60508
LJ          -4.54726        -1.09842         2.97068
LJ          -2.41394         3.18616        -1.01015
LJ          -5.64108          4.8896        -4.76793
LJ          -3.41278        0.467981        -1.96245
LJ          -4.66849         5.09234        -6.19421
LJ          -3.86676         4.89196        0.727082
LJ          -3.26869        -5.46903        -3.43779
LJ           1.44258        0.326924          1.8824
LJ          -1.12111       -0.274839          -4.503
LJ          -3.15743       -0.851387         1.47301
LJ         -0.448219        0.175176        -0.24224
LJ          -6.42453         4.15348        -4.10192
LJ           2.98422        -3.75307        -1.15784
LJ          -1.30779         1.90507        -2.51991
LJ            4.7023        -3.10176        -1.37005
LJ          -3.68725          1.1954        -4.23292
LJ           6.12584         5.04762        -5.68816
LJ           6.41191        -3.46937        0.765416
LJ           4.93472        -3.43223        -5.62574
LJ          -5.46445         2.89717         4.99103
LJ           2.72637        -5.12672         5.86299
LJ          -1.69354        -4.39882        -2.92204
LJ          -6.33541         1.77569         3.93442
LJ           5.13034        -6.30443       -0.622039
LJ         -0.739929         1.54753         6.44365
LJ          -2.21879         6.44351          3.5208
LJ         -0.986756        -1.90639         2.69113
LJ           1.30609        -4.68171           1.942
LJ           5.54418         -4.8409        -1.73462
LJ           2.54422         1.88392      0.00200158
LJ           5.85746         4.84329        -2.70191
LJ           2.22838        -1.16704         5.21191
LJ          -4.41109       -0.175025        -2.85407
LJ          -3.08136         3.43009        -4.18628
LJ           5.82354         -2.3304        -1.26224
LJ        -0.0268512         -4.4708        -6.30924
LJ          -6.41599         4.92968         5.92905
LJ           3.45113        -2.25897        -6.43431
LJ           5.58134         1.19827         3.59252
LJ           2.79738        -5.66751        -6.22101
LJ           1.50549        -3.76888         3.09435
LJ          -1.36402         5.56067         1.22257
LJ          -1.74415        -1.04851          3.5462
LJ           5.31506        -3.20693        -2.76749
LJ          -3.18561        -3.87683        0.532504
LJ       -0.00160514        -1.38071        -2.10607
LJ            3.7485        -4.54489        -6.28802
LJ           6.22179        0.418554         2.73269
LJ          -5.42791         -6.3888       -0.771362
