108
#Comment!
LJ          -2.13115         1.39681        -1.02508
LJ           1.12138        0.496596       -0.290636
LJ         -0.687985         1.97567          1.5875
LJ           1.13646        -1.68306        -4.15832
LJ          0.643372        -1.05056          4.1567
LJ           6.14197        0.332946         4.54889
LJ           2.73042         3.46041         1.20717
LJ           4.12214         4.05811         1.56052
LJ         -0.528892      -0.0669684        -5.14684
LJ          -4.60803        -5.19216         4.43329
LJ          -3.54204        -3.81618         6.17712
LJ          0.424818         6.35002      -0.0286924
LJ          -1.06579          5.6919       -0.410685
LJ           6.05714        -2.49211         2.51366
LJ          -3.36153         5.51943        -3.32135
LJ           1.64918          0.1702         1.71373
LJ           1.09983        -3.52768        -2.36061
LJ           6.35328         5.87842        -5.79278
LJ             3.208         1.68839       -0.349691
LJ          -1.49658        -5.31362       -0.126889
LJ          -1.41501        -1.20583        -3.05953
LJ          -2.08142       -0.428408        -4.35478
LJ          -6.30035       -0.561163        -3.89076
LJ           3.66162         2.16339         6.03434
LJ           -5.8769         5.46431          5.3396
LJ           5.99136         2.88614         1.86995
LJ          0.927832         -1.1373          3.0738
LJ          -5.73899        -3.49201        -3.89595
LJ           5.61459         4.07209        0.313004
LJ           -3.8888         2.36921        -2.10358
LJ            4.2401        0.106662         3.31921
LJ          -1.43964         1.75783         3.81284
LJ          -5.72613           -1.98        -2.92637
LJ           4.95715         2.56981         2.42418
LJ           6.00213         4.19512         2.88753
LJ          -4.46883         1.01154         -5.8813
LJ           5.38175        0.941925         3.44755
LJ          -2.15703        -2.55166        -5.22622
LJ          -4.81176        -4.84331        0.813572
LJ         -0.740147         6.44548         1.66988
LJ           -1.1053         3.24514        -1.89521
LJ          -1.47518         4.52415        0.532138
LJ           2.23724         5.76332         1.63602
LJ          -3.19218        -6.18195       -0.290961
LJ           1.67349        -0.58198        -5.52883
LJ           2.10185         2.59078        -3.35836
LJ          -1.42851        -3.89859         2.78594
LJ           2.74965        0.193937         5.61399
LJ          -5.34566         4.77633        -5.21266
LJ          -2.30574         6.33527        -2.70238
LJ           5.75698          5.4498         2.96342
LJ          -3.57332        -3.99482        -4.39193
LJ          -2.20129        -4.07545        -5.44253
LJ          -5.94269         4.41513         -3.6534
LJ          -5.35822        -5.67161        -4.64493
LJ         -0.745576        0.713425         2.07786
LJ          -2.53069         3.86846          1.3765
LJ         -0.955038         1.20629        -2.72979
LJ           3.12427         -4.2928         2.85173
LJ           2.23149        -3.67793         4.31231
LJ          -1.54481         1.98505        -0.29919
LJ          0.699168        -5.12362        -5.98097
LJ           4.39803        -4.42155         -4.3264
LJ           3.41454         4.20074         3.37391
LJ         -0.821145         2.77045        -2.89612
LJ            3.8422        -1.33027         1.23897
LJ          0.114491         4.36789        0.853251
LJ          -3.80443         2.33379         3.33874
LJ           2.06509       -0.437304         4.93071
LJ         -0.918633        -3.42428        -6.36002
LJ          -1.97283         5.46743         3.53064
LJ          -5.69271        0.455947        -3.87942
LJ           4.86264        -6.36176         5.21104
LJ          -4.21163        -3.09818        -4.16294
LJ          -3.63776         1.69071         6.12609
LJ           4.58196         4.82551         2.66513
LJ          -2.69583         5.27761         2.32319
LJ          -4.98119        -2.15282        -2.11172
LJ          -1.32086         0.49056         4.22518
LJ           1.17999        -2.88376        -1.30859
LJ          0.182675         2.84728         2.52139
LJ         -0.522782         6.05111         2.80982
LJ           1.24452         2.38875        -5.10427
LJ          -4.30337        -3.98446         2.22126
LJ           6.20881        0.915176        -3.34438
LJ           -3.9929         1.56419         2.38016
LJ           2.17227        -3.81479        -5.56017
LJ          -3.72059        -4.76584       -0.200348
LJ          -2.62109         1.70087        -2.83055
LJ          0.213472        -2.36603        -4.24106
LJ           3.29985         3.32269       -0.902949
LJ          -3.08345         5.63734         5.66723
LJ          -2.18098        0.786959         2.72185
LJ         -0.847257         3.73771        -3.37958
LJ           -1.5908         2.53085         3.11786
LJ          -5.13456         5.35036       -0.945252
LJ           4.20035         4.51734       -0.183147
LJ          0.536714         5.76144         6.46032
LJ          -4.64429         1.83272        -3.18441
LJ           5.89611         4.15884        -1.83017
LJ           2.00147         4.41743        -5.13991
LJ          -1.52786        -4.03945        -3.98854
LJ           2.38328        -2.47809         3.71534
LJ            6.2011         2.89072        0.671002
LJ          -1.24636       -0.397511        -3.51601
LJ           2.79944            4.54        -3.71559
LJ           3.32576         3.19329        -5.98863
LJ          -4.84552        -2.81207        -3.42882
