108
#Comment!
LJ           4.43822         2.36897        -2.60132
LJ          -4.97857        -2.94737        -5.85642
LJ           6.13432         3.32751        -2.24024
LJ           5.07496         2.84295         4.93548
LJ         -0.524672        -2.41135         5.35361
LJ            3.8719        -3.02847         1.16793
LJ          -3.62717         5.73404         1.41377
LJ          -0.31826         4.36415         3.62498
LJ           3.21134         4.27288       -0.309063
LJ          -0.30499        -1.75649        -5.64099
LJ          -4.10375        -2.23641        -4.92663
LJ          -6.11011         4.58741        -3.56075
LJ           3.36911         3.15005         4.89213
LJ           5.47997         4.76807        -5.87697
LJ          -2.03631         2.91464        -3.21385
LJ           -2.5122        -3.89922         2.96405
LJ          -1.73776        -6.05628          3.7778
LJ           -3.4801          1.2454         3.62573
LJ          0.454387         4.93577         6.10649
LJ           4.22819        -2.02074        -1.80637
LJ           2.24476         6.38827         3.73897
LJ          -1.77238         4.68448         2.11294
LJ           4.73852         -5.5537       -0.765874
LJ           3.86463         2.26357        0.175004
LJ           4.60746        -6.25847        0.816668
LJ          -1.57382       -0.718275        -4.39749
LJ          -2.11152        -4.22379        0.115071
LJ          0.437076         3.24715         3.35561
LJ           4.96782        -4.17393        0.859412
LJ          -2.25282         1.18806         6.34944
LJ          0.621332         2.65892         1.65651
LJ         -0.132353         1.59283         3.82037
LJ           5.81742         4.57035         2.01619
LJ          -4.09399        -6.31884        -2.99938
LJ           2.54251         5.54712        -2.01893
LJ          -1.51771       -0.680134        0.941085
LJ          -5.00714        -1.34142         3.56409
LJ          -6.07985         1.05384        0.832086
LJ           -3.3678        -5.91844         1.31316
LJ           -1.7266        -2.95168         5.88977
LJ          -1.19171        -2.96971        -3.00816
LJ           5.54361         2.23694        -2.60905
LJ          -6.11957         3.55226         2.19025
LJ           3.72826          6.3106         6.20216
LJ           6.36343         2.86046        0.104397
LJ           5.68073        -4.17151         2.64454
LJ           3.64134        -1.04003       -0.972212
LJ          -3.94915        -4.72338        -0.79606
LJ          0.804758         2.70344         6.43801
LJ          -4.09296       -0.456782        -3.63477
LJ           3.79454        0.410048       -0.307724
LJ           1.95729        -4.42881        0.524636
LJ           3.14904        -3.70308         5.32758
LJ          0.149236        0.233125         2.85167
LJ          -1.14331       -0.384362       -0.997937
LJ         0.0567916         2.68304        0.737203
LJ          -5.93641         3.67416         1.15277
LJ          0.416901         1.09351        -3.12329
LJ          -6.37888         4.90349        0.317513
LJ           4.61623         5.86657         3.70396
LJ           3.74169         6.18299        -5.55096
LJ          -4.36881       -0.656088         4.71781
LJ          -3.50598         3.09606       -0.177906
LJ           4.96799        -3.32985      -0.0336757
LJ         -0.780102        0.607003        -3.36782
LJ          -3.79542        -4.20776        -2.53258
LJ          -1.54178         3.43766         2.78805
LJ           5.04705        -1.80358        -0.38634
LJ          -5.00809         4.15712         2.90816
LJ          -4.11905        -3.30298         5.96217
LJ           2.70554        -4.13811        -6.16739
LJ          0.417432         -1.6466          6.1427
LJ           3.03287        -2.02735         3.48573
LJ           5.76275        -2.63109         1.60397
LJ           4.56542         4.40619        -2.30719
LJ          0.589136         4.99291        -4.55351
LJ         -0.858739         4.72004        0.620147
LJ          0.379132        -1.70534        -4.41409
LJ           1.19509        -2.67454         3.93702
LJ          -5.15767         5.75675        -2.80193
LJ           3.08896        0.358846         5.76487
LJ          -5.90511       -0.706731         6.13554
LJ         -0.338896        0.835719        -4.45232
LJ           1.98397         3.93417       -0.209106
LJ          -5.65806       -0.030535        -4.52165
LJ           3.48702         2.71272        -1.15387
LJ          -2.59545        -0.84859         3.77512
LJ           6.15454          5.4303        -6.25334
LJ           1.42392         4.70862        -2.36942
LJ          0.371405        -5.84861          3.5786
LJ           1.06033        -5.77628        -1.90603
LJ           6.30532        -5.14446         1.92814
LJ           4.92474        -5.37552        0.262809
LJ           5.61389        -5.78292         2.97519
LJ          -1.32634         2.16091         5.15213
LJ          -4.13495         -1.9201        -3.80203
LJ          -4.98909        -4.08697         1.00619
LJ         -0.127996          -2.684         6.43736
LJ           5.50568        -4.28303         4.47622
LJ          0.951835         2.86937         5.06718
LJ           2.77109         2.54433        -2.10252
LJ           3.01764        -4.32754         3.01474
LJ           -1.8968       -0.385095        -1.75236
LJ           2.88999         3.28469         1.01873
LJ          0.485092        -2.71247         1.08792
LJ          -1.78207        -2.04775         4.35194
LJ          -2.02744         2.64511         6.18266
LJ          -1.56609        -5.69238         -1.9549
