108
#Comment!
LJ           2.75161         6.09825        -1.46222
LJ            2.8619         4.13374        -5.89628
LJ          -3.33389         2.51065         5.91964
LJ          -5.56852         3.47696          3.6915
LJ          -2.72081        -2.15109         5.49557
LJ          -1.33204         4.75996        -4.92287
LJ           5.50275       -0.622034        -2.30991
LJ          -5.87412         3.81752         2.44958
LJ           -3.8425         4.90462       -0.678746
LJ           5.87471        -2.73139         1.95052
LJ          0.637982         1.24189        -3.74047
LJ           4.47912        -6.25737         1.23152
LJ          -4.76825        -5.76952        -4.99952
LJ          0.599186        -4.50914         0.70985
LJ           3.58407        -3.16841          5.9151
LJ          -5.71221         5.97503         5.64143
LJ          0.734741        -1.20045         1.39176
LJ          -1.12744        -3.72825        0.416482
LJ           4.84039         2.59569         4.79989
LJ         -0.960955        -1.81493         2.00989
LJ          -1.02819         -4.7761         6.26921
LJ          -4.31739         5.65755        -4.48407
LJ          -2.81532        -4.27933       -0.031275
LJ           5.81233        -4.08762         1.26301
LJ          -6.31619       -0.513533         -1.8059
LJ           4.56827        -6.23262        -2.78426
LJ           2.56653        -5.76875           4.551
LJ           3.45257         -1.2089         3.44182
LJ           2.48675         5.60707         4.87404
LJ            1.8274         4.56313         5.38955
LJ          -1.85395         1.51418        -3.44364
LJ        -0.0392113         2.52077         2.33765
LJ         -0.111995         3.82349        -6.42799
LJ          -4.49187         -3.4226         1.40154
LJ           1.52415         2.46699        -3.68531
LJ            5.6243          -6.315        0.672372
LJ          -4.71784          5.2505         3.55358
LJ          -3.28318       -0.314373        -5.26464
LJ          -3.17933        0.201128         6.02312
LJ          -4.48007         1.14456        -2.44688
LJ            4.6461         3.28198        -2.37937
LJ          0.120416         3.52719         4.71596
LJ           -2.9862         6.11476        -2.49559
LJ          0.953941         6.10695        -4.74799
LJ           -1.1399        -3.66935         2.31108
LJ          -4.09473           3.297        0.851773
LJ           3.46418         6.42597        -2.30428
LJ          -3.97498         3.59606        -2.10676
LJ           5.25794         5.73229         4.12272
LJ           1.10118         4.18893        -4.42015
LJ           2.82477        -1.53282         1.09323
LJ          -6.28857         -5.0707         3.48432
LJ           3.90191        -0.98289        -1.54843
LJ           4.28217         3.87799       -0.659558
LJ          -4.47659       -0.310397        -1.75065
LJ           2.78872       -0.263568        -2.77062
LJ           5.09443        -4.48872        -4.34245
LJ           2.38373        -2.81768        -3.07491
LJ           3.61043        0.475736        -4.52435
LJ          -4.99693          5.6062         4.97161
LJ          -4.67521         4.85574        0.804302
LJ           6.04573         5.03543        -1.35336
LJ          -2.67971        -5.81334       -0.345678
LJ          -4.26381        -4.31528        -1.77938
LJ           0.91401         4.49254         5.65304
LJ           4.75932        -5.36828         -1.7395
LJ           4.17576        -3.06018         1.13709
LJ          -2.93543         3.88172        -3.61729
LJ          -3.34533         -1.1645        -3.59021
LJ           3.43332          5.3367        -4.50509
LJ         -0.748632         1.86432        -3.14846
LJ            5.9536         5.88967         2.70662
LJ           0.57512         4.87046        -6.12889
LJ          -4.98773        -4.85446         4.35122
LJ          -5.84302        -2.98482        -3.71617
LJ           -3.3845         4.28759        -2.67355
LJ           4.21821         3.62633         2.69735
LJ        -0.0534335        -2.87357        -2.07411
LJ           5.51279        0.832634        0.856824
LJ           5.49528        -3.02388        -5.86369
LJ          -3.89104        -5.48099        -3.90305
LJ          0.956412        -2.96365         -6.3492
LJ         -0.792602        -6.27035         1.89624
LJ           2.16746         2.97284         2.27232
LJ          -2.31664        -3.16726        -3.65628
LJ          -4.24749         1.23446        -5.88338
LJ          -1.22754       -0.177441        -1.54544
LJ          -4.80865         6.39719        -3.51871
LJ            3.0096       -0.135322        0.533786
LJ          -4.62948         2.33594         2.57796
LJ           3.52005        0.860908       -0.252119
LJ         -0.839883         5.94839         5.77812
LJ          -0.83237        -3.34094        -3.13538
LJ         -0.829606        0.101211         4.97634
LJ           5.97606         2.44094         3.58377
LJ         -0.889236          5.1634        -3.98296
LJ           2.78287         1.52902        -5.92072
LJ           1.58417        0.566193       0.0477244
LJ           4.66432        -4.80857        0.397731
LJ         -0.671383         5.81475         -5.4397
LJ          -6.01699        0.640003        -4.60035
LJ          0.687475          6.1008         3.35413
LJ          -3.23953        -3.50257        0.572937
LJ           -2.5803         5.21392       0.0100412
LJ          -5.69269         4.89291        -1.19917
LJ          -2.28797        -6.02106         5.14677
LJ           4.48935        -5.39449         3.07248
LJ          -5.46279         5.68074        0.200589
