108
#Comment!
LJ          -3.22825        -3.21612         3.08645
LJ           3.36069        -1.08371        0.535921
LJ          -2.99155         2.09124        -0.30607
LJ          -2.95452         4.05645        -1.60843
LJ          -4.34837         3.99464         1.54241
LJ          -3.38419        -4.68698         2.35655
LJ         -0.495691        -5.57365        -2.51601
LJ          -1.81563        -2.80144        0.405775
LJ           2.44366        -2.12882       -0.188751
LJ           6.15908        -3.01092        -3.28948
LJ           4.28234         4.31227        -2.80629
LJ           5.24684        -4.86126       -0.430704
LJ           0.51584        -4.02458        -5.66672
LJ          0.867025        -4.15034        -2.28204
LJ          -6.29819         4.88234         6.17354
LJ           2.02157         3.56193         2.57019
LJ           2.03065         1.49492         6.28336
LJ          -4.27071         1.35504         4.02024
LJ           1.98513         3.21595         -5.3035
LJ         -0.188048           -3.96         4.09591
LJ          -4.11303        -2.90152        -5.73117
LJ           1.60493         6.36809         4.41761
LJ         -0.373335        -2.27992         5.14463
LJ           4.59241        -2.39877         5.95895
LJ          -4.18946         5.34946        -4.34888
LJ           6.21277       -0.975242        -1.27913
LJ         -0.839592         6.15523       -0.126428
LJ           2.59125         5.10792       -0.804897
LJ          -2.98203        -2.74418         1.42329
LJ           1.39696         6.34787        -1.49662
LJ         -0.919463          1.4858        -5.81295
LJ            3.2876        -5.23489        -2.38932
LJ            2.3693        -2.49316         2.87632
LJ          -2.99162         1.52055         5.38495
LJ          -6.04978        -3.44771        -4.41685
LJ           5.55786         3.47954         3.37266
LJ           6.08195         2.25548         -2.8183
LJ           5.23203        -3.83831        -5.74463
LJ          -6.20195         6.02786       -0.120551
LJ          -1.30767        -1.78906        -5.13702
LJ            5.1373        -2.96257        -4.06083
LJ           5.67313        -5.77975       -0.775897
LJ          -1.59285        0.534612        -4.98601
LJ           -5.5872          5.7342        -1.21744
LJ          -5.13852        0.927232         4.39901
LJ          -2.64406        -6.03283        -3.16326
LJ          -4.23148        -4.98181         2.28375
LJ          -5.39806        -1.65055        -1.48382
LJ          -1.68154        -5.86628        -1.56963
LJ            3.8613        -4.12808        -5.55454
LJ          -2.14666        0.642248         5.33143
LJ           6.07344        -2.05088        -1.91665
LJ          0.394266        -3.19272         4.38678
LJ          -1.69125         4.27965         0.15071
LJ          -2.54587         6.31692       -0.253083
LJ           2.40945         2.34029        0.669472
LJ          -2.03194        0.665121        -2.49647
LJ          -5.78469         6.28058        -5.28749
LJ          -1.50314         3.44618        -2.62216
LJ          -5.93119        -4.36559        -4.02687
LJ           2.31311        0.155504        0.747456
LJ          -5.73938         3.87127        -4.01858
LJ            5.5459        -4.21923        -4.23326
LJ           5.51486         3.59559        -3.11837
LJ          -2.80839         3.64484        0.420471
LJ          -1.12199        -3.71784         4.70498
LJ           3.96759         4.48615         5.25185
LJ          -1.46941         1.58578         5.38924
LJ           2.54345        -1.68782         1.55653
LJ          -6.38184         5.87517         2.65031
LJ          -4.86977        -2.86645        -4.86024
LJ          -3.48028        -5.11974        -3.68924
LJ           1.98255         -2.3733         6.04452
LJ           4.73277       -0.781226         4.16709
LJ         -0.340151         6.28612        -4.97786
LJ            6.1023         3.13785         1.85338
LJ          -4.85766         3.01845         5.18847
LJ          -6.30535         4.41906        -3.22533
LJ          0.765954          1.8339         3.11173
LJ           4.84493         4.73973        -4.96222
LJ          0.779251         5.97111        -4.10215
LJ           2.53567         4.74804         4.83243
LJ          -5.85436       -0.607596        0.811529
LJ           5.31004         -5.4859          4.4964
LJ          0.575166        -5.19938        -3.41262
LJ          0.625715         5.24952       -0.861371
LJ          -1.73521         5.67443        -4.86965
LJ        -0.0809928        -1.65441         2.94158
LJ            6.1222        -4.47289       -0.731359
LJ            4.2792         5.28757         2.92239
LJ           3.78009        -6.24907         0.70273
LJ           4.01574        -3.98388       -0.395617
LJ          -4.83851        -5.76042        -1.66714
LJ          0.701953          3.5149         1.05311
LJ           4.44057        -5.15289          -5.221
LJ           3.77018       0.0828355        -1.08876
LJ           6.28689         5.58578         1.45081
LJ          -2.71121         3.55429        -4.23047
LJ          -6.40143        -5.49955          4.1672
LJ           4.26256         2.67019        -4.64283
LJ          0.720056        -2.09298         6.06896
LJ          -1.14945        -4.79522        -3.32098
LJ          -5.67024         3.77624        -5.94935
LJ           2.19257        -2.49248        -1.44265
LJ           1.34368        -2.67172         2.23225
LJ           1.12475         3.97801         3.29758
LJ          -6.32605       -0.903191         4.89349
LJ          -2.57528        -1.64649        -4.61968
