108
#Comment!
LJ           4.11066        -3.96485        -4.00349
LJ         -0.780648        -3.79957         5.70561
LJ           5.17061         1.88571       -0.227392
LJ          -6.37202         1.93871        -2.33037
LJ          -5.76913       0.0601371       -0.649287
LJ         -0.429981         5.08904         5.71854
LJ          -5.26514         3.60963        -2.84661
LJ           4.08621        -5.07112        -2.06941
LJ          -4.22931         0.89483         4.48761
LJ           4.97338         2.74568        0.282275
LJ         -0.255024       0.0496054        -3.18686
LJ            2.4233       -0.546511         1.95102
LJ          -1.18298         4.05752        -4.11572
LJ          -3.34644         4.95861         5.46849
LJ          -1.81841        -4.06899        -3.00358
LJ           2.90325         5.44012         4.41912
LJ          -3.68315           1.276       -0.728603
LJ          0.149741       0.0227038         5.93834
LJ          -4.93963        -2.83685        -4.11229
LJ          -2.37475         5.15677        0.398566
LJ          0.726527        0.385264         1.02529
LJ          -1.07771         6.23457         -2.2974
LJ           -6.2999          5.4022         1.36877
LJ          -6.34959         4.05549        -1.73242
LJ          -6.08778        -6.31213        -5.74469
LJ          -3.01536         2.77497        -3.68544
LJ          0.599041         2.63911       -0.454983
LJ         -0.698947        0.821271         1.17148
LJ           -1.3202        -5.56816         3.26655
LJ          -1.72384       -0.185317       -0.342365
LJ          -6.19356         5.43205         2.92396
LJ           1.82597        -6.08246         3.41136
LJ          -5.20054          -1.853        -6.28864
LJ           3.74098         1.76385         6.03152
LJ           1.19838         4.98263         4.33448
LJ             4.626        -5.89858        0.610539
LJ          -1.29377        -4.21662        -5.63616
LJ           5.34335         3.47415         4.96627
LJ          -4.44685         -2.1928         2.97274
LJ           3.68647        -4.93296         2.40769
LJ          -5.01762        -0.74178        -6.12455
LJ            4.4102         1.70639         1.09292
LJ          -1.56507         2.51899         3.75071
LJ           4.85665       -0.597598        -2.58577
LJ          -3.97935       -0.953452         5.19787
LJ           6.26919        0.547467       -0.334513
LJ           2.96757        -5.86322         2.11165
LJ          -2.71414       -0.524772         2.08386
LJ          -4.33254        -4.04142          5.2415
LJ          -3.43079         4.06273        -1.89444
LJ          -4.28396        0.788332         2.02846
LJ          -1.27949         6.12535         4.29297
LJ          -2.64445        -3.40851        -4.22101
LJ          -3.01485         2.93475        0.454474
LJ          -5.03606         -1.4414         5.23646
LJ           2.99611      -0.0162433       -0.464411
LJ          -2.08313         4.11764        -5.24033
LJ          -3.76705        -2.62673        -5.35353
LJ          -5.27115         4.56493         2.90644
LJ          0.711424       -0.573896         -3.5718
LJ          -2.21614         2.87193         2.86676
LJ           4.16724         3.49003         2.82381
LJ          -2.14091         5.51608       -0.876724
LJ          -4.12719         4.61393         4.68031
LJ           1.75965         3.74288         2.30867
LJ           4.30306         4.63969         3.23623
LJ           4.65519         4.62104          6.2798
LJ           3.30682          4.7398         6.12471
LJ            1.8088        -5.42462        0.854959
LJ           -1.1393         2.54369         -1.6323
LJ          -1.06347          -6.172        -4.26618
LJ          -3.85189         3.28111        -3.22767
LJ         -0.903165        -3.38764        -2.87525
LJ         -0.641225         4.84274        0.016347
LJ          -2.05617         2.79445        -3.41971
LJ          -2.89399        0.556845        -5.83784
LJ          -5.97296        -3.88572         2.32026
LJ           5.52628        -6.36851         -2.4403
LJ          -1.57523        -1.39412         5.32443
LJ           5.57119        -2.79204         -2.2474
LJ         -0.991653       0.0441242        -2.47436
LJ          -1.25679         5.34197        -5.51886
LJ            -2.908         2.17833        -1.97242
LJ          0.755288        -6.37049         2.06462
LJ            2.8044         1.09724        -5.37544
LJ          0.533566        -5.69342        0.628761
LJ          -5.11763        -4.85699          5.1232
LJ          -4.44644        -3.03102         1.07841
LJ          0.140296       -0.857105        -4.49539
LJ           2.86309        -2.35239        -5.81857
LJ           1.09217         2.42263         3.43486
LJ           2.28424        -3.64671         1.49748
LJ         -0.668641         3.15982        -4.43697
LJ          -4.13603         3.05392         5.39777
LJ          -5.92926        -2.24969        -3.62452
LJ           1.65414        -5.10801       -0.767372
LJ         -0.612861         2.09204       -0.237032
LJ           3.11311        0.942058        -6.31029
LJ          -1.83929        -2.60797         1.06577
LJ          -5.82365        -4.61649        0.405665
LJ           4.30992       -0.334505         4.58287
LJ           3.23807         1.31841         1.13955
LJ           3.49461        0.128297         5.31124
LJ          -3.45157         6.00063         5.39191
LJ         -0.700037        -5.00578        -5.54773
LJ           4.83258        -2.27211        -5.15335
LJ           3.41538        -3.94226         -4.9588
LJ           1.00065        -4.93578         2.47121
