108
#Comment!
LJ          -2.12797         1.38669          -1.076
LJ           1.12788        0.620925       -0.315893
LJ         -0.834247         2.25301          1.5926
LJ           1.14206        -1.69852        -4.28245
LJ          0.696676       -0.992893         4.08506
LJ            6.2749        0.298616         4.53322
LJ            2.7167         3.53469          1.1033
LJ           4.02309          4.3499         1.62719
LJ         -0.415995      -0.0642262          -4.932
LJ          -4.83993        -5.18639         4.69183
LJ          -3.72008         -3.9324          6.4204
LJ          0.539875         6.20297          0.1018
LJ          -1.00247         6.05475       -0.391774
LJ           5.98252        -2.48987         2.42836
LJ          -3.36004         5.56096        -3.17692
LJ           1.77703         0.37262         1.61534
LJ          0.988907        -3.47094        -2.24616
LJ           6.32081         6.02641        -5.80059
LJ           3.51624         1.85078       -0.427945
LJ          -1.40744        -5.24221       -0.122068
LJ          -1.39813        -1.35098        -2.75318
LJ          -1.86886       -0.561873        -4.30766
LJ          -6.22194       -0.571107        -3.86191
LJ           3.66634         2.19733         6.03171
LJ           -6.0516         5.23958         5.31864
LJ           5.89376         2.98031         1.78561
LJ             1.098        -1.01468         3.16334
LJ            -5.742         -3.5588        -3.78669
LJ           5.25858         4.15834        0.245204
LJ          -3.99045         2.53325        -2.20894
LJ           4.35973      0.00920454         3.19502
LJ          -1.22567         1.67731         3.78338
LJ          -5.71518        -1.99033        -2.91946
LJ           4.95254         2.52556         2.33019
LJ            5.9379         4.17539         2.83619
LJ          -4.48485         1.09271        -5.96658
LJ           5.45198        0.591131         3.54199
LJ          -2.20762        -2.68638        -4.96521
LJ          -4.80608        -4.75701        0.809028
LJ         -0.766772         6.36464           1.726
LJ          -1.09888         3.39209        -2.04691
LJ          -1.17051          4.5935        0.433384
LJ           2.57362         5.71217         1.62544
LJ          -3.37739        -6.20231       -0.386012
LJ           1.73102       -0.578617        -5.68223
LJ           2.12247          2.8174         -3.3967
LJ           -1.4717         -3.8541         2.61969
LJ           2.98952        0.322987         5.70342
LJ           -5.1518         4.66089        -5.31763
LJ          -2.42849         6.25179        -2.45752
LJ           6.04378         5.56364         2.79961
LJ          -3.43884        -3.98179        -4.25111
LJ          -2.22362        -3.92262        -5.37265
LJ           -5.8506         4.32644        -3.88217
LJ          -5.52597        -5.82972        -4.37012
LJ         -0.865517        0.749999          1.9862
LJ          -2.43196         3.67014         1.17018
LJ          -1.08588         1.08973        -2.60566
LJ           3.20306        -4.40905         2.74322
LJ            2.2827        -3.60597         4.27458
LJ           -1.9001         2.00126       -0.305234
LJ          0.881373        -5.11938        -5.98784
LJ           4.01468        -4.64809        -4.32247
LJ           3.37944         4.12564         3.24877
LJ         -0.656255         2.67202        -3.18504
LJ           3.66679        -1.42193         1.40305
LJ           0.15488          4.0391         0.86828
LJ          -3.94947         2.26989         3.50485
LJ           1.82761       -0.423018         5.16798
LJ          -1.20491        -3.45334        -6.40272
LJ          -1.73581         5.34725         3.58964
LJ          -5.75764        0.572071        -3.88745
LJ             5.013        -6.22696         5.39299
LJ          -4.11174        -3.08592        -4.25806
LJ          -3.73518          1.7153         6.07105
LJ           4.56517          4.7916         2.60166
LJ           -2.6431         5.42247         2.23437
LJ          -4.88095        -2.10554        -2.11899
LJ          -1.23739        0.381312         4.43186
LJ          0.908532        -2.88544        -1.33078
LJ          0.196999         2.82038         2.73332
LJ         -0.583536         6.07196         2.92208
LJ           1.47323         2.25402        -5.28578
LJ          -4.32431        -4.26525         2.10241
LJ           6.00582         1.03964        -3.55692
LJ          -3.96974         1.46493         2.28182
LJ           2.13239        -3.82112        -5.38194
LJ          -3.70332        -4.75182       -0.343746
LJ          -2.26836         1.99961        -2.86669
LJ         0.0245508        -2.44207        -4.22705
LJ           3.25328         3.51254       -0.975693
LJ          -3.23029         5.45909         5.66069
LJ          -2.28669        0.942372         2.68806
LJ         -0.813174         3.68326        -3.31523
LJ          -1.47005         2.72061         3.09451
LJ          -5.18744         5.35445       -0.868183
LJ           3.98846         4.28138       -0.158496
LJ          0.485393         5.72259         6.36893
LJ          -4.75738         1.91794        -3.18513
LJ           5.78657         4.19666        -1.91397
LJ           2.14602         4.46419        -5.16829
LJ            -1.736        -3.96443        -3.87068
LJ           2.61025        -2.25053         3.60999
LJ           6.27133         2.70021        0.690704
LJ          -1.02441        -0.42251         -3.4363
LJ           2.81829          4.5118        -3.75132
LJ           3.17823         3.06571        -6.16588
LJ          -4.90486         -3.0027        -3.26134
