108
#Comment!
LJ          -5.01775        0.969132        -2.11343
LJ          0.429361         2.96175       -0.373097
LJ          -2.83127        -5.77503          2.5844
LJ          0.408233        -1.80401        -6.30398
LJ           1.19278       -0.158136         4.58943
LJ          -5.43807       -0.633425         3.39392
LJ           2.61224         4.31857        0.507622
LJ           4.02595         4.48682         2.50448
LJ           1.42678       0.0536018        -4.03853
LJ          -4.69484         -4.9496        -4.03683
LJ           6.10844        -5.02177        -2.03727
LJ           2.03351          3.6669         2.73027
LJ           1.59246        -4.13643       -0.765539
LJ           4.69373        -2.28499         1.05608
LJ          -2.38123         6.34274        -1.35016
LJ           4.36288         2.52636        0.430192
LJ         -0.632047        -3.24931        -1.99077
LJ          -6.07596        -5.54723          -4.344
LJ          -4.25445         5.04301        -1.68969
LJ          -1.12209       -0.343258        0.226562
LJ          -4.64335        -2.20785         2.39823
LJ           3.28274        -1.22647         -2.2497
LJ          -4.81683        0.737176        -3.27357
LJ           4.18048         1.77654        -5.80055
LJ           5.32859         2.33383         3.68485
LJ           5.82838         3.85704        0.289254
LJ           5.16561        0.682357          2.9228
LJ          -5.42612        -4.43029         -2.0277
LJ           4.41727         3.93106        -2.30304
LJ          -6.27293         4.55434         -4.1669
LJ          -6.06641        -1.61651          1.9457
LJ           2.38961         1.08228         3.22295
LJ          -4.51588        -3.87565         -1.9861
LJ           5.53664         1.65724        0.350881
LJ          -6.21365         2.63733        0.277118
LJ          -5.15942         2.42524         5.91442
LJ          -6.32306        -5.13703         5.08989
LJ          -4.69754        -2.70893        -3.57738
LJ          -4.25659        -3.55614         1.00366
LJ          -1.99074         4.64335         3.30453
LJ          -0.91232         4.80912        -2.31677
LJ          -1.29606        -5.51342      -0.0749568
LJ           2.88582        -2.07853       -0.842206
LJ          -5.73167        -5.86784        -2.20815
LJ           2.33132       -0.493431          4.2634
LJ           4.40975        -6.03016        -4.59443
LJ          -2.30679        -3.37723       -0.224796
LJ           6.41871         3.03618         5.23358
LJ          -2.87509         2.58655         5.91288
LJ          -5.25453         5.30647         1.65333
LJ          -3.90067         4.80782         2.02678
LJ          -4.53971        -3.82189        -4.35693
LJ         -0.968687        -2.44018        -5.77494
LJ          -3.97144         2.12154        -5.99831
LJ           4.49532         4.18844        0.345924
LJ          -3.37586         2.49302        0.599388
LJ         -0.768576       -0.207056        -2.21219
LJ          -1.10263        -1.89447         -2.4138
LJ           5.02732        -6.09248          1.9145
LJ           3.51732        -2.25564         3.52062
LJ           6.13132         3.90019         1.56874
LJ           3.43753        -5.69238        -6.01135
LJ          -2.82436         5.31835        -3.84419
LJ           3.21835         4.12736         2.00047
LJ           1.96633         -1.8185         6.40685
LJ          0.664047        -2.41489         4.91816
LJ          0.387289        -1.45152         0.99643
LJ           6.13496         0.79426          5.9217
LJ          -1.28638        -0.21571        -4.05911
LJ          -6.02593        -2.99978        -5.32828
LJ           2.44599          4.4639         3.79597
LJ           5.19625         1.63233        -3.83528
LJ           3.07677        -2.77503        -5.07104
LJ          -4.22936        -2.83564        -4.64573
LJ          -4.30163          2.4046         5.25663
LJ           3.40382          4.1279          3.3831
LJ         -0.722671        -5.64696         1.15537
LJ          -4.49812        -1.85983         -2.4525
LJ           0.17974        -1.28897        -4.38301
LJ          0.409997        -3.71003        0.552561
LJ         -0.651095         1.85641         5.77415
LJ           -1.9463         5.19871         4.29465
LJ           4.70208       -0.764555         4.49988
LJ          -4.75557        -5.82661        -1.23083
LJ           3.17268         2.99927        -5.97475
LJ          -2.81985        0.386453         1.66053
LJ           1.37531        -4.20344         -2.3918
LJ          -4.18631        -5.99044        -2.29072
LJ           1.69652         3.89484        -2.13834
LJ          -2.68461        -3.43117        -4.29002
LJ           3.09411        -6.25454        -2.58206
LJ          -5.48994         3.11526         3.20534
LJ          -4.23693         2.70671          1.1263
LJ          0.661959         5.38011         6.28759
LJ          0.731537         5.62653           2.571
LJ          -5.59643         5.58987        0.519041
LJ            1.8599         0.29862        -1.80134
LJ         -0.423152         5.05648         4.70208
LJ          -6.31665         3.98891         -3.1977
LJ           4.05376         5.04497        -2.90375
LJ           4.73257         5.50741         6.11939
LJ          -1.94004        -4.52065         1.58296
LJ           5.75563         1.51079          1.3447
LJ          -5.86883        0.105189         1.96143
LJ           1.28642        -1.90254        -1.32688
LJ           3.67605         5.15652         -4.2918
LJ         0.0543967         1.30081         4.72334
LJ          -5.74799         -4.2644        -0.72977
