108
#Comment!
LJ           4.14151        -3.14352        -3.01233
LJ         -0.917661        -3.70781         4.64966
LJ           4.94347         3.38217       -0.479265
LJ           5.84285         1.55905        -0.37837
LJ          -5.27322        -1.21893      -0.0330666
LJ         -0.966233         4.75547         5.68725
LJ          -5.72635         3.75248        -3.39323
LJ           4.69066        -2.20396        -1.28259
LJ          -2.88668        0.925567         3.11408
LJ            2.9136          3.7758         1.24552
LJ         0.0848534       -0.475516        -1.55583
LJ            1.8914         -1.4064         2.50286
LJ          0.575892         4.90559        -3.24413
LJ          -3.49114         6.33522         5.46708
LJ          -3.34572        -4.01389        -2.76707
LJ           2.03491         4.88911         4.46275
LJ           -4.0133       -0.274137        -1.49235
LJ          0.647666         1.63836         5.83279
LJ          -3.18391        -2.12414        -2.63319
LJ          -3.19821         4.58617       -0.494828
LJ          0.514805         1.62626         1.19717
LJ          -2.07696         6.01054        -1.28463
LJ          -5.67183         3.98932        0.207468
LJ           6.28778         3.51382        -2.94382
LJ          -6.05856          5.7963         5.81202
LJ          -2.89982          2.6292        -5.22092
LJ         -0.912169        0.964927        -1.56009
LJ          -2.15317          1.0683        -1.68098
LJ         -0.820704        -5.29922         3.35074
LJ          -2.12477       -0.361449       -0.259743
LJ          -4.17471         5.81285         3.92662
LJ           3.21765        -4.93302         2.12508
LJ          -5.08637        -2.64264        -6.20405
LJ           4.14004        0.295212         4.58493
LJ           2.82556        -6.33014         4.26619
LJ           5.51451        -5.15895       -0.181299
LJ          -1.07821        -3.22185        -5.23782
LJ          -5.77093         3.96243         4.86169
LJ           -4.3894        -1.17705         3.52685
LJ           3.16394        -3.09262         3.25327
LJ          -4.60928        0.669962         4.99954
LJ          -6.44426        0.994459         0.99848
LJ          -2.35705         2.26478         5.86473
LJ           3.80246        -1.16548        -3.24963
LJ          -4.06318        -1.62365         4.60531
LJ           -5.6539        0.915072       -0.324112
LJ           3.96778         5.63679         1.29807
LJ           -3.2729       -0.913413        0.861699
LJ          -5.72786           -4.22         6.44422
LJ          -4.35158         4.74347       -0.533122
LJ          -2.41267         1.41816         1.52929
LJ          -2.60674        -6.00387         4.36393
LJ          -1.86157        -2.37622        -3.44221
LJ          -4.08817         1.90142         1.19746
LJ          -5.22205        -0.77197         4.84761
LJ           2.09983         1.20638        -1.33872
LJ        -0.0353204         4.36746        -5.63002
LJ          -2.93167        -1.87355         -4.7856
LJ           -4.7368         4.85557         3.51181
LJ           2.47803       -0.997284         -3.6688
LJ          -1.98028         4.31773         2.72784
LJ           2.74517         3.17663         2.56651
LJ          -2.00883         4.88223       -0.303935
LJ          -2.64631         3.53097         4.51723
LJ           1.03746         3.29547         1.10728
LJ           2.97659         3.85052         3.94356
LJ           5.18805         3.94482        -6.37696
LJ           3.29494         4.73418         4.34448
LJ           2.66395        -5.80701         1.33194
LJ          -1.65404         2.11147        -1.60886
LJ          0.145064        -5.39729        -5.50884
LJ          -3.91223         2.61279        -2.25252
LJ         -0.880898        -3.11528        -2.27911
LJ          -2.24956         5.41956         1.85532
LJ          -2.02516         2.86358        -4.41013
LJ          -2.39593        0.219884        -6.44543
LJ          -5.31805         -4.2026        0.921025
LJ           5.16109        -5.82117        -2.70684
LJ          -2.94456        -1.74818          6.1965
LJ           5.25534        -3.37414        -3.29031
LJ           -1.5148       -0.655723        -1.44289
LJ          -2.34628         5.20654        -5.38173
LJ          -3.19063         1.37868        -2.16757
LJ         0.0630387         5.28953         2.99427
LJ           2.34319         2.54955        -4.37817
LJ          -1.54969        -6.43879          1.1596
LJ          -5.38605        -5.37845         6.29718
LJ          -4.32489        -3.05408         1.68189
LJ          -1.43467          1.0825        -4.16356
LJ           5.16354        -2.19895        -6.11262
LJ        -0.0619484         2.28612         3.69999
LJ           2.26037          -3.872         1.03908
LJ          0.105849         3.52369        -5.00628
LJ          -2.83508         3.48226        -6.11246
LJ           -5.9168        -2.02752        -2.60651
LJ           3.28343        -5.52243       -0.840165
LJ          -1.29898         1.68456       -0.744724
LJ           2.81991        -1.23898        -5.61906
LJ          -1.56226        -3.81482         2.65749
LJ           5.29977        -5.44025         1.25132
LJ            4.7759        0.293473         3.65833
LJ           2.25051          1.4609       -0.121507
LJ           4.01495       -0.792891         4.65327
LJ          -4.56575        -5.40315         5.56493
LJ          -1.70201          6.0201         6.04713
LJ           3.77741        -2.19726         -3.6555
LJ           5.10565        -5.34576        -6.41274
LJ            2.1573        -4.93481         3.30108
