108
#Comment!
LJ           2.74048        -4.47076         2.24002
LJ         -0.458602         3.82192        -5.61275
LJ          -4.50537         4.35144        -5.18453
LJ          -1.23942        0.956933         5.95067
LJ          -3.30047        -6.23038        -2.13946
LJ          -1.86112         1.55587         -4.0357
LJ           2.69721        -0.63556        -3.63715
LJ          -4.34511         5.38504        0.201482
LJ           4.72237         4.11231        -1.01085
LJ           3.21462        0.124922        -6.34086
LJ         -0.483788         1.48893        -5.50914
LJ           4.77306         5.53835        0.251762
LJ         -0.935259        -6.00682        -4.17611
LJ           1.45818         5.79882        -2.88743
LJ           1.37703        0.188687        -6.10246
LJ           5.86665        -3.60701         5.96439
LJ           3.73118         -2.5368        -5.89302
LJ         -0.731774        -3.13413        0.243157
LJ           4.57185        -1.15226         1.92169
LJ           -1.4606         -1.0364         2.39567
LJ          -1.90998         2.39677        -6.21889
LJ          -4.90188        -5.09362        -2.71582
LJ           6.43491         4.25796         1.93846
LJ           3.70161        -2.96657         3.22419
LJ           5.34846          1.3364        -3.54292
LJ           5.37217         6.20394       -0.720497
LJ           4.35308        -3.54222         3.84575
LJ          0.413381        -5.01887           -6.45
LJ            -5.853        -5.16362         3.87277
LJ           2.38491         3.74567           5.427
LJ            1.4473        0.869144        -2.18634
LJ           1.26405         1.98192         2.08482
LJ          -1.13013         4.90206         -4.0863
LJ          -2.64213        -5.45447         4.25975
LJ         -0.725797         4.98639        0.251103
LJ           1.14456        -6.25728        -4.22993
LJ          -2.57999         3.54219          1.0184
LJ          -2.98383       -0.888807         -6.0786
LJ          -4.49493         -2.4558         3.84406
LJ          -4.45539        -0.14867         -4.7044
LJ          -4.61962        -1.64946        -5.36379
LJ          -1.41543         2.07974         1.96498
LJ         -0.357874        -2.58649        -3.13983
LJ          -4.66385        -5.78325         5.73182
LJ           0.10702        -6.28568        -6.22344
LJ           -4.7577         5.68335         1.45478
LJ          0.947689        -3.85218        -5.71074
LJ          -3.91269         6.04689        -0.91422
LJ           2.64304        -5.90835          5.4734
LJ          0.595936         3.34126        0.087016
LJ           3.15789        -1.48476         1.90356
LJ          -4.62238         -4.8154         1.34581
LJ           4.36535        0.669535         3.43209
LJ            5.3926        -5.04808        0.243267
LJ          -6.02283        0.259081        -0.95118
LJ           3.34683       -0.194247        -4.51903
LJ           5.70898        -6.08856        -4.78972
LJ           1.62309        -3.21586        -2.19524
LJ           3.96802         3.73393        -3.47263
LJ          -5.79683         4.43981         5.33167
LJ          -6.43309         3.02037        -2.33944
LJ           2.95872         5.93985        0.982207
LJ         -0.467392        -5.67478        -2.87966
LJ          -2.52586         -5.3007        -1.81136
LJ          -1.00888         4.42374         4.82988
LJ         -0.158694        -4.46728        -3.21399
LJ           4.68823        -4.19763         5.32334
LJ          -1.45361         2.71022         4.18223
LJ          -2.54001        -1.66491        0.712923
LJ           1.16736         5.83805        -6.27848
LJ            1.3525         1.30337        -3.15949
LJ           -4.1442         -4.3695         2.62366
LJ           3.26529          2.9151         3.57788
LJ          -5.90452         5.51751        -5.76463
LJ          -3.39587        -1.54743        -3.88913
LJ          -1.88566         4.23547        -3.17687
LJ          -4.01689        -6.18381         3.59751
LJ         -0.887531       -0.831383        -2.93921
LJ           3.46142          1.2551         4.83841
LJ           -2.3202         -2.1389        -2.67765
LJ          -5.88086        -5.45617        -1.59042
LJ          0.173718         -4.6074        -4.71616
LJ          -2.62728        -5.22244       -0.094047
LJ           1.72574         1.48994        -1.21967
LJ           2.50758       -0.592055         5.19496
LJ          -5.36742         3.96584          6.1221
LJ          -2.35494         -3.3919        -1.53502
LJ          -3.15432        -4.65956         4.70428
LJ            2.1716         2.65102        0.414184
LJ            5.0138         1.13659         2.44001
LJ            4.6191       -0.105623        -3.34347
LJ          -1.73793         3.27767        -2.36999
LJ         -0.923981        -2.88703         5.56246
LJ           4.22742         2.53276         4.72568
LJ           5.31513       -0.847115         1.02974
LJ          -4.04061         -4.9068        -6.35113
LJ           2.34501         4.23089        -4.07128
LJ          0.465924          1.2916         -2.4043
LJ          -4.97835        -6.23315        -3.52262
LJ         -0.393713         3.56069         -2.5479
LJ          -6.35422         3.29471         6.13994
LJ           3.41757         4.47098         6.36738
LJ          0.582608          -2.603         1.13707
LJ           0.21175        -4.11766        0.422233
LJ           5.68209         4.30517        -6.05444
LJ           -3.6501          6.2078         4.68091
LJ           5.73199         3.87224         1.32871
LJ           5.81589          4.5461        0.145645
