108
#Comment!
LJ          -5.99288        -4.23704         4.75105
LJ           2.03199       -0.841212         2.32746
LJ         -0.965489         1.61615       -0.112126
LJ          -2.93298         3.69129         1.36247
LJ          -5.51978         3.49013        0.106065
LJ          -1.74816        -5.32346         3.88916
LJ          -3.21229         5.87067        -1.13302
LJ          0.869678        -1.83226        -1.39743
LJ           3.80064        -1.20706        -1.70029
LJ           2.86002        -1.23305        -2.96229
LJ           2.99101          3.7436        -3.04553
LJ           5.57891         6.21623        0.947082
LJ          0.329693        -6.10154         -5.0793
LJ         -0.358293        -1.77986        -3.81737
LJ             3.723          5.7788         -5.1026
LJ          -1.97824         5.21344         1.50596
LJ         -0.460339          2.9894         4.06305
LJ          -2.61486          4.1094         5.02138
LJ           3.47749         5.09476        -5.83387
LJ          0.811024        -3.94918         3.11267
LJ          -3.98517        -2.58967         5.59833
LJ            2.7937         6.02834         4.28816
LJ          0.509172        -2.26114         5.01243
LJ           1.11484          1.3803         4.94049
LJ          -4.06209        -6.29421        -3.48837
LJ          -5.80772       -0.475833        -2.21619
LJ           1.12797         6.00879         1.09894
LJ           3.29226        -5.05471        -3.07544
LJ          -2.72588        -4.10531         2.05275
LJ          0.540457         4.47856       -0.612502
LJ           1.58706         2.09853        -6.43441
LJ          -6.02714        -6.35521        -4.15311
LJ           3.57422        -4.43005         2.38038
LJ          -4.20358        -1.36343         6.38255
LJ          -5.23152       -0.990259         6.37139
LJ           5.27986         5.32181         4.12738
LJ           6.14812          3.5227      -0.0471581
LJ           4.12522        -1.37983        -6.38936
LJ          -5.38798        -5.59279        -1.30325
LJ          0.955366        0.524256        -3.31846
LJ           6.05277        -1.75019         4.77507
LJ           4.18965         -4.6411        -2.29705
LJ            1.7314         1.34382         -5.1873
LJ          -6.00873         4.44154       -0.490538
LJ          -5.50568      0.00299863         1.04387
LJ          -1.01066        -3.54854        -1.25945
LJ           3.01213         4.62846         3.24445
LJ           -4.1881       -0.472065        -3.05591
LJ          -2.25356        -4.43863       -0.287841
LJ           5.14641        -5.62649        -4.68631
LJ          -1.34733        -1.06511         4.14046
LJ           4.33779      -0.0685243        -4.26496
LJ           2.95955        -3.37896         6.27973
LJ          -0.15074         5.84531       -0.594012
LJ          -2.81012        -5.16395        -2.31701
LJ          0.649945       -0.220233      -0.0684979
LJ          0.753149         1.66497        0.373255
LJ           6.35505        -4.89861        -5.71757
LJ          -2.99224         4.70303        -5.04293
LJ          -5.00629        -4.83346        -1.90062
LJ           4.64143         3.97264         2.07181
LJ          -5.20518         4.04016        -2.30716
LJ          -5.80675        -5.29243        -4.02565
LJ           5.22915         4.00638        -5.20341
LJ         -0.244495         3.50431         1.46034
LJ         -0.060899        -4.78068         2.69286
LJ           1.63596         4.75814         4.70822
LJ           0.99113          -1.226         2.71916
LJ          0.103272        -2.06526         1.42118
LJ           5.16822         5.60122       -0.154834
LJ          -5.22635        -5.31304        -3.15372
LJ          -4.04421        -5.47642         -2.1283
LJ          0.720765        -1.98976         6.27653
LJ           5.83074        0.736408         4.97521
LJ         -0.200779         4.31664         -4.2745
LJ          -6.07587         2.23356       -0.897214
LJ          -5.57835        0.927533         5.49979
LJ          -5.74182         4.92889        -1.83668
LJ           3.04553       0.0323688         3.56939
LJ           5.04055        0.483492        -3.70423
LJ         -0.353149         5.29605         -3.5332
LJ           1.88553         5.14555         6.05113
LJ          -4.47688      -0.0230752        -1.28369
LJ           4.20073         3.44953         3.60941
LJ           2.39886        -3.89856        -2.99313
LJ         -0.527448         4.58122       -0.817968
LJ           -1.3194        -4.84893        -2.00824
LJ          -2.22254        -2.38747        0.632434
LJ          -6.17727        -2.47153         2.66053
LJ           3.47128         5.59435       -0.645287
LJ           3.84586        -5.74557         2.15379
LJ           3.03632        -4.11923         1.29685
LJ           -4.3357         5.35437        -1.60586
LJ           -4.3026         2.98536             4.1
LJ           5.96561        -5.94211         6.36465
LJ           6.28911       -0.883237       -0.769778
LJ           4.82855         4.34017        0.384527
LJ          -2.43862         3.31018        -5.11586
LJ          -4.43719         4.50887         6.37086
LJ           2.05154        0.781321        -2.32109
LJ           1.46896         -3.1041         5.50298
LJ          -0.29708        -4.11863        -4.83618
LJ            -6.149         1.74521        -6.27136
LJ           1.14046       -0.648156         1.59636
LJ          -2.32429        -3.06092         1.94161
LJ         -0.284163         5.53126         4.02366
LJ          -4.01528       -0.864892         2.63667
LJ          -2.29258        -3.28284        -2.70989
