108
#Comment!
LJ          -4.83359        0.985418        -2.05547
LJ           0.53007          2.8304       -0.381703
LJ          -2.76558        -6.03665         2.50169
LJ          0.500703        -1.82361         -6.2199
LJ           1.12398      -0.0409778         4.62968
LJ          -5.48783       -0.579381         3.46856
LJ           2.60388         4.29396        0.595006
LJ           4.07627         4.47237         2.36679
LJ           1.33582       0.0647158        -4.02248
LJ          -4.77059        -4.85858        -4.29436
LJ           6.41264         -5.1739        -2.19083
LJ           1.91694         3.84843         2.69854
LJ           1.45956        -4.26288       -0.740808
LJ           4.75808        -2.30519         1.12273
LJ          -2.37985         6.17884        -1.41776
LJ           4.18031         2.54646         0.52268
LJ          -0.55929        -3.25991        -1.98373
LJ          -6.14975        -5.61154        -4.46069
LJ          -4.52243         4.86462        -1.62451
LJ          -1.14107         -0.6354         0.23565
LJ          -4.40036        -2.19015         2.13353
LJ           3.01942         -1.2372        -2.39136
LJ          -4.88987        0.644306        -3.33153
LJ           4.22067         1.84976        -6.01264
LJ           5.27227         2.40448         3.87684
LJ           5.73793         3.83842        0.370173
LJ           4.92513        0.598629         2.94505
LJ          -5.44276        -4.34137        -2.13302
LJ           4.19441         4.10328        -2.20983
LJ          -6.12361         4.51735        -4.11893
LJ          -6.17989        -1.54055         1.99984
LJ           2.20189         1.10414         3.23167
LJ          -4.56311        -3.72614        -2.13981
LJ           5.51208         1.75136        0.468328
LJ          -6.26814         2.67238        0.424087
LJ          -5.11105         2.31353         5.94717
LJ          -6.38493        -4.84351         5.01281
LJ          -4.57076        -2.73915         -3.5826
LJ          -4.29241        -3.61966        0.991215
LJ          -1.88634          4.7236         3.22452
LJ          -1.17736         4.95493        -2.18435
LJ          -1.02193        -5.75075       -0.126028
LJ           2.92523        -2.38259       -0.665616
LJ           -5.6243        -5.83747        -2.03771
LJ            2.2889       -0.494623         4.40364
LJ           4.12114        -6.26333        -4.48001
LJ           -2.2728        -3.37347      -0.0783029
LJ           6.26724         2.89686         5.39179
LJ          -2.91045         2.70762         6.00946
LJ          -5.07197         5.32896         1.44308
LJ          -3.97091         4.91806          2.0416
LJ          -4.45601        -3.84345         -4.2955
LJ          -1.09282        -2.50184        -5.74909
LJ          -4.06663         2.30416         -5.9842
LJ           4.62832         4.37399       0.0823265
LJ          -3.26429         2.35189        0.685435
LJ         -0.851375       0.0115607        -2.03605
LJ          -1.14292        -1.72079        -2.40264
LJ           4.91385        -6.01551         1.92339
LJ           3.44019        -2.31876         3.55008
LJ           6.42269         3.82951         1.50722
LJ           3.39533        -5.56017        -5.99818
LJ          -2.45256         5.40363         -3.9166
LJ            3.2245          4.0377         1.89717
LJ           1.77819        -1.57508        -6.37542
LJ          0.826835        -2.39017         4.72783
LJ          0.382019        -1.16211        0.998839
LJ           6.29043        0.859697         5.79604
LJ          -1.18865       -0.212562        -4.20324
LJ          -5.82181        -3.12876        -5.40341
LJ            2.2033         4.44818         3.69553
LJ           5.29738         1.58478        -3.83846
LJ           3.22379        -3.06083         -5.2049
LJ          -4.06906        -2.86233        -4.55025
LJ          -4.35281         2.41553         5.25483
LJ           3.50127         4.15259         3.41741
LJ         -0.915211        -5.57787         1.18128
LJ          -4.43468        -1.85742        -2.47763
LJ          0.155414        -1.17914        -4.64746
LJ          0.280072        -3.67929         0.40354
LJ         -0.618343         1.93308           5.636
LJ          -1.89205         5.27591         4.24259
LJ           4.56849       -0.573966         4.65585
LJ          -4.81658        -5.90372        -1.28096
LJ           3.31959         2.89813        -5.90596
LJ          -2.86383         0.43736         1.65928
LJ           1.41815        -4.18116        -2.55393
LJ          -4.07954        -5.87067        -2.24981
LJ           1.63293         3.89988        -2.24512
LJ          -2.66306         -3.3469         -4.2805
LJ           3.08037        -6.40458          -2.465
LJ          -5.37706         3.16213         3.49618
LJ          -4.12443          2.6587         1.23633
LJ          0.565228         5.34443        -6.39126
LJ           0.70655         5.44282         2.56055
LJ          -5.63683         5.58492        0.410058
LJ           1.90804        0.490931        -1.63749
LJ         -0.364003         5.09158          4.8003
LJ          -6.25844         3.81095        -3.14394
LJ           4.09967         4.90168        -2.87177
LJ           4.59913         5.44504         6.23771
LJ           -1.7842        -4.59309         1.30984
LJ           5.70747         1.29552         1.44537
LJ          -6.01073        0.252678         1.88921
LJ           1.17046        -1.80055        -1.41964
LJ           3.70087         5.05702         -4.1885
LJ          0.284675         1.21532           4.777
LJ          -5.71872        -4.20883       -0.785627
