108
#Comment!
LJ           1.75942        -3.63144         2.14577
LJ           -1.4053         4.90605        -5.77923
LJ          -5.51447         4.12446        -3.98225
LJ           1.64667       -0.992185        -4.67375
LJ          -6.15124         2.63632         2.08662
LJ          -3.37511       -0.102593        -2.49147
LJ           3.60432      -0.0370176        -3.21749
LJ          -3.08699        -6.38623        0.969025
LJ          0.707316         2.50141        -1.06765
LJ          -1.64706         2.11309        -5.00565
LJ          -1.53469         1.51874         6.20765
LJ           4.60939          4.6707       -0.600198
LJ           2.13201        -4.86716        -3.71329
LJ           1.62391        -6.32965        -2.00373
LJ         -0.584699         1.63491        -5.48867
LJ           4.77932        -1.71037        -6.30902
LJ           6.33463        -3.12264        -2.02742
LJ           1.17495        -2.60436        0.656139
LJ           2.80814          -2.904        0.614805
LJ          -2.33994       -0.434401         2.52833
LJ          -2.01059        -1.94467        -5.62508
LJ           -6.1108        -3.94238        -1.78168
LJ           5.54579         2.78264          3.9897
LJ           2.98973        -3.53444         5.57243
LJ           4.63931         3.23072         -5.4914
LJ           5.27315         5.33111         1.38427
LJ          -5.76364        -1.19958        -6.31062
LJ          -1.38138        -4.23706        -5.33753
LJ          -1.96158        -5.05234         2.54813
LJ          0.688304         2.03557          3.9322
LJ           3.13608        -1.17474        -3.29991
LJ           2.13355         1.70477         1.79124
LJ          -1.88149         4.05932        -1.19861
LJ          -2.11896         4.98695         5.25111
LJ          -1.99809        -6.01667         2.97052
LJ          0.503964        -6.35462         5.13015
LJ         -0.773077        0.867612       -0.791921
LJ          -2.92695        -1.26496         6.44114
LJ           -3.6939        -5.64588        0.938923
LJ          -4.18722        -1.26632        -6.20462
LJ          -2.00796        -5.20236         5.50185
LJ          -2.32348          1.3663       -0.587502
LJ         -0.321216        0.376023        -3.47436
LJ           4.99265        -5.18559         3.82248
LJ         -0.435702         1.39618        -3.31425
LJ          -6.36482         6.09122         1.98286
LJ         -0.866465        -1.18391        -5.43891
LJ          -6.29754        -4.10465       -0.488112
LJ          -1.08656        -3.34952         3.78126
LJ          0.071229       -0.610714         2.98411
LJ            3.4709       -0.325729         1.58537
LJ          -4.01774        -3.24916         1.43439
LJ           5.61494         2.41431        -5.02896
LJ          -6.18823        -3.18245        0.755362
LJ           6.09162        0.811682       -0.386533
LJ           3.33137      -0.0100976        -5.43955
LJ           6.35776        -6.03579        -4.97418
LJ       -0.00187008        -4.81889        -1.62291
LJ           4.10952         5.93332        -2.58801
LJ           5.63018         5.33264         2.69079
LJ           4.77118         1.66901        -4.04575
LJ          0.854761        -5.45185         2.64517
LJ            1.9037         -3.8554        -2.96883
LJ         -0.888427        -5.70156       0.0429085
LJ           -2.1841         4.34112         4.22114
LJ           -3.6212        -4.32738        -4.99711
LJ           5.01874        -2.85422        -5.21247
LJ          -1.67562         3.50147        0.799631
LJ          -2.49411        -1.97622         3.47377
LJ         -0.690223         5.40464          4.8593
LJ           2.81123         0.46332        -4.65789
LJ          -2.44132        -3.11122         1.94805
LJ            5.0927       -0.265601         2.08534
LJ          -5.95566         2.64073        -4.27569
LJ          -3.98967        -1.75034        -3.07368
LJ          0.881464         3.46158          -1.947
LJ         -0.379545        -3.93105         5.52113
LJ          -1.28175       0.0723031        -3.29866
LJ           2.59693         2.14388        -5.51583
LJ           1.51091       -0.693094         -1.1457
LJ           5.46109        -5.87766       -0.428593
LJ         -0.456622        -5.29032        -5.51072
LJ          -2.45188        -4.54294        -1.83613
LJ           2.68629         2.72555       -0.488584
LJ          -5.69034         1.63169         1.91014
LJ           -6.4616         5.41888        -5.67278
LJ           -2.2529        -3.20174        -1.35554
LJ          -2.39431        -4.03001         2.50176
LJ           0.96792         4.65969       -0.292245
LJ           2.99476         1.91086         1.24448
LJ           4.44029        -1.44887        -5.39108
LJ          -3.77526         1.69552        -2.25282
LJ         -0.607118        -3.31873         2.77881
LJ          -5.81672         3.63571         3.33243
LJ           5.30509        -2.89538        -1.01218
LJ          -5.85879        -3.20716         2.52301
LJ           3.82907         3.01929        -4.53656
LJ           1.74121        -2.09894         -2.6416
LJ          -1.71776        -6.30574        -5.59061
LJ          0.580812         5.21801          -2.609
LJ           5.93179         5.84292         6.20839
LJ           3.29493         3.72426         6.37579
LJ           3.91629         -1.4041         1.92263
LJ          0.731382        -1.20167       -0.589849
LJ          -3.15031         3.64652        -3.93404
LJ          -4.50302        -5.72836         3.52963
LJ           5.89911         1.35473        -1.60183
LJ           5.04181         3.76999        0.374069
