108
#Comment!
LJ           -5.4614         1.25848       -0.804921
LJ          -4.08457         -3.2358        -5.41037
LJ          -6.02443         2.82268        -2.92248
LJ           2.48979         5.67766         3.44383
LJ           1.12126         2.25024         2.48824
LJ           2.47826        0.551111         1.95562
LJ          -2.34949         4.62059         2.17173
LJ          -4.54939         2.68811         2.09952
LJ            5.1637         3.21514        -4.04041
LJ           1.44784        -2.46663         6.14558
LJ          -3.83074        0.275287         6.14622
LJ           -6.1988         6.04758        -3.88773
LJ         -0.380869         5.23105          3.7912
LJ          -4.13518          4.8703        -4.82221
LJ           1.10766         2.54979        -3.34377
LJ          -3.73331        -2.13483         2.86486
LJ          -4.01081        -5.80419         3.80242
LJ          -3.57783        0.643661         2.23052
LJ          0.381694         6.27444        -5.00838
LJ           5.69487        -2.23636         2.26649
LJ           1.76209        -5.82314         5.21904
LJ          -3.75577         5.12202        -2.45944
LJ           5.82006         5.57938         -2.4786
LJ           3.04649         3.84872       -0.591615
LJ            3.9141         5.57446         1.66926
LJ          -1.30726        0.253979        -2.53121
LJ          -1.87643        -6.14696         3.01538
LJ           5.74162         2.47401        0.632038
LJ           3.15002        -4.66362         1.16894
LJ          -4.55039         2.11907        -2.97263
LJ          -1.52538         1.17958         4.35498
LJ        -0.0857185        0.498933         4.01647
LJ          -3.51562         4.43442         3.22005
LJ        -0.0171697        -3.45235        -4.07989
LJ           4.38226         2.75118        -2.95555
LJ           -1.1591         1.59399         1.49113
LJ          -3.96207        -4.07813         6.24416
LJ          -6.07864       -0.848662         2.79063
LJ          -3.03631         6.13879         3.45388
LJ           -2.4432        -2.45983         5.84807
LJ         -0.370071       -0.515094        -2.24018
LJ          -5.95368         2.12442       -0.330227
LJ           5.09409         4.35801         4.69554
LJ           1.00864        -4.08552        -6.40527
LJ           5.38602         2.14482        -1.50673
LJ           5.12405        -4.85809         3.44837
LJ            5.2774        0.673953       0.0545967
LJ          -2.02161        -3.27415       -0.817048
LJ           2.63365        -1.83691        -3.37341
LJ          -0.97713       -0.867732        -4.86291
LJ           5.95391         1.31651        -3.49893
LJ          -1.10428        -4.96236         2.15734
LJ           4.99277         -3.5664        -5.04619
LJ           1.71044        0.729207         2.48675
LJ           1.20757        0.331497         -0.8628
LJ          -1.08938         1.48038         3.14655
LJ          -6.15649         5.22054         3.31538
LJ          -1.36439         1.61446        -3.52797
LJ           3.69648        -5.51599        -2.29358
LJ           4.78085        -6.35826         2.46791
LJ           2.11439         5.49822         6.18905
LJ           4.92976        -1.87488         5.12487
LJ          -4.67928         6.14538        -4.16079
LJ           3.59552        -3.98792        0.439111
LJ          -2.30173         1.26009        0.220211
LJ         -0.804802        -4.53607        0.262141
LJ          -2.44166         1.81002         4.39945
LJ          -6.37156        -4.40772        -3.18979
LJ          -4.60684         2.82097         4.78701
LJ          -1.80392        -1.44796        -3.53179
LJ         -0.916162        -3.42828         4.19925
LJ         -0.408382        -1.43894         5.08126
LJ           2.67857        0.794002        -5.23625
LJ           5.48755        -3.42566        -1.98069
LJ           3.22145         2.68341        -3.73147
LJ          -2.25477         4.52261        -3.29258
LJ         -0.164271         2.66093       -0.906378
LJ          -3.79785        -1.05745         5.91349
LJ           3.67034        -2.09774         5.22006
LJ           6.11484         5.61898         5.38503
LJ               4.6        -2.87255         4.77487
LJ          -4.82403        -4.28621         4.65747
LJ         -0.148173        -1.01819        -3.53392
LJ         -0.975803         5.25111         2.63725
LJ          -5.79182        -1.91768         6.27947
LJ           4.81381        0.384692        -1.50422
LJ          -1.00635        -2.02775          6.0242
LJ          -4.92059        -5.52644        -5.69872
LJ           1.05701         5.51243         3.12171
LJ          -2.56941        -2.90716         2.36272
LJ           3.72864        -4.07414        -2.76534
LJ            6.4515        -4.84667         1.67894
LJ          -6.27851        -5.10719       -0.817249
LJ           2.84542        -5.88654        0.946407
LJ          -2.06014         3.73321         5.64327
LJ           5.97383        -2.91074         6.22736
LJ          -4.94831        -2.30987       -0.737458
LJ          0.607283        -2.80279         2.83278
LJ           5.50877        -5.97809         3.17496
LJ           1.54873         3.77941         4.79897
LJ           3.38505      -0.0632737        -2.70677
LJ           3.16292         6.31094         3.80883
LJ          -1.13877       -0.906514        0.121079
LJ           3.92182         4.03878        -1.57827
LJ          0.805059        -5.23633         1.08241
LJ          -4.77343        -2.81963         2.82747
LJ          -4.65851         4.91927        -6.40009
LJ          0.542096         5.03509        -2.11792
