108
#Comment!
LJ           3.87859        -5.02761        -6.41702
LJ           1.05947        -2.27729         6.44039
LJ           2.87725         1.21204        0.135076
LJ          -4.60603         2.85032        -6.26999
LJ           6.22448         1.97377         -1.4886
LJ          0.403574         5.93788         5.57147
LJ          -4.67481         3.99979        -1.34112
LJ           2.97621         1.65874        -3.98627
LJ            6.1483        0.308243        -5.38599
LJ          -4.18701         1.03428        -1.09264
LJ          0.263521         2.77222        -3.28328
LJ           4.00341         1.92029         1.29584
LJ         -0.811255         3.75368        -3.78398
LJ          -2.20472           1.977        -6.04121
LJ         -0.197815        -6.11965         -1.9107
LJ           4.55355        -6.45915         4.68954
LJ          -2.41333         5.20737        0.481155
LJ         -0.975168        -3.69053         5.54708
LJ           5.29508        -4.69453          4.9585
LJ         0.0183025        -5.91042         1.01566
LJ          -1.72857        -1.79208         2.39957
LJ          0.439587        -6.32118        -4.61886
LJ           4.82767        -5.24009         3.97366
LJ          -3.55966         4.69063       -0.723464
LJ          -6.09229        -4.42029        -2.83804
LJ          -3.45528        0.610525        -2.54234
LJ           1.95442         5.70076         2.22836
LJ           2.30498       -0.149621          6.0737
LJ          -1.99236        -4.89684         2.64579
LJ         -0.695293        0.562779       -0.590469
LJ           5.55688         4.52713        -1.64617
LJ          -1.39697          4.8482         5.68904
LJ           6.30048         -4.2855         5.33143
LJ           5.92473         5.98636        -5.89618
LJ          -2.21214         2.31594         4.77049
LJ           3.14203            5.52         3.12626
LJ          -3.53781          6.4583         4.06176
LJ           3.46475         2.59087         5.06345
LJ          -4.70611        -4.36372         1.29533
LJ           5.07895         4.03693        0.965388
LJ          -4.72447         1.23855        -2.43788
LJ           4.43967         6.12926       -0.831144
LJ          0.928165         2.54048        -2.04745
LJ          -5.89943         1.31754       -0.756161
LJ            -5.732       -0.266073        -5.81361
LJ          -4.79641        -1.82934        -0.21476
LJ          0.709077        -2.50985         2.41721
LJ          -1.84745        0.658154         4.65625
LJ          -2.81807        -4.26454         2.51696
LJ          -4.60152         4.69059        -3.70026
LJ           4.60699       -0.585203         3.06977
LJ           1.14308         3.12112         5.40804
LJ           -6.1008         -3.2315        -4.63188
LJ         -0.917927         4.79432         -1.2005
LJ           -3.8465        -2.95716         -5.7035
LJ           3.74447        -2.49093       -0.667194
LJ           5.28656         2.98212         5.30643
LJ          -5.74171        -4.32894        -5.66142
LJ          -5.65101         5.08462           3.676
LJ          -1.60275         -2.1565        -3.66128
LJ          -4.67085        -2.35302         3.34703
LJ            6.2919         3.94058         1.63492
LJ          -2.67193         6.35045       -0.651555
LJ           5.15149         5.23271         4.04082
LJ           2.56823         4.59127         3.56213
LJ           4.24282         5.63608         2.78768
LJ           2.44434         5.91489         5.92941
LJ           2.77177        -6.03974        -3.05687
LJ          -5.51418        -2.22926        0.865863
LJ           1.62524         3.99426       -0.922037
LJ          -3.32231         5.10083         -1.5183
LJ          -4.98369         5.39156        -2.38281
LJ         -0.178525        -3.00238        -4.40661
LJ           2.35095         3.20845        -3.92057
LJ         -0.461385         3.20894        -2.65009
LJ          -4.23199         1.21542        -4.37125
LJ           5.82228         -2.6886         4.65105
LJ           6.19907         5.46636        -1.82189
LJ           1.72223       -0.543261         4.34524
LJ           5.82365        -3.02014        -1.59904
LJ          -1.24821         2.41675        -3.53784
LJ           1.19918         5.62932        -5.91141
LJ          -3.73066         2.16061        -1.36074
LJ           3.07387          -2.395         1.93934
LJ           3.03046        -1.18232        -5.21055
LJ          0.108278         -6.4064       -0.615758
LJ          -2.97013        -3.18422         2.61192
LJ          -4.67824        -3.57775       -0.440194
LJ          -1.76315        -1.80635        -6.41231
LJ           2.79116        -6.34847          -6.318
LJ            3.7081         4.03806          3.2671
LJ            1.7338        -3.76094         1.11022
LJ          -3.91631         2.13093        -2.92363
LJ           6.14833          3.0851          4.5621
LJ            -5.969          -2.825        -5.76489
LJ          -1.78736        -3.60439       -0.913943
LJ           1.73363         3.13126        0.165197
LJ          0.419176         3.29141         -6.3777
LJ          -2.40905        0.214657        -2.37991
LJ          -2.20663        -2.22603       -0.832768
LJ           3.24369        -1.66013         6.24753
LJ           2.65871        -1.22239          4.8299
LJ           4.29884        0.160377         5.94567
LJ          -1.50402         3.10414         4.98353
LJ           3.56571        -3.37921        -1.57399
LJ          -5.38764        -3.45807         4.71322
LJ          0.223367       -0.918314        -1.50422
LJ          -2.24594         6.18114        0.212768
