108
#Comment!
LJ          -4.20852       -0.133126       -0.636956
LJ          0.637277        -3.41363         0.63311
LJ           2.79461         -3.8265         1.69276
LJ           3.37772         -3.4247        -1.58591
LJ          -1.59004        -3.69688         4.39824
LJ           2.03124         2.07296         4.45704
LJ           4.12678         2.81434         4.38599
LJ           5.72071       -0.819655         1.94871
LJ          -2.72669        -1.15123         1.99909
LJ           1.30653         6.42523        -1.57863
LJ         -0.746074        -1.57973       -0.996177
LJ         -0.117375        -4.27926        -3.82809
LJ          -3.22861       -0.432705        -1.28188
LJ          -4.98946         -2.5638         4.50889
LJ          -3.24684         4.72628           6.277
LJ          0.407841        -4.03933         4.90488
LJ           4.04733        -4.02142        -4.08335
LJ          -6.32714         2.69056         6.03753
LJ          -3.95268        0.828664         0.06277
LJ         -0.542121        -4.74782        0.491084
LJ          0.799615        -3.77227         5.82582
LJ          -4.01264         2.62049        -2.27711
LJ          -5.69422         -1.2367        -2.33362
LJ           3.97368         1.84956        -6.08345
LJ          -1.39808        -1.82955          6.0392
LJ          -5.71759        0.872278         3.82915
LJ          -2.38992        -2.49184       -0.135009
LJ          -3.64983       -0.430615         5.50005
LJ          -1.15419          -3.858       -0.651359
LJ          -1.58398        -2.82645        -1.48556
LJ           1.95654         2.13056         5.58743
LJ          -5.86555         1.79697         6.09941
LJ           5.29021        -2.75263        -3.77463
LJ          -6.05592        -4.25718       -0.591626
LJ           5.17584         5.49309         4.06714
LJ          -5.43119       -0.344619          5.2406
LJ           3.88235         1.14912          4.3238
LJ          -1.02703        -2.56793         3.75997
LJ           -5.1011         5.81849         1.07613
LJ          -1.03424        -4.75065         2.86578
LJ          -1.44802         2.71826         6.40848
LJ           5.18509         2.66725       -0.208493
LJ         0.0540507        -4.90354        -1.69769
LJ          -4.21499           5.447         2.54695
LJ          0.873889        -1.34302        -0.86374
LJ          0.542633        0.989193        -2.96151
LJ          -3.39845        -5.16739         6.13175
LJ          -1.92295       -0.439793        -6.22728
LJ           3.45898        -6.04441        -1.35143
LJ          -1.25792        -5.93182         4.16017
LJ            2.2189         3.62885        -5.05102
LJ          -5.87759        -3.68804        -6.14547
LJ          -2.42044         5.10026         5.18521
LJ           5.79732         4.88898         2.70364
LJ          -2.94087         -2.6535          2.8514
LJ          0.125508        -2.99788          4.5956
LJ            -4.661         5.25321         4.79715
LJ           0.65687         2.68837        -2.55207
LJ           0.24653        -2.44667        -5.70993
LJ           3.21825         6.03363         4.53761
LJ          -5.92231         2.49271         1.11021
LJ           0.18008        -1.22624        -4.68497
LJ          -5.01768       -0.844405        -3.28468
LJ           3.61202         4.12044          3.8678
LJ          -1.57501         1.44825        -1.52388
LJ          -4.91842        0.758881        -2.83799
LJ          -1.18453        -2.47337        -2.57801
LJ          0.102212           5.679        0.921291
LJ          -5.70768        -3.26694        -1.40895
LJ           5.62104        -2.92475        -5.13328
LJ            5.7734        -1.92722         2.00804
LJ           6.36069       -0.540038        -1.45711
LJ           2.74828         -5.1143         1.43009
LJ          -4.62059        -4.05833        -5.56679
LJ          -3.45785         -1.2689        -6.06852
LJ           1.42448         1.81131         3.58913
LJ           -4.3428         4.09773         6.26087
LJ           5.78905        -3.46292        -3.23205
LJ          -2.85134         5.12835         1.18775
LJ          -5.48178        -3.89566        -3.41248
LJ         -0.948372         2.27347        -3.37273
LJ          -5.85865         4.90939         3.39457
LJ          -4.14313         6.43728        -1.13801
LJ          -3.90986           2.706          4.9539
LJ           1.84094        -1.71522        -1.22337
LJ          -4.83334          2.3815         3.62968
LJ           2.01038         -3.5036         2.58732
LJ          -2.02492        -5.75086         3.37085
LJ          0.413624        -4.14778       -0.891056
LJ           2.85801        -2.07918        -5.24021
LJ           3.89806        -1.08915        0.932725
LJ         0.0124101         -5.1051        -5.27311
LJ          0.887726        -4.45271         1.71954
LJ          -1.62981         6.06684        -5.13526
LJ          -3.52497       -0.379495          2.3761
LJ          -4.60368         4.78133        -2.02707
LJ          -3.17825         -3.4056       -0.511992
LJ           1.63167        -5.96458        -4.27038
LJ          -2.11144        0.321586        -2.80591
LJ          -4.65359         5.27446       -0.761992
LJ          -1.15507          6.0255        -6.33693
LJ            1.0742        -6.06655         5.78106
LJ         -0.454501         -3.8503         3.89235
LJ           6.00729         1.53841         4.31873
LJ          -4.08331         6.27919          -5.053
LJ           2.04872          5.0505        -3.35089
LJ          -6.09017         6.19169        -1.89636
LJ          -4.47051         3.97346        -3.91274
