108
#Comment!
LJ           4.01454        -5.02896         6.20232
LJ           1.41576        -1.84408        -6.43233
LJ           2.32563         1.22839        0.119271
LJ          -4.22488          3.0242         5.86033
LJ           6.24759          2.0353        -1.35431
LJ          0.563713           6.052         5.43069
LJ          -4.61894         4.47228        -1.03776
LJ           2.69573        0.465358        -4.36996
LJ           5.76988        0.032947        -4.76492
LJ          -3.14257        0.707431        -1.57855
LJ          0.532629         3.21944        -3.42125
LJ           4.35044         2.46979         1.31965
LJ         -0.304246         3.78094        -3.85546
LJ          -1.98722         1.41996        -5.77048
LJ          0.135806         6.39572        -1.94724
LJ           5.49233         6.22951         3.89199
LJ          -2.25417         5.00129         1.01984
LJ          -1.12747        -4.45574         5.46221
LJ           5.16044         -5.3705         5.17512
LJ           0.29155         -5.4951         1.27838
LJ          -2.23387        -2.16313         2.75344
LJ          0.725575        -6.26041        -5.13289
LJ           4.01701        -5.15435          3.9743
LJ          -2.85065         4.15308        0.104803
LJ          -6.08547        -4.00598        -2.25731
LJ           -3.7633         0.36505        -2.40647
LJ           2.32185         6.26087         2.84654
LJ           2.35254       -0.508491        -6.10492
LJ          -1.99624        -4.89457         2.64744
LJ         -0.495483        0.670447       -0.674243
LJ           4.92585         4.22203        -2.35692
LJ          -1.73521         4.75525         6.21071
LJ           5.82138        -4.36736         4.82299
LJ          -6.38728        -6.27487        -5.89533
LJ          -2.87733         1.90392          4.9405
LJ           3.40731         5.64462         3.53462
LJ          -4.06005         5.96351          3.4457
LJ           3.70875         2.16268         5.26746
LJ          -4.73412        -4.78488         0.91914
LJ           4.49789          3.5304        0.211217
LJ          -5.29776        0.723591        -1.28422
LJ           4.54584        -5.89176        -1.25363
LJ           1.68315         2.60144        -3.17663
LJ          -5.91817         1.90492       -0.601153
LJ          -6.24246      -0.0616081        -5.42007
LJ           -4.0492        -2.10736       0.0419193
LJ           0.32375         -1.8908         2.23632
LJ          -1.73906        0.998951         5.17418
LJ          -2.97219        -4.06726         1.93599
LJ          -5.08573         5.06621        -3.88659
LJ           3.77698       -0.869664         3.28233
LJ           1.58169         2.54088         5.81605
LJ           6.11231         -3.1947        -4.75488
LJ         -0.555581         5.16939        -1.52822
LJ          -3.69652        -3.26944         -5.2153
LJ           3.02458        -2.40155       -0.642213
LJ           4.28716         2.78008          4.6429
LJ          -6.19611        -4.48151        -5.69616
LJ          -5.27176         5.04317         4.30434
LJ          -2.06408        -2.51694        -3.41622
LJ          -5.10923         -3.4761         3.46223
LJ           -6.2737         4.04882         1.04447
LJ          -3.13532        -6.37939        -1.34277
LJ           4.77411         5.08212         4.19477
LJ           2.27273         4.43159         3.18992
LJ           3.52952          5.9437         2.32114
LJ           1.76859          5.8488         5.60408
LJ           2.51393        -5.32815        -2.22226
LJ          -3.92185        -1.80998         1.14454
LJ           2.14635         4.13603       -0.684126
LJ          -3.49596         5.32962        -1.86219
LJ          -5.18323         5.68272        -2.07892
LJ         -0.072005        -2.82955        -4.70868
LJ           2.95834         2.74654        -4.67647
LJ          -0.42906         3.18522        -2.56415
LJ          -4.55102         1.37666        -3.93405
LJ            5.7357        -2.08971         4.66335
LJ          -6.43101         5.49265        -1.80804
LJ           2.59151       -0.461926         4.35504
LJ           6.09595        -3.47875        -2.01275
LJ          -1.20998         3.09891        -3.66981
LJ           1.75848         5.71128        -5.91708
LJ          -3.81529         1.84879        -1.22172
LJ           3.25073        -1.52343         2.01493
LJ           2.94957        -1.43769        -4.76393
LJ        -0.0264733         6.31562       -0.664773
LJ          -2.33808        -2.97371         2.00766
LJ          -4.65391        -3.68888       -0.745095
LJ          -2.44344        -1.86045         5.96904
LJ           2.55085         6.18328        -5.59496
LJ           4.01104         4.82606         3.51753
LJ            1.7817        -3.88216         1.22476
LJ          -3.93357         2.66562         -2.7461
LJ           5.82737         2.96251         5.13754
LJ            -5.901        -3.15352         -6.2228
LJ          -2.50123        -3.16839       -0.992698
LJ           2.13496         3.45392       0.0857407
LJ          -0.46976         3.62553        -6.23485
LJ          -2.54099         0.86976        -3.08835
LJ          -1.52498        -1.80911       -0.998537
LJ           3.07679        -1.99717         5.97684
LJ           2.19557        -1.82295         5.29568
LJ           5.21013        0.192236         -6.3579
LJ           -1.3709         1.95176         4.85094
LJ           4.54868        -3.23169       -0.910882
LJ          -4.75703        -3.91455         4.28835
LJ         -0.445464       -0.300735       -0.800472
LJ          -2.21725        -6.31936       -0.161241
