108
#Comment!
LJ           3.82054         4.44821        -4.84106
LJ          -3.35856        -2.12875        -6.35718
LJ           5.79938        0.500025        -2.34271
LJ          -3.86427         -1.1175         6.06053
LJ          -1.76715        -4.90433         5.68927
LJ           3.63161         3.07993         3.27396
LJ          -3.51971        -5.16484       -0.837058
LJ           5.20051         3.99787         1.86865
LJ          0.772172         3.01333         4.50735
LJ           2.33057        -2.82871        0.607081
LJ          -5.90997         5.93646        -3.24399
LJ          -6.05187         4.97145        -3.11313
LJ           6.06229       -0.441165        -5.93288
LJ           1.60199         1.40409         5.91874
LJ           5.79063         2.36032         -2.8776
LJ       -0.00226208         6.28945         3.93289
LJ           1.42423         5.30619         4.36394
LJ           2.80291         6.36301         4.61199
LJ           1.55674        -5.43679        0.247825
LJ           2.38519        -2.95061        -6.13914
LJ            1.8385         -5.4364         4.58244
LJ          -1.65816        -5.52662          -1.214
LJ           2.16201        -4.19879        -0.46923
LJ           5.67959       0.0405848        -1.37874
LJ           2.64383         5.63493         3.22202
LJ          -2.85146       -0.207823        -6.03204
LJ          0.210563        -2.73157        -3.12449
LJ         -0.189631         1.78359         4.70964
LJ          -2.87802        -1.73371         3.03585
LJ           2.66951        0.345263        0.727138
LJ         -0.414123         3.32869        -2.14834
LJ           2.36406         1.12195         1.59851
LJ          0.392054         3.33924         2.49321
LJ           3.75249         3.55979        -3.24494
LJ          -1.07124        -4.84575      -0.0787528
LJ          -2.16458        -4.76885         -1.0995
LJ           6.08772         2.87646       -0.937046
LJ          -5.33495         5.58612        -2.51647
LJ           6.16462        -4.97205       -0.892052
LJ         -0.213638        -4.84736        -2.10912
LJ          -2.73135         -6.0864        -3.00384
LJ           2.46581         4.78802        -5.64821
LJ           -4.9243          3.7993         1.63662
LJ           3.82692         3.95035         5.30868
LJ          -4.21489         5.11306          3.8615
LJ            5.6836        -4.77182         2.34885
LJ          -6.08789        0.226932        -1.39449
LJ          -5.81407        -5.79302        -1.84939
LJ          -5.83384        -5.00599        -3.89565
LJ         -0.730091         1.94102        0.972761
LJ          -1.99146        -1.98242         2.92742
LJ          -5.19176        -1.47708        -1.27971
LJ          0.293643        -4.86816         2.33143
LJ            3.2216         2.18666         1.23348
LJ           -4.6762        -1.35828      -0.0409448
LJ          -2.41978         5.85638        -2.82122
LJ         -0.875335        -3.84145        -1.35831
LJ           4.39209        0.689941        -3.21807
LJ            5.9239         5.15571        0.122875
LJ          -4.94804         5.74648        -5.21327
LJ            6.4365         6.00866        -2.21468
LJ           2.35387         1.07862          4.8575
LJ          -1.99486        -2.08281        -6.43807
LJ          -2.89032        -2.57422        -2.39999
LJ           1.30933        -2.93606        -3.45888
LJ          -5.30389        -0.11213         5.60357
LJ          -4.51099        -5.64728        -3.64809
LJ           1.28484         2.23185         3.44156
LJ           5.31998        -5.79788          1.9595
LJ           4.16691        -4.30311        0.938075
LJ          -6.16592        -5.60728        -3.06447
LJ          -1.77365         6.15797        -3.46587
LJ           2.59001        -4.68218        -3.45778
LJ           5.17274        -2.69133        -5.84039
LJ          -5.06354        -5.97898          1.4065
LJ           3.10978        -2.76153         5.65635
LJ          0.860982        -5.84893         2.24917
LJ            3.5649        -3.91316          6.3928
LJ          -2.54857        -3.20109         2.17831
LJ          -1.05066        0.645836         1.94631
LJ          0.820486         6.43539          4.5355
LJ          -6.27823         4.76423        -1.09928
LJ          0.194649         4.91108        -6.03303
LJ           4.40796         5.14081         -4.2936
LJ          0.588676         4.12553        -5.65746
LJ          -4.65397         1.81463        0.570923
LJ          -6.32318        -5.52235         5.73276
LJ          -4.48866         1.17973         5.44831
LJ         -0.976482         5.14012         4.49246
LJ            5.0866         2.42459         4.88717
LJ          -3.17563         4.14077       -0.143202
LJ           6.46235         -5.4211         3.11103
LJ           2.34148        -4.11181         1.08273
LJ          -3.40913        -2.44244         2.44886
LJ          -2.43898         2.01069         4.13538
LJ           6.15485         6.42445        -5.56054
LJ          -5.35918          5.1374         3.88413
LJ          -1.02019        -5.40012        -2.91503
LJ          -4.59616        -3.04708         5.48956
LJ          0.527184        -1.44581         5.05235
LJ           1.56816        -5.54244        -4.63931
LJ         -0.170216        -1.43396        0.868822
LJ          -4.69816         1.16711         -4.8988
LJ           3.61041         2.69082         4.31151
LJ          0.552686        0.908267         2.20983
LJ           2.18101        0.748898         2.97406
LJ          0.471273         3.96591         5.34565
LJ          -3.50967        -2.06287        0.328951
