108
#Comment!
LJ           4.65989          1.1704        -3.71846
LJ          -2.02565        -5.94332       -0.637911
LJ           5.50592         -2.9054         6.31811
LJ         -0.816071         1.68141         5.63747
LJ           4.22815        -2.37428         2.79798
LJ           -4.5265        -4.60494         4.36376
LJ           2.63844         5.03863        -0.31657
LJ           4.54025          4.7272          5.5836
LJ           1.36508         4.92238          5.2027
LJ          -5.74778        -5.47998        -1.56027
LJ         -0.597879        -2.28499        0.903425
LJ           2.83258      -0.0181582         2.84432
LJ            3.4611        -4.23081        -1.96555
LJ           5.22991        -1.59107       -0.599037
LJ          -2.93669        -2.79038       -0.289203
LJ           6.04858         1.34332        -1.76891
LJ          -2.96773        -5.68879       -0.537696
LJ           -3.1702        -4.26383       -0.558797
LJ         -0.685939        -4.21283        -1.54149
LJ         -0.448375         5.29384        0.493548
LJ           2.19043        -1.31098        -5.93954
LJ          -4.56646        -1.18904         1.57206
LJ          -3.34156         1.38397         -1.8984
LJ           1.55645       -0.106262        -1.49101
LJ          -5.59938         1.62892        -1.00793
LJ           4.61875         2.84146        -1.70045
LJ          -2.74272         2.30456         3.04612
LJ          -5.31879          5.8444         -0.7535
LJ          -3.62574        0.160522        -4.56517
LJ           3.53042         6.18952        -5.18012
LJ          -5.66104       -0.782153         4.58813
LJ           6.11227        0.482591          3.1196
LJ          -2.76439        -3.52689        0.546211
LJ           6.22209         1.51801        -2.90103
LJ          -3.19799         4.79129         -2.2033
LJ           -5.7935         3.96354         2.57466
LJ          -5.85938         2.75464        -4.71534
LJ           5.95139        -2.50266        -4.51108
LJ          -1.59042        -2.80472         1.40033
LJ          -3.34542         3.01272         5.12142
LJ           5.07836          2.1206        -5.03351
LJ          -6.16285        -1.89631        -1.63381
LJ           3.15464         3.67553         -2.8658
LJ          -6.37853        -5.96343         -4.5782
LJ             1.823        -2.53682         2.03455
LJ          -2.02882        -0.33289        -6.07936
LJ          -2.66995        -4.76404        -2.37221
LJ          -2.70231         5.57005         2.65309
LJ           -2.4781       -0.304654         4.90094
LJ           3.93794         5.39884         3.97784
LJ          -2.28737         3.01379        0.861831
LJ           6.15724        -3.20026        -5.32978
LJ          0.999521         -1.9263        -5.66406
LJ          -1.23925        0.760427         6.12009
LJ            4.1502         1.30095         6.12588
LJ          -5.03946         5.95378        -1.93794
LJ          -2.45537        -1.83582         -6.0415
LJ         0.0508321        -3.38197        -3.73671
LJ          -4.60167         4.36159         3.17595
LJ           6.02996       -0.638632         3.11252
LJ          0.490753         3.56635         1.18267
LJ           4.84986         4.45842        -5.75321
LJ           1.22749         3.70694        -2.26777
LJ         -0.833677         4.76258         4.26812
LJ           5.97264         5.50063         3.13201
LJ          -2.78528        -4.73352        -4.84235
LJ           1.00079         4.78115        0.594919
LJ           2.28822       -0.331348        -4.76287
LJ          -2.77668       -0.910834       -0.482596
LJ           2.91003       -0.509185        -2.80374
LJ           5.34132         5.48056        -5.93467
LJ           4.14414         4.20107        -2.22107
LJ           1.36985       -0.985525        -5.16915
LJ           5.15642         -2.6653        -5.16025
LJ          -3.51593          2.0432        -5.72348
LJ           5.44873         4.86632          3.7817
LJ             3.235          6.4494         0.53868
LJ          -6.34597        -2.84856        -3.43331
LJ           4.13243        -5.87111        0.832459
LJ           2.64636        -4.66454         3.69346
LJ           -1.1803       -0.256512         -5.3668
LJ          -2.78512         3.21597         4.11489
LJ          -5.52753        -5.01777         1.15669
LJ          -3.48334         2.38327         1.31619
LJ         0.0673386         5.13337          5.3933
LJ          -1.85284       -0.786308         1.63644
LJ           1.49102        -3.65173         1.70901
LJ           6.14067        -5.75393        -2.09572
LJ           2.51251         2.91967       -0.531174
LJ           -3.7332        -5.35076        -4.38741
LJ           3.78576        -3.47193         -5.3415
LJ          -5.91153         1.67891        0.160193
LJ          -4.55849         2.40147        -1.79912
LJ           2.98604        -5.46739         1.03314
LJ           2.07257        -3.05565         3.33193
LJ          -5.58803          5.2117         4.29543
LJ           2.24568        -3.79938        -4.37087
LJ          -3.71745         3.48957          3.6182
LJ           4.55133        -6.06948        -4.85741
LJ           2.68073        -4.57223        -5.05196
LJ          -4.55693         6.44362          3.4372
LJ           -2.7391        -1.07966         3.99235
LJ           4.36575         6.33633        -1.49354
LJ          -3.26796        -2.12342        0.365384
LJ           1.96717        -1.83684        0.874381
LJ           3.77498        -5.55354        -5.45491
LJ          -4.77535         3.39901         3.26225
LJ          -5.62089        -5.95271        -0.63841
