108
#Comment!
LJ          -0.84861          5.8953         5.26903
LJ           3.14059        -3.04026         6.05306
LJ          -1.86282        -4.15088        -5.06512
LJ           3.25898         -5.2284        -4.98968
LJ           3.50749        -4.45547        -5.68766
LJ          -5.15615        -4.27117         6.44158
LJ           3.00597        -5.09071        -2.46083
LJ           -4.9399         -6.3843        -4.17487
LJ          -5.87634         6.38153          4.9307
LJ          0.104371          -5.404        -5.81754
LJ          -5.85716        -5.15534        -5.66397
LJ         -0.969347         5.85131         -3.5539
LJ           -1.4473        -1.47194        -5.14436
LJ           2.98299         0.21552        -5.84668
LJ         -0.994897        0.845625        -3.21285
LJ           3.10011        -1.86413        -4.88369
LJ           2.88252        -1.15794         -6.1077
LJ          -5.09005        -1.76977         6.45983
LJ           1.21767         -1.6743        -4.47193
LJ            1.3283        -5.32228         5.33462
LJ          -3.91361         -2.8904         6.08138
LJ           1.60371         2.22766         5.12293
LJ          -4.02336        0.532735         -6.4065
LJ          -1.57898        -2.44085        -3.26046
LJ         -0.618303         5.86614        -6.30597
LJ            3.8957         3.54088        -6.29334
LJ         -0.435577         5.15562        -4.21499
LJ           3.62602         2.17989        -4.98913
LJ           3.50727         1.65318          5.5559
LJ           -5.8397         2.90056        -4.66925
LJ            2.9805         4.31884         -3.7723
LJ          -5.47139         4.01441        -3.58849
LJ          -5.30772          2.5034         6.30827
LJ          -1.13312         3.71217         5.77875
LJ          -5.33034         4.83169        -5.21348
LJ         -0.638195         2.70256        -3.69149
LJ         -0.220984         5.54157        -1.83392
LJ           1.53271        -4.30174        -3.25695
LJ         -0.274511        -4.12415       -0.776764
LJ           2.88511        -6.41187        0.949789
LJ            2.9002        -6.16276        -1.62249
LJ          -5.63757        -5.25933        -3.65617
LJ          -3.27517         6.13061        0.161049
LJ             6.313         5.52824         1.05129
LJ           -6.0484         6.21462        -3.16277
LJ           4.89294        -4.61386         6.46292
LJ          -5.15894         6.42722       -0.474571
LJ         -0.688378        -5.57489        0.396437
LJ          -1.20381        -1.52778         -2.6833
LJ           4.19839          1.6733        -3.45943
LJ          -2.27474         1.80407        0.217318
LJ           2.69224        -1.79708       -0.386296
LJ          -1.82144        -1.36737       -0.442604
LJ          -4.51281          1.1826        -1.53966
LJ           3.15331       -0.514145       -0.954068
LJ           2.10534        0.516793       -0.704111
LJ           2.64686        -3.64545         2.97841
LJ          -1.65254        0.369983        -2.29972
LJ              4.91         2.61637        0.445357
LJ        -0.0336383        -4.54252        0.590888
LJ          -2.07026         3.18648        -1.66498
LJ           6.03081         2.67446        0.631095
LJ          -2.18683         4.29163        0.561389
LJ           3.53925         2.05839        -2.04361
LJ           3.79812         3.96905        -2.74836
LJ          -5.29418         5.39918        -1.14981
LJ           3.44313         3.91874         1.42891
LJ          -5.07809         1.48429        0.398358
LJ           4.45179         3.97125        -4.02058
LJ         -0.420317         2.35661        -1.48779
LJ          -5.44203         4.41258       0.0431744
LJ          0.490208         2.90695        -1.26569
LJ         -0.929357        -6.41342         1.77668
LJ           3.69652        -4.57066          1.2554
LJ          -1.11036        -5.97705         4.51658
LJ            3.2951        -6.29481         3.89265
LJ           2.92593        -5.54079         2.84114
LJ          -5.35659        -4.75024         2.49353
LJ         0.0415329        -3.61698         2.22095
LJ          -5.90905        -5.23522         4.46714
LJ          -5.21504         5.85366          2.9448
LJ          -1.39338        -4.87706         2.22931
LJ          -4.76141        -4.13086         4.54921
LJ          -1.38732        -6.20762        -6.42357
LJ          -3.99354        -5.32396       -0.838435
LJ           1.93603       -0.205527         1.92346
LJ          -0.89173         2.43888         4.62617
LJ           2.64309        -2.58352         3.75643
LJ          -3.54753        0.547278         2.25784
LJ           3.35466        -1.05433         3.30252
LJ           3.89059         1.26274          3.0594
LJ          -4.36119        -3.18277         3.89032
LJ          -5.00582        -2.38276         1.62683
LJ           -1.2971        0.770806         2.55603
LJ           -5.2258        0.402436         5.35403
LJ           2.89279       -0.495475         5.72479
LJ          -2.84583         1.14622         4.93905
LJ           2.75902         4.80378         2.71623
LJ          -2.36313         4.23285         4.99081
LJ           3.69972        0.234289         3.96266
LJ          0.810403       0.0332814         3.43645
LJ          -4.36738         4.20736         0.44815
LJ           3.50935         3.65853         4.12666
LJ          -5.33909         1.47193         4.86273
LJ          -5.94188        0.138724         2.49548
LJ         -0.499582         3.86693         1.63743
LJ          -6.00558         4.44108          5.2972
LJ          -1.83821        0.983286         4.40451
