108
#Comment!
LJ           3.84181          4.8596        -5.33839
LJ          -2.57103        -2.32268         6.29517
LJ          -6.34372       -0.219863        -2.90907
LJ          -2.90117        -1.15833        -6.41956
LJ           -2.9073        -4.14582         5.92338
LJ           3.62908         1.83761         3.22138
LJ          -3.89655        -4.81811        -1.17196
LJ              5.85          4.1581         1.16644
LJ         -0.165759         3.35123         5.47299
LJ           3.18588        -3.33439          1.7561
LJ           6.18583         6.26173        -3.93809
LJ          -6.34722          4.5746        -2.66986
LJ           5.10522       -0.571821         -5.7627
LJ          0.985915        0.710863         6.27916
LJ           4.90597          2.1643        -2.77104
LJ          0.549606        -6.22686         3.07948
LJ           1.87372         4.48018         4.58038
LJ           2.52725        -5.92158         4.83103
LJ           1.61834         -4.7807       -0.558921
LJ            2.2737        -3.59941         6.15938
LJ           1.33307        -5.02529         5.02377
LJ         -0.764074        -5.89831       -0.132347
LJ           1.39962         -3.7734        -1.19765
LJ           6.32408        -0.34284         -1.4893
LJ           1.82497         5.59029         3.91992
LJ          -1.74935        0.180415        -6.02273
LJ          0.241675        -2.79925         -3.3132
LJ          0.153817         1.57543         4.96258
LJ          -3.49206       -0.973437          3.7532
LJ           3.12945        0.517087       0.0580949
LJ          -1.63543          3.3532        -2.42485
LJ           3.55072           1.213        0.882687
LJ         -0.312365         3.16937         3.02885
LJ           2.85216         3.18416        -3.52666
LJ          -1.68269         -5.5353        0.864329
LJ          -2.39642        -3.93763        -1.38418
LJ           5.97023         3.74259        -1.77884
LJ          -5.02145         6.13999        -2.92215
LJ           5.15023        -4.49811        -0.62698
LJ         -0.144761        -4.91601        -1.61792
LJ          -3.57267        -5.95221        -2.48462
LJ           2.86214         5.35245         -5.3442
LJ          -4.62788         4.07725         1.41622
LJ           3.82699         3.97972         5.07337
LJ          -4.23923         5.43527         4.55291
LJ           5.36467        -4.76927          2.4069
LJ          -5.78799         1.13608         -1.2614
LJ          -5.51027        -5.85452        -1.45425
LJ           5.89563         -4.5045        -3.76758
LJ         -0.117666         2.19499         1.91114
LJ          -1.69513        -3.21471         2.85258
LJ          -4.03634        -1.24033        -1.09112
LJ        -0.0638221        -4.53745         1.77274
LJ           3.59377         2.45854        0.986856
LJ          -5.40695        -1.27898     0.000326077
LJ          -3.60083         5.13435        -2.52566
LJ         -0.356347        -3.99529        -2.72418
LJ           5.19278        0.654373        -3.16026
LJ            5.4523         4.93591        0.228968
LJ          -3.93533         6.00283        -4.29753
LJ          -5.93451         5.63319        -2.08154
LJ           3.62235         1.15117         4.54768
LJ          -2.03237        -2.92142        -5.34551
LJ          -2.09219        -1.57382        -2.74064
LJ           2.05715        -3.88002        -3.22216
LJ           -5.1467          1.0161         4.70589
LJ          -5.06048        -6.13739        -4.93268
LJ           1.53097         1.74009         2.47516
LJ            5.8018        -6.11073         2.21543
LJ           3.91469        -3.80147        0.367335
LJ          -6.18062         -6.4558        -2.69436
LJ          -1.45097         5.69438        -3.20792
LJ           2.33902        -5.08189        -4.64131
LJ           5.08437        -2.75273         -4.9093
LJ           -4.3375        -5.73558          1.9419
LJ           3.06758        -1.45454         5.30444
LJ           1.47639        -5.69042          2.5098
LJ           3.68032        -4.11032         5.54472
LJ          -2.52667        -3.36876         1.86567
LJ         0.0611647        -0.24801         2.23401
LJ          0.876087         6.33994         4.14138
LJ          -6.13965         5.61481        0.375192
LJ        -0.0803434           6.165         6.23056
LJ           5.22636         5.58568        -5.03329
LJ         -0.169546         4.06249          -5.887
LJ          -4.02047         1.40483        0.916175
LJ           5.91149        -6.28309         6.13164
LJ           -3.8037        0.464035         5.05724
LJ          -1.60471         4.54094         4.18189
LJ           5.41713         1.37781          5.1805
LJ          -3.93937          3.6854        0.212887
LJ           6.43437        -5.53337         3.31782
LJ           1.43407        -3.58736          1.2716
LJ          -3.49995        -1.43319         2.31632
LJ          -2.70246         1.91253         3.98211
LJ           5.22503         5.55056        -6.17828
LJ          -5.06922         4.41137         4.30521
LJ         -0.558507        -5.96168        -2.09647
LJ          -4.36299           -3.87         5.33033
LJ          0.369313        -2.02023         4.90266
LJ           1.42923        -4.70183        -5.10006
LJ          -0.72552       -0.918099        0.530288
LJ          -5.23982         1.44135        -5.38624
LJ           4.00379         2.70436         4.67825
LJ          0.269428         1.03702         2.55763
LJ           2.57247         1.20698         3.15976
LJ         -0.136768         4.52681         5.34404
LJ          -3.43175        -1.76745        0.954535
