108
#Comment!
LJ           3.34526         1.67577        -4.52496
LJ          -3.63111        -4.50588        -2.10947
LJ           3.86066       -0.936202        -5.94668
LJ          -1.88489         3.82084         5.60815
LJ          -6.11104        -3.94416         1.68421
LJ          -3.97262         5.12894         5.15374
LJ           1.19813         2.68918        -1.85542
LJ           4.67648         4.70131        -5.24618
LJ         -0.745324        -3.93793         0.33217
LJ          -6.39735        -5.99314        -1.11448
LJ          -1.06907         1.44639       -0.807421
LJ            3.0964       -0.897231         2.96453
LJ           3.67232        -5.18999        -2.34468
LJ          -5.56499       -0.823983        -2.68767
LJ          -1.65821        -3.83711        -1.78639
LJ            6.1149        0.894122         -3.5889
LJ          -3.47113         4.26486        -1.20793
LJ          -2.12477        -4.01324       -0.189089
LJ          -2.54196        -2.41066         1.96827
LJ          0.391356        -4.98619         1.41281
LJ           2.30818        -1.57087        -6.11841
LJ          -3.30833        -1.81306         3.20527
LJ          -1.24334       -0.165401        -2.07624
LJ        -0.0599921       -0.675143        0.853413
LJ          -5.25532         1.08982        -1.66276
LJ           3.75324          0.4691        -1.88202
LJ         -0.875308           2.245         4.99963
LJ          -4.78997         4.36206        -1.22683
LJ          -1.64226        -1.83312         6.06876
LJ           2.65216        -4.69696        -6.18232
LJ           6.09073         1.13142        -5.12166
LJ           -4.5745         1.91528         2.77994
LJ         -0.904164        -2.18318         1.26646
LJ           5.43594         1.13954        -4.35354
LJ         -0.729747        -4.98549        -3.02849
LJ          -4.68468         2.78412       -0.517273
LJ          -4.77829         1.23249        -3.10087
LJ           5.89154        -1.75148        -4.45384
LJ          -1.62629        -5.14232         3.79635
LJ           -3.4271         2.11911         4.36712
LJ          -4.67934        0.430107         6.09932
LJ           4.24416       -0.704635        -2.29162
LJ            4.6764        -6.09696        -2.73116
LJ           6.40336        -5.98257        -5.65985
LJ          0.648206        -2.26453        0.491827
LJ            1.1666         2.93214         5.39433
LJ          -3.14826        -5.97986        -2.03106
LJ         -0.496517        -5.70398         1.22643
LJ          -2.39578         -2.7575         5.26473
LJ           2.51304          5.4254         4.94234
LJ         -0.715728         3.33697        -1.56589
LJ          -5.93662        -2.36186         -5.3381
LJ            1.7108        -1.97449          -5.415
LJ           1.36767         4.69051        -4.99311
LJ           3.78106       0.0556993        -3.59768
LJ           6.18549        -4.08565         -1.8872
LJ          -4.29116        -1.61978         5.30656
LJ           1.32535         -4.6164        -4.48679
LJ          -2.06716         6.35548          5.1969
LJ           -5.0551         -1.0233         2.99424
LJ          -1.87797         3.28199       -0.384045
LJ          -6.07342         4.67686        -5.10518
LJ          -3.53213         1.82305        -2.13292
LJ           -3.8902         4.96911         6.44073
LJ          -4.40833         4.88367         1.12865
LJ          -3.16595        -5.31307        -3.79502
LJ           1.24921        0.600067         1.02642
LJ         -0.383778       -0.296917        -4.57885
LJ          -3.14099       -0.839541         1.05882
LJ          0.290374       -0.128611       0.0279132
LJ            6.3206         4.66265        -4.06862
LJ           3.12514        -4.77124        -1.28345
LJ          -1.01679         1.26276        -3.13625
LJ           4.62433        -3.09506        -2.31073
LJ          -3.66048          1.4833        -3.38883
LJ           5.94023         5.00719         6.38937
LJ           5.69831        -4.15328        0.692792
LJ           5.19562        -3.56595        -4.77848
LJ          -6.14164         3.76119         4.14677
LJ           2.76356        -5.00038         5.57604
LJ          -1.57686        -3.40086        -3.09125
LJ          -5.60606          2.0237         3.89702
LJ           5.92878        -6.20633       -0.260505
LJ          -1.45886        0.929059         5.14363
LJ          -1.66489         6.10465         3.80094
LJ          -1.64291        -1.81188         2.41652
LJ           1.43161        -4.27222          2.2962
LJ            5.2084        -5.04326        -1.79975
LJ           2.58186         2.08431      -0.0966981
LJ          -6.42703         5.23509        -3.25294
LJ           2.92441        -1.76702         5.48329
LJ           -5.0984       0.0916097        -2.64135
LJ          -3.53506         3.01531        -3.79607
LJ           5.25019        -2.81635       -0.743202
LJ          0.929374        -3.99189         6.41514
LJ          -6.21732         5.00621         5.65664
LJ           3.26571         -2.1994        -6.02553
LJ           6.32069         1.64219         3.64268
LJ           3.16608        -5.93873        -5.89635
LJ            1.6367        -4.11082         3.70016
LJ          -2.04547         5.74484         1.65484
LJ          -2.15258        -1.30701         3.65165
LJ           5.14924         -3.6195        -3.08473
LJ          -3.34452        -3.25849        0.803648
LJ          0.492027        -1.01671        -1.14035
LJ           3.98691        -4.53203        -6.15619
LJ           6.39195         1.03994         2.65864
LJ          -5.38829        -6.37666       -0.860968
