108
#Comment!
LJ         -0.393075         -1.4488         1.42235
LJ           -2.5923         -4.7691        -5.69159
LJ           5.51177         2.30945        -3.82317
LJ          -3.78787        -4.93715        0.351655
LJ           2.79836        -5.51704        -2.43612
LJ          -6.04194          2.3789         -0.1009
LJ           2.00545         1.33166        0.640779
LJ           3.91001         2.40938         2.64617
LJ           -5.4484         1.01794         4.25878
LJ           2.99431        -2.97448         3.96363
LJ          -2.40498         1.24109         5.31023
LJ           5.13575         4.39094        -1.51407
LJ          -3.67306        -5.08641         6.28445
LJ         -0.867031         6.25284        -2.56379
LJ           5.18105         3.35801         -3.1803
LJ           6.19651        -1.41159         3.41196
LJ          -5.66081         2.82722         2.44125
LJ           5.58316       -0.454141         1.02025
LJ           0.79173        -4.56685        -1.53465
LJ          -4.73576        -1.71578         2.89893
LJ            0.3305        -4.64678         6.45828
LJ          -5.52391         6.23557         4.01254
LJ          -5.77891         3.40695        -4.39358
LJ           2.31802        -4.84223        -3.84312
LJ           2.76484         5.22656         3.77268
LJ          0.159555         1.97732       -0.651568
LJ          -3.70548         2.53175        -5.51243
LJ          -5.29283         3.99542       -0.847202
LJ          0.949237         -4.6726         1.33361
LJ           -2.2684        0.506116        0.380418
LJ          -5.26047       -0.159477        -6.18619
LJ          0.355418        0.558974         2.91064
LJ          -2.19405         3.42287        -6.04625
LJ           4.84944        0.341571        -5.74779
LJ          -5.35918        -1.45875        -5.10859
LJ         -0.644266         4.27454         2.07643
LJ         -0.817622        -4.09652        -3.81751
LJ          -4.86605        -2.14086         4.66366
LJ          -4.48867         6.24683        -5.47641
LJ          -4.62322        -3.44044         6.18124
LJ          0.483603         2.82497         1.72218
LJ          -3.74788         1.24087         -1.8003
LJ           3.09739         6.02614        -4.35712
LJ           1.09346        -3.82911         3.67792
LJ          -5.75115          1.9206        -1.72125
LJ           5.07623        -6.42292         3.92812
LJ          -5.18212         2.59745        -3.31048
LJ           1.54538        -1.82496       -0.780893
LJ           5.97748         4.65447       0.0196717
LJ           1.05174         1.78474        -6.17838
LJ            -5.527            2.09         4.00806
LJ          -1.93043         -3.1132         2.25465
LJ          -5.35372         5.12164         5.12398
LJ          -2.22883        0.542654        -6.23936
LJ           3.83673         1.31498       -0.915901
LJ           1.97709      -0.0377767         4.28099
LJ          -6.02878        -5.70337        -6.27488
LJ          -1.57123         4.56447        -1.37031
LJ           3.35581        -3.87371         -3.1322
LJ           4.37526        -4.99655          1.4178
LJ           2.57279        -4.17776        -4.56931
LJ          -3.68605        -1.40857         4.77619
LJ           5.69961         -4.1873         3.01454
LJ           1.96366        -5.16702         1.12634
LJ          -4.50714         2.58311         3.85434
LJ           2.93028         -4.7839         4.32309
LJ          -4.37338       -0.612838        -5.56678
LJ          -4.48132        -5.57203         5.58156
LJ          -4.44518       -0.227643          4.7776
LJ           2.08889         2.13262       -0.589703
LJ          -5.92632        -2.00362        0.154399
LJ          -1.46073        -1.62211         3.10496
LJ           0.44346        -1.53086        -1.18697
LJ          -6.21009        -1.80262         -1.4993
LJ            5.5649         5.89502        -3.17671
LJ           6.09282         4.22545        -1.91047
LJ           1.53313        -0.20257        -3.64146
LJ           2.92819        0.990527         5.51729
LJ           2.64617        -4.79836        -5.95718
LJ           4.53214         1.93103        0.842875
LJ           4.49661        -5.68323         2.18452
LJ          -2.99265        -4.91807           5.116
LJ           -1.2386        -2.10341        -3.28497
LJ           5.43905         5.98636         2.30644
LJ           2.29114        -6.21928        -5.16994
LJ           4.97676        -2.89724        -4.46446
LJ           -2.4649        -4.28045        -2.98411
LJ          -2.68608        -4.61421        -1.87561
LJ         -0.680064         -4.9573        -3.26498
LJ           4.99288         1.87924         2.02977
LJ           3.60979        -2.36707        -3.13284
LJ          -4.98185        -2.60256         -0.8978
LJ          -5.89273         -4.6922        -1.70793
LJ          -1.09124         5.55691      -0.0419174
LJ          -4.98318        -6.21551        -4.51871
LJ            3.0414        -3.88467         1.24056
LJ          -4.92664        0.142657        -3.17427
LJ           1.48432        -3.35857        -1.57098
LJ           4.63775         6.32353         2.88004
LJ           1.27023         5.49186        0.930852
LJ           5.23991         -3.3653        -3.38144
LJ           3.54626         4.51208           4.811
LJ           2.29846        -2.09784          3.5942
LJ           2.18011         3.49942        -2.36426
LJ           1.36118         4.67226        0.117979
LJ          -5.90109        -3.21769        0.503003
LJ          -5.75433        -4.68111        -5.39167
LJ           3.01257         2.86672        -1.63399
