108
#Comment!
LJ           1.84299         3.47473         -3.6002
LJ           5.50847         5.55902        -6.00104
LJ          -1.67951      -0.0207167         5.74988
LJ           5.99305         6.31691         4.88797
LJ          -4.06331          1.1881         1.63087
LJ          -1.86232        -3.64979        -4.73596
LJ           -3.4036        -1.35972        -3.02349
LJ           6.28088         3.59872        0.509774
LJ          -3.20227         3.26024         1.61268
LJ           5.89803        -4.80131       -0.147512
LJ         -0.852314        -1.56585        -3.00741
LJ            3.4714        -4.26352         2.29774
LJ           4.80917         6.14486        -4.67899
LJ           1.15964        -3.02634         4.46681
LJ           4.78582        -5.98483         4.28031
LJ          -4.63558         3.82148         6.27791
LJ           1.29979         1.28066         -2.1897
LJ           -2.2666        -4.19723        0.506676
LJ          -6.05709         5.57343         5.10455
LJ          -4.32581        -2.75344         1.61036
LJ         -0.139722       -0.364182         6.29459
LJ          -4.94023        -6.09825        -6.13251
LJ         -0.602924        -2.46232        -2.03835
LJ           -4.7538          5.0298        0.823239
LJ          -5.20863        -1.67448       -0.216479
LJ           3.03435        -5.44016         -2.2952
LJ           1.94317         5.25624         6.33317
LJ           5.75441         1.59693        0.983494
LJ           1.99001        -4.61976         3.61427
LJ           3.28988         1.57633         6.02614
LJ          -2.96043         2.96495        -4.18353
LJ         -0.986162         3.03955         2.55554
LJ        -0.0943746           5.108         4.84067
LJ           4.65289        -2.00784        -0.37106
LJ           4.09613         2.80893        -5.34906
LJ          -2.30549        -4.46547         3.04176
LJ          -5.78757         3.52595         5.36669
LJ          -3.28643       -0.490164        -3.85943
LJ          -0.49235        0.567401         6.15417
LJ          -4.26508         1.39381       -0.353306
LJ           1.81102        -6.10135        0.671518
LJ           0.61477         2.40914         4.27373
LJ          -5.90012          2.1854         -2.8228
LJ           4.67299         4.66708        -5.59535
LJ          -2.00195        -1.60538        -1.19058
LJ          -5.68117       -0.939922         2.63742
LJ           6.18403         6.27751       -0.544232
LJ           5.97441        0.818646       -0.937095
LJ           6.04979         6.01058         3.65338
LJ          0.556028         4.21189        -6.05524
LJ           2.04654        -3.27375       -0.224515
LJ           2.95263        -2.65325         5.74211
LJ           2.42512        -2.36798        -3.20423
LJ            4.3721        0.661171        -2.02236
LJ          -2.29639       -0.305801        -2.28853
LJ           3.65926       -0.650632        -1.60943
LJ           4.34505        -2.55598        -5.16648
LJ            2.3457        -3.33006        -3.47857
LJ           3.41937        -2.21802        -5.22343
LJ          -4.39775         5.66934         5.13731
LJ          -3.86104         4.11942         4.93552
LJ          -6.17824          5.2289        -2.93627
LJ         -0.784164        -4.53403       -0.246273
LJ          -5.89304         -4.7374        -1.88682
LJ         -0.112019         4.99535         -3.7649
LJ           -4.8582        -5.62058        -2.01777
LJ           3.82142        -1.76453        -2.91713
LJ          -3.62411         2.60642         -2.9933
LJ          -3.62552        -1.51812          6.1643
LJ           5.98958         3.60165        -3.49062
LJ          -2.97207         1.77354        -3.94274
LJ           4.58012         3.46903          1.1154
LJ          -1.33856         4.87184        -3.37973
LJ          -5.10871        -3.13849         1.98404
LJ             1.093        -3.54077       -0.881378
LJ          -4.26669         4.51779         -2.1322
LJ          0.476909         1.24728         1.94419
LJ           1.52866        -3.43042        0.841558
LJ          -5.56769        0.422501        -1.92833
LJ           2.08259        -3.03668         4.69638
LJ           -3.9247         5.65144         6.22348
LJ           2.06247        -2.01155         5.28443
LJ          0.151988        -5.59283        -1.30396
LJ           2.78833         3.96342         5.55702
LJ          -3.24819        -4.73817        -1.70833
LJ            -2.569        0.970125         5.66097
LJ         -0.192739          3.3217        -1.71963
LJ          -4.87102         6.17195       -0.382371
LJ           2.90122        0.126673        0.200155
LJ         -0.783142         3.29064         0.84284
LJ           2.82332        0.211801         2.41448
LJ          -1.01239        -4.59713         2.03993
LJ         -0.363674        -5.40536        -2.14608
LJ          -3.30534       -0.546296        -6.20011
LJ           5.33438         3.76259        -5.95591
LJ           2.52438         4.20207        -4.70751
LJ           2.87517       -0.506758         5.59655
LJ           2.88038        -0.88397         2.35476
LJ           2.95759        -5.02687         3.69388
LJ          0.814499        -5.33573         5.05671
LJ           4.24448         2.36272        -2.25849
LJ          0.151879         3.29968         4.37479
LJ          -4.67685       -0.781161         1.01893
LJ          -2.34413         5.33799        -1.00506
LJ          -2.99994         5.96884           3.427
LJ         -0.723964        -5.53364         5.72558
LJ           3.87082        -2.71439          3.5577
LJ            -5.538        -5.39658        -0.56453
