108
#Comment!
LJ           4.08471        -3.36627        -3.22985
LJ         -0.885543         -3.7259         4.88647
LJ           4.99269         3.06022       -0.431099
LJ            5.9859         1.65615        -0.84423
LJ          -5.38051       -0.959756       -0.168017
LJ         -0.840024         4.82503         5.68175
LJ           -5.5837         3.72437         -3.3122
LJ           4.54778        -2.84665        -1.43648
LJ          -3.18806        0.919307          3.4285
LJ           3.36894          3.5534         1.02481
LJ         0.0429628       -0.378508        -2.04516
LJ           2.01018        -1.21432         2.38003
LJ           0.12537         4.74043         -3.5102
LJ          -3.45427         5.98698         5.45508
LJ          -2.95468        -3.94839        -2.97752
LJ           2.30697         4.87881         4.30468
LJ          -3.94495       0.0678316        -1.32278
LJ          0.536511         1.27598          5.8567
LJ          -3.58156        -2.27813        -2.95423
LJ          -3.15247         4.69034       -0.262461
LJ          0.949402         1.36474        0.959669
LJ           -1.8453         6.08758        -1.54106
LJ          -5.81503         4.30567        0.467542
LJ           6.30059         3.63932        -2.63659
LJ          -6.07214         5.96996           6.123
LJ          -3.01554         2.65685        -4.90481
LJ          -0.47026         1.33069        -1.34899
LJ          -1.86235        0.979587        -1.01137
LJ         -0.962363        -5.42467         3.39394
LJ          -2.05329       -0.368179       -0.253865
LJ           -4.6378         5.79919         3.71647
LJ           2.95407        -5.24228         2.43984
LJ           -5.1082        -2.41392        -6.21141
LJ           4.09913        0.548989         4.82955
LJ           2.46116         6.27502         4.28329
LJ           5.28507        -5.33448      -0.0576248
LJ          -1.26692        -3.37682        -5.11666
LJ          -6.17531         3.84909          4.8834
LJ          -4.34918         -1.4388         3.55048
LJ           2.96302        -3.57776         2.96828
LJ          -4.73408        0.273454         5.36777
LJ           6.01363         1.14579         1.04355
LJ          -2.40489         2.55369         5.65728
LJ           4.03914        -1.14519        -3.15825
LJ           -4.0245        -1.46831         4.55232
LJ          -5.85632        0.830459       -0.318073
LJ           3.76202          5.9363         1.47656
LJ          -3.14993       -0.835449         1.14119
LJ           -5.4163        -4.10895         6.18461
LJ          -4.09986         4.58868        -0.83247
LJ          -2.81665         1.26637         1.64963
LJ          -2.27533        -6.11218         4.27907
LJ          -1.94925        -2.77019        -3.67942
LJ          -3.86437         2.15296          1.0189
LJ          -5.23728       -0.855222         4.99547
LJ           2.26583          1.0144       -0.977363
LJ         -0.453463         4.36981        -5.48329
LJ           -3.1214        -2.03558        -4.92304
LJ          -4.84888          4.7195         3.35435
LJ           2.09153        -0.90627         -3.6472
LJ           -1.3447         4.49559         2.76026
LJ           3.06631         3.37651         2.80508
LJ          -1.96678         5.02996       -0.458574
LJ          -2.96584         3.79625         4.55103
LJ           1.19626         3.39971         1.37376
LJ           3.13734         3.99491         3.69508
LJ           5.07358         4.09512        -6.42935
LJ           3.34631         4.72763         4.81288
LJ           2.44912        -5.73859         1.18889
LJ          -1.70387         2.17964         -1.6482
LJ         -0.115342        -5.57077         -5.2114
LJ          -3.89438         2.76647        -2.48942
LJ         -0.862665        -3.17325        -2.39561
LJ          -1.89101         5.28644         1.44943
LJ          -1.96659         2.85556        -4.14467
LJ          -2.50622        0.298046        -6.30741
LJ          -5.47318        -4.13847         1.24187
LJ           5.24355         -5.9455        -2.64823
LJ          -2.63035        -1.67242         6.00079
LJ           5.38111        -3.24401        -3.05474
LJ          -1.43254       -0.519584        -1.67903
LJ          -2.12065         5.22643         -5.3994
LJ          -2.96318         1.60496        -2.08812
LJ         -0.461994         5.05981           2.799
LJ           2.44801         2.22752        -4.60396
LJ          -1.07776        -6.25501         1.03302
LJ          -5.31413        -5.31973         6.00296
LJ          -4.33422        -3.03474         1.54571
LJ           -1.0804        0.669488        -4.14079
LJ           4.64505        -2.23472        -6.06137
LJ          0.195799          2.3149         3.64186
LJ           2.35503        -3.86036         1.28249
LJ        -0.0245962         3.36711        -4.86762
LJ          -2.89638         3.13629         6.24422
LJ          -5.92167        -2.06892        -2.83338
LJ           2.91805        -5.42882       -0.834259
LJ          -1.17732         1.85196       -0.615761
LJ           2.87928       -0.753695        -5.76529
LJ          -1.62401        -3.54331          2.2998
LJ           5.72733        -5.25526         1.10708
LJ           4.64053        0.186226         3.92049
LJ           2.12069         1.32505        0.194129
LJ           3.88577       -0.542547         4.81589
LJ           -4.3497        -5.72164         5.54773
LJ          -1.48108         6.45737         6.32579
LJ           4.01906        -2.06918        -3.93899
LJ           4.72514        -5.03575        -6.09295
LJ           2.08617         -4.7276         3.09066
