108
#Comment!
LJ           6.02791        0.847721        -3.11825
LJ         -0.759017         4.52984       -0.284511
LJ          -5.05601        -4.08867         4.45173
LJ         -0.219748       -0.222087         5.85745
LJ           2.46258        -1.44689         3.76686
LJ          -4.86563        -2.47283         3.76668
LJ           2.91357         4.65771       -0.297388
LJ           4.39074         4.96312         4.06838
LJ           2.14002         1.86533        -4.33726
LJ          -4.86087        -5.63473        -2.05053
LJ           2.73536        -3.20925        -0.25676
LJ           2.72575        0.978526         2.75646
LJ           2.92381        -3.73806        -1.66755
LJ           3.89305          -2.045        0.222109
LJ          -2.53819        -4.55693       -0.620616
LJ           6.00996         1.96823       -0.580401
LJ            -1.402        -4.46027        -1.32265
LJ          -4.56429        -4.64655         -2.5703
LJ           -1.1431        -5.41161        -2.45442
LJ         -0.896925         3.16885        0.131439
LJ           5.11737         -1.8396         5.03345
LJ              6.01        -1.18467       -0.260127
LJ          -4.30043         1.83161        -2.24173
LJ           3.28501        0.668247        -3.45833
LJ           6.06093         1.55539         1.17796
LJ           5.99772         3.53652        -0.51737
LJ          -4.78266         1.79409         2.60191
LJ          -5.45276          -5.995         -1.1201
LJ          -5.87432         2.02898        -3.55652
LJ           4.98739         5.25308        -4.73586
LJ          -4.77384        -1.99611         2.28379
LJ           4.50629        0.717068         3.17759
LJ          -3.79839        -4.13699       -0.150852
LJ           5.79607         1.38222        -1.54136
LJ          -5.01477         2.68538        -1.45635
LJ          -5.75685         3.80108         5.09044
LJ          -5.83205         4.35196         6.07269
LJ          -5.75745        -2.57137        -3.80945
LJ          -3.70212        -2.77328         1.43123
LJ          -3.05722         3.79274         4.37694
LJ           2.28974         3.05177        -3.87744
LJ          -4.27105        -3.01632       -0.161379
LJ           2.38539         1.40124        -2.95337
LJ          -6.41756        -5.98172        -3.74505
LJ           2.52313       -0.422822         2.85197
LJ          -5.04659        -3.16323        -5.83505
LJ          -2.61474         -3.7149        -1.83053
LJ          -4.45234         4.41925         3.73273
LJ          -2.81017         1.00638         4.91735
LJ           5.63649         5.25955          3.2524
LJ          -3.23497         3.50894         1.81538
LJ          -5.74845         -3.4916        -4.65647
LJ          0.187785        -2.10701        -5.74052
LJ          -2.72441        0.233867         6.14521
LJ           3.75232         2.28566          3.5797
LJ          -4.45539         4.01279       -0.630639
LJ          -1.30766         -1.5444        -4.26818
LJ         -0.627681        -2.65984         -3.1248
LJ          -6.42314         5.71689         1.93775
LJ           4.72859        -1.40322         3.25544
LJ           2.55753         4.13108         1.74273
LJ           4.02133         5.51522        -5.94892
LJ           5.48059         4.42364        -2.90632
LJ           1.74045         4.81634         2.85262
LJ           4.09397        -4.73318         4.69562
LJ           -1.2738        -3.58616        -6.24735
LJ          0.445915        -5.00786        0.862031
LJ           4.25937       0.0321024        -5.48541
LJ          -2.15091       -0.493925        -2.17064
LJ           4.64312        -1.49633        -4.35582
LJ           4.02209          5.1307         5.48089
LJ           4.28763           2.558        -3.55785
LJ           1.76011         -1.0119        -4.30055
LJ            -6.342        -2.56933        -5.18415
LJ          -3.45202         2.33736         5.49975
LJ           4.28622         3.84619         3.12652
LJ           1.45866        -6.36506         0.74058
LJ          -5.42082          -2.321         -2.8127
LJ           1.64223        -3.54569        -1.54516
LJ           2.00946        -4.05335         2.30923
LJ         -0.941664        0.823971        -5.98993
LJ          -2.05768         4.17409         4.73331
LJ           6.15398        -3.06957         2.63826
LJ          -4.05156         5.52567       -0.487679
LJ           1.49066         4.14356         6.13582
LJ          -2.28683       -0.218054         1.65309
LJ           1.27776        -4.09697       0.0402545
LJ          -5.76394        -6.31709        -2.20616
LJ           2.37857         3.73705       -0.895007
LJ          -3.13358        -4.40884        -4.40206
LJ           3.34171         -4.6548        -4.01214
LJ          -5.80532         2.63784         1.12831
LJ          -5.06282         3.22566        -0.33446
LJ           1.80066          5.7703          3.2344
LJ           1.01972        -5.09137          2.6223
LJ          -5.28527         5.39658         2.66458
LJ           1.26806        -2.35329        -3.12957
LJ           -1.8538         4.60035         3.59522
LJ           5.85412         5.85486        -3.76749
LJ           3.41504        -6.16834        -3.81733
LJ          -6.38818         6.24963         4.75349
LJ          -2.33524        -2.24004         3.88998
LJ           5.02521         4.09172        0.113992
LJ          -4.44096        -1.22461          1.2824
LJ            2.8224        -2.21584       0.0521667
LJ           3.53523        -6.43712        -5.07613
LJ          -2.99546         2.35883         4.64149
LJ          -5.84732        -5.04004       -0.379135
