108
#Comment!
LJ            -2.118         1.41003        -1.02673
LJ           1.12451        0.557397       -0.303139
LJ         -0.759681         2.11216         1.58863
LJ           1.14115        -1.68942        -4.21878
LJ            0.6732        -1.02312         4.10962
LJ           6.20809        0.315567         4.54264
LJ            2.7228         3.49625         1.15625
LJ           4.07331         4.20028         1.59174
LJ         -0.473116      -0.0653118        -5.04245
LJ          -4.72148        -5.18934         4.55973
LJ          -3.62938        -3.87301         6.29582
LJ          0.481933         6.27835       0.0351466
LJ          -1.03524         5.86954       -0.402239
LJ           6.02066        -2.49103         2.47194
LJ          -3.36193         5.53887        -3.25149
LJ           1.71181         0.26927         1.66563
LJ           1.04558        -3.50071        -2.30575
LJ           6.33709         5.95096        -5.79656
LJ           3.35882         1.76731       -0.387873
LJ          -1.45291        -5.27822       -0.124521
LJ          -1.40188        -1.25969        -2.91992
LJ          -1.97978       -0.493662         -4.3337
LJ          -6.26305       -0.568353        -3.87701
LJ           3.66469         2.17852          6.0317
LJ          -5.96226          5.3543         5.32918
LJ           5.94511         2.93243         1.82948
LJ           1.00664        -1.07678         3.12929
LJ          -5.74258        -3.52617         -3.8434
LJ           5.44159         4.11485        0.279781
LJ          -3.93805         2.45034        -2.15368
LJ           4.29686       0.0579036         3.25808
LJ          -1.33461         1.71981         3.79887
LJ          -5.72276        -1.98337        -2.92245
LJ           4.95293         2.54709         2.37932
LJ           5.97197         4.18364         2.86315
LJ          -4.47777         1.05032        -5.92179
LJ           5.41682          0.7719         3.49282
LJ          -2.18183        -2.61558        -5.09831
LJ          -4.81004        -4.80145        0.811361
LJ         -0.753528          6.4068          1.6952
LJ          -1.10298         3.31791        -1.96605
LJ          -1.32668         4.55798        0.483543
LJ           2.40169         5.73848         1.63085
LJ          -3.28257        -6.19311       -0.337511
LJ           1.70175       -0.580203        -5.60397
LJ           2.11196         2.70144        -3.37689
LJ          -1.44963         -3.8768         2.70463
LJ           2.86854         0.25815         5.65871
LJ           -5.2504         4.71978        -5.26448
LJ          -2.36462         6.29531        -2.58191
LJ           5.89819         5.50827         2.88353
LJ          -3.50835        -3.98836        -4.32268
LJ          -2.21243        -4.00264        -5.40926
LJ          -5.89787         4.37161         -3.7648
LJ          -5.44023        -5.74893        -4.51045
LJ         -0.803487        0.729685          2.0329
LJ          -2.48306         3.77091         1.27578
LJ          -1.01824         1.14862         -2.6688
LJ           3.16297        -4.34984          2.7984
LJ           2.25617        -3.64397         4.29473
LJ          -1.73034         1.97458       -0.324941
LJ          0.788184        -5.12163        -5.98436
LJ           4.21055        -4.53237        -4.32446
LJ           3.39626         4.16351         3.31366
LJ         -0.742977         2.75761        -3.05019
LJ           3.75641        -1.37514         1.31916
LJ          0.135249         4.20679        0.860788
LJ          -3.87535         2.30378         3.42166
LJ           1.94785       -0.431219         5.04608
LJ          -1.05793        -3.43832        -6.38165
LJ          -1.85693         5.40838         3.56084
LJ          -5.72147        0.513761        -3.88432
LJ            4.9361        -6.29577         5.30002
LJ          -4.16273        -3.09201        -4.20886
LJ          -3.68428         1.70367          6.0979
LJ           4.57363         4.81048         2.63511
LJ          -2.67085         5.34863         2.27901
LJ          -4.93158          -2.129        -2.11333
LJ          -1.27989        0.435364         4.32727
LJ           1.04725        -2.88385        -1.31823
LJ          0.190689         2.83461         2.62558
LJ         -0.551387         6.06098         2.86685
LJ           1.35622         2.32271        -5.19319
LJ          -4.31335        -4.12142         2.16388
LJ           6.10711        0.977455        -3.44735
LJ          -3.98203          1.5145         2.33035
LJ           2.15292        -3.81776        -5.47297
LJ          -3.71181        -4.75776       -0.271187
LJ          -2.44918         1.84708        -2.84878
LJ          0.119231        -2.40464        -4.23428
LJ           3.27634         3.41516       -0.939476
LJ          -3.15527         5.55014         5.66407
LJ          -2.23382         0.86234         2.70508
LJ         -0.826811         3.67592        -3.33897
LJ           -1.5323         2.62467         3.10659
LJ          -5.16044         5.35236       -0.907545
LJ           4.09606         4.40318       -0.171405
LJ          0.511567         5.74235         6.41556
LJ          -4.70037         1.87397        -3.18589
LJ           5.84251         4.17733        -1.87125
LJ           2.07174         4.44048        -5.15443
LJ          -1.62904        -4.00303        -3.92982
LJ           2.49469        -2.36559          3.6632
LJ           6.23657         2.79648        0.678546
LJ          -1.14111       -0.427441        -3.46427
LJ           2.80911         4.52646        -3.73236
LJ            3.2531         3.13239         -6.0741
LJ           -4.8711        -2.90684        -3.34865
