108
#Comment!
LJ           3.95263         1.51309        -4.01412
LJ          -2.26251        -4.76953         -1.1837
LJ           4.48311        -1.94686        -6.08625
LJ           -1.3177         2.72796         5.61122
LJ           5.39441        -3.07476         2.30697
LJ          -4.34037        -5.97491         4.72549
LJ           1.97825         4.03824        -1.03571
LJ           4.59228         4.65092        -6.29676
LJ          0.433722        -6.07957         3.05869
LJ          -6.18685        -5.58302          -1.274
LJ          -1.11772       -0.572004        0.438811
LJ           2.95178       -0.409197         2.89986
LJ           3.77614        -4.62865        -2.08825
LJ           6.23602        -1.31205        -1.30233
LJ          -2.45157        -3.30217         -1.1996
LJ           6.22974         1.06798        -2.57267
LJ          -4.13576         6.07136       -0.174146
LJ          -2.91812        -4.07841       -0.041227
LJ          -1.51539        -3.86495      -0.0306419
LJ         0.0231669         6.42014        0.817993
LJ           2.29009        -1.33328        -6.01962
LJ          -3.09633        -1.07785          2.3079
LJ          -2.40022        0.676402         -1.9817
LJ          0.523392        -0.58434       -0.300481
LJ          -5.14835         1.64963        -1.60228
LJ           4.22063         1.79113        -1.75917
LJ          -1.85079         2.27891         3.88096
LJ          -5.11698         5.06699        -0.99929
LJ          -2.16204        -1.00697        -5.21564
LJ           2.88143        -5.84074        -5.67335
LJ          -6.25387      -0.0226327         5.99359
LJ           -5.7698         1.04763         3.09354
LJ          -1.86476        -2.59531        0.871361
LJ           5.96385         1.31379         -3.5571
LJ          -2.21597         6.27312        -2.53308
LJ          -5.01612         3.84849        0.935088
LJ          -5.51925         1.99969        -3.55892
LJ           5.24742        -2.34164         -4.8801
LJ          -1.48269        -3.76462         2.45544
LJ          -3.30629         2.60215         4.98241
LJ          -6.33934         1.46428        -5.83472
LJ           5.49869        -1.19718         -2.3919
LJ           3.88495         5.02137        -2.87213
LJ          -6.43107        -5.92909        -5.07968
LJ           1.31308        -2.38761         1.21203
LJ         -0.498238         1.17591         6.18909
LJ          -2.77927         -5.5259        -2.37058
LJ          -1.73976         6.26927         2.00846
LJ          -2.09949        -1.26397         5.18517
LJ           3.28052         5.40975         4.40183
LJ          -1.61858          3.1345       -0.256486
LJ           5.15946        -2.84816        -5.88518
LJ           1.18722         -2.0586        -5.48002
LJ        -0.0782323         2.42609        -5.88845
LJ           4.43265        0.699721        -5.16713
LJ          -5.62194        -5.61198        -2.25007
LJ          -3.21836        -1.70511         5.64621
LJ          0.616158        -3.94237        -4.06401
LJ          -3.44591         5.25696         4.06414
LJ          -6.08661       -0.875856         3.05496
LJ         -0.598245         3.46008        0.655796
LJ           5.68417         4.40684        -5.70223
LJ          -1.36504         3.21408        -1.84734
LJ          -2.24402         4.79376         5.31939
LJ          -5.57189         4.86028         1.96582
LJ          -2.94313        -4.97115        -4.41326
LJ           1.09136          2.6072        0.507844
LJ           1.15167       -0.312443        -4.69331
LJ          -3.05165       -0.959855        0.280382
LJ           1.87719       -0.113927        -1.42561
LJ           5.81557          5.2389        -4.92197
LJ           3.59302         5.95266        -1.72242
LJ         -0.347093       -0.224982        -4.41181
LJ           4.36504        -2.93229        -4.13811
LJ           -3.5486          1.8598        -4.70651
LJ           5.53893         4.91466         4.93638
LJ           4.34311         -5.5872        0.608814
LJ           5.98886        -3.31293        -3.85449
LJ           5.33959         5.56564         2.34026
LJ           2.79366        -4.90414         4.44202
LJ          -1.34867        -1.20734        -4.71922
LJ          -3.87044          2.6619         3.87851
LJ          -5.21951        -6.02746        0.369495
LJ          -2.81994        0.436838          2.5275
LJ         -0.633561         5.58827         4.69648
LJ          -1.88394         -1.1446         1.89103
LJ           1.50117        -3.90381         2.01572
LJ           5.54018        -5.43838        -1.91074
LJ           2.60781         2.50604       -0.331294
LJ           -4.9131        -6.41335        -3.87371
LJ           3.68356        -2.92513        -6.39288
LJ          -5.91443        0.930026        -1.25045
LJ          -4.42167         2.39218         -2.6644
LJ           3.95113        -4.10342        0.224658
LJ           2.99541        -3.05582         5.87295
LJ          -5.73836         5.13456         4.89489
LJ           3.84181         -2.8149        -5.22359
LJ          -5.04288         2.65755         3.74817
LJ           4.08914        -6.11699        -5.19274
LJ           2.26933        -4.50068         6.08421
LJ           -3.4737         6.17368         2.60037
LJ          -3.11719        -1.32007         3.56678
LJ           4.58505        -5.14712        -2.60214
LJ          -3.32469        -1.83701         1.44568
LJ           1.37498        -1.50881        0.205437
LJ           3.71331         -4.8825        -5.84669
LJ          -5.88968         2.40865         2.70137
LJ          -5.45135        -6.33668       -0.862157
