108
#Comment!
LJ           2.18797         -4.0075          2.1961
LJ          -1.09507         4.39089        -5.78044
LJ          -4.93443         4.47382        -4.26366
LJ          0.352715       -0.361783        -5.78045
LJ          -4.89255         4.32792        0.145182
LJ          -2.93268        0.200798        -3.24884
LJ           2.73826       0.0294826        -3.67709
LJ          -3.59518         6.10864        0.594561
LJ           2.44009         3.31561        -1.15641
LJ          0.610895        0.605806        -4.63445
LJ          -1.20882          1.5962        -6.22751
LJ           4.50178         5.11322       -0.349071
LJ          0.699469        -5.62921        -3.77809
LJ            1.8006          5.8826        -2.70222
LJ          0.415808          1.1959        -5.94047
LJ           5.35437        -2.33755         6.30152
LJ           5.19455        -2.86651        -3.71009
LJ          0.105905        -2.98051         0.61646
LJ           3.72954         -2.2312         1.09377
LJ          -1.99507        -0.75652         2.42173
LJ          -2.01405     -0.00125148        -5.90586
LJ            -5.563        -4.41544        -2.24773
LJ           5.29954         2.71647         2.94607
LJ           3.27172        -3.28363         4.53967
LJ           5.07029           2.375        -4.44214
LJ           5.63093         5.88518        0.672001
LJ           5.96043        -2.20519         5.42725
LJ         -0.510729        -4.76494        -5.86161
LJ          -3.66473        -5.25591         3.11497
LJ           1.42057          2.7822         4.57868
LJ           2.31083         -0.3835        -2.78972
LJ           1.77245         1.82783         1.92182
LJ          -1.67601         4.57843        -2.52376
LJ          -2.00851          5.9796         4.80594
LJ          -1.42248         6.05891         1.78334
LJ          0.350356        -6.17434        -6.44476
LJ          -1.48404         2.13135       -0.145022
LJ          -3.01395        -1.16019        -6.28118
LJ          -4.27361        -4.25637         2.34058
LJ          -4.21749       -0.764062        -5.56591
LJ          -3.16982        -3.67288         6.40294
LJ          -2.04199         1.55255        0.632038
LJ          -0.26179       -0.401336        -3.74861
LJ           6.36916         -5.4714         4.66009
LJ         -0.100858         3.60343        -4.48456
LJ          -5.92226         5.84014         1.63211
LJ        -0.0608364        -2.34771        -5.56028
LJ          -5.23361        -5.34756       -0.522653
LJ          0.519107        -4.51429          4.6068
LJ         -0.234773         1.56926         2.03996
LJ           3.27947        -0.71609         1.79729
LJ          -4.39121        -3.83357         1.14097
LJ           5.00111         1.52569         5.88861
LJ           6.13971        -3.97466        0.562337
LJ          -6.45719        0.508999       -0.607434
LJ            3.5825       -0.227539         -5.0539
LJ           6.06948        -6.04257        -4.88527
LJ          0.697422          -4.104        -1.80657
LJ           4.07621         4.98226        -2.96482
LJ           6.21201         4.90359         3.96376
LJ           5.44349         2.26162         -3.4831
LJ           1.76643        -6.13583         1.92117
LJ           1.01409         -4.5349        -3.34835
LJ          -1.47639        -5.61052       -0.770867
LJ          -1.63944         4.42621         4.55322
LJ          -2.17994        -4.32662        -4.19988
LJ           4.77099        -3.65136        -6.19159
LJ          -1.04917         2.71737         1.98953
LJ          -2.04025        -2.03857         2.51219
LJ         0.0622259         5.88067         5.81813
LJ           2.31921         1.04637        -4.26259
LJ          -2.96323        -3.60418         2.07837
LJ           4.74257         1.88717         2.80447
LJ          -6.22302         3.98881         -4.8373
LJ          -3.56488        -1.24574        -3.32737
LJ         -0.346628          3.5489        -2.42322
LJ          -1.85952        -4.91861         4.56378
LJ          -1.14944       -0.282059        -3.14404
LJ            2.9111         1.50742        -6.30866
LJ         0.0496239        -1.34401        -1.96054
LJ           6.07624        -5.71392       -0.959924
LJ        0.00583111        -5.18894        -4.94135
LJ          -2.65587        -4.84373        -1.06157
LJ           2.33915         2.01227       -0.728273
LJ           5.38183        0.667996          3.4303
LJ          -5.81012         4.85708        -6.26746
LJ          -2.28959        -3.19667        -1.43922
LJ          -2.69223         -4.0648         3.56577
LJ           1.46093         3.84312       0.0769876
LJ           3.82252         1.52309          1.6541
LJ           4.47349       -0.850162        -4.60678
LJ          -2.92506         2.35371        -2.28025
LJ          -1.14492        -2.77752         3.81831
LJ           5.99615          3.1943         4.09912
LJ           5.29901        -2.00359       -0.110741
LJ          -5.06284        -3.90061         4.32309
LJ           2.95743         4.01243         -4.6178
LJ           1.12687       -0.523064        -2.41711
LJ          -3.14131        -6.28693        -4.69508
LJ          0.283497         4.63153        -2.58722
LJ           6.12858         4.84533         6.01577
LJ           3.30186          3.9912        -5.94679
LJ           2.29689        -2.07042          1.4412
LJ          0.805087        -2.21528       -0.105651
LJ          -4.78014         3.48605         -5.0286
LJ          -4.20451        -6.30274         4.12799
LJ           5.82556          2.4149       -0.394835
LJ           5.45572          4.0341        0.357056
