108
#Comment!
LJ           3.75143        -5.04228        -6.10067
LJ          0.713357        -2.70512         6.37824
LJ           3.46374         1.22442        0.197533
LJ          -4.98699         2.67005        -5.46394
LJ           6.34152         1.80163        -1.51112
LJ          0.289928         5.79755         5.78117
LJ          -4.62434         3.61867        -1.62255
LJ           3.23282          2.9076        -3.59547
LJ          -6.37223        0.542124        -6.00956
LJ          -5.16196         1.33741       -0.693491
LJ        -0.0661106         2.33352        -3.47559
LJ           3.62299         1.35621         1.22088
LJ          -1.15111           3.667        -3.61119
LJ          -2.42373         2.54438        -6.32873
LJ         -0.539117         -5.6878        -2.13979
LJ           3.63652         -5.9943         5.46635
LJ          -2.74063          4.3321         0.30256
LJ         -0.820108        -2.90874         5.63923
LJ           5.76032        -3.93718         5.35547
LJ         -0.256518         -6.3455        0.683128
LJ          -1.21022        -1.36611          2.0927
LJ          0.171147        -6.40492        -4.12656
LJ           5.27242        -5.58599         3.46127
LJ          -4.59471         4.67968       -0.571942
LJ          -6.09796        -4.82597        -3.42368
LJ          -3.32162        0.999702        -2.67486
LJ            1.6874         5.09237         1.68184
LJ           2.32086        0.127226         5.25933
LJ          -1.73885        -5.07449         2.64909
LJ         -0.886269        0.431363       -0.525094
LJ           6.10353         4.62393       -0.807935
LJ         -0.991825         4.99001         5.16439
LJ          -6.07681        -4.04222         5.77333
LJ           5.30211         5.31932        -5.90068
LJ          -1.52924         2.68421         4.61143
LJ           3.35359         5.88114         2.55194
LJ           -3.0135        -5.96897         4.68168
LJ           3.22437         3.02056         4.86942
LJ          -4.66754         -3.9203         1.66018
LJ            5.5126         4.66357         1.59717
LJ          -4.69855         1.03761        -3.25755
LJ            4.3485         5.20318        -0.41363
LJ          0.304573         2.44263        -0.82587
LJ          -6.04844        0.785404          -1.078
LJ           -5.2443       -0.429886        -6.21889
LJ          -5.60216        -1.61988        -0.42558
LJ           1.10788        -3.14179         2.58872
LJ          -1.97283        0.384227         4.13653
LJ          -2.93921        -4.35694         3.08526
LJ          -4.14393         4.35995        -3.41378
LJ           5.43769       -0.302813         2.85483
LJ          0.655135         3.70768         5.12619
LJ          -5.31664        -3.36058        -4.60832
LJ          -1.28129         4.44252       -0.867173
LJ          -4.01459        -2.64382        -6.19588
LJ           4.37506        -2.38164       -0.540076
LJ           6.39338         3.21459         5.86279
LJ          -5.32028        -3.99902        -5.57487
LJ          -6.04988         5.12485         3.04237
LJ          -1.11088         -1.8117        -3.92134
LJ          -4.23377        -1.24441         3.24004
LJ           6.07271         3.71438         2.37504
LJ           -2.5946          6.2283       -0.713124
LJ           5.56444          5.2148         3.94933
LJ           2.63353         4.14737         3.99287
LJ           4.74494         5.30683         3.19724
LJ           2.90485         5.60509          5.9864
LJ           3.03132         6.16763        -3.89946
LJ           5.86599        -2.62965        0.523808
LJ           1.09559         3.73361        -1.05465
LJ           -2.8835         5.43554        -2.14749
LJ          -4.75567         5.00677        -2.72307
LJ         -0.312286        -3.15468        -4.09305
LJ            1.7492         3.62759        -3.15547
LJ          -0.79998         3.30343        -2.68254
LJ          -3.90347         1.07278        -4.75077
LJ           5.97431        -3.32181         4.63273
LJ           6.02516         5.65737        -1.95692
LJ          0.969883       -0.722689          4.4324
LJ           5.53309        -2.56134        -1.17902
LJ          -1.21236         1.77453        -3.28703
LJ          0.649247          5.6019        -6.00242
LJ          -3.72005          2.5375         -1.5907
LJ           2.87971        -3.28087         1.85899
LJ           3.07988       -0.879986        -5.60557
LJ          0.217295         -6.2336       -0.234193
LJ          -3.61218        -3.37825          3.1801
LJ          -4.70811        -3.43262       -0.100433
LJ          -1.07345        -1.76138        -5.86228
LJ           3.18031        -5.58433         6.16322
LJ           3.23328         3.44938         3.06857
LJ            1.6916        -3.62143         1.01336
LJ          -3.13795         2.17516        -3.27885
LJ           6.36011         3.20443         4.06706
LJ          -6.05624        -2.58094        -5.27131
LJ          -1.08669        -3.94005        -0.82839
LJ           1.31583         2.89155        0.116741
LJ           1.35858         2.96366         6.27205
LJ          -2.29285       -0.417924        -1.66925
LJ          -2.87776        -2.75031        -0.67135
LJ            3.3727        -1.29115         6.36181
LJ           3.04676        -0.48667         4.43446
LJ           3.33123       0.0996994         5.31643
LJ          -1.67684         4.19932         5.12555
LJ           2.68922        -3.73121        -2.40032
LJ          -6.11445        -3.03492         5.16751
LJ           0.88048        -1.52069        -2.20131
LJ          -1.76756        -6.26826        0.885284
