108
#Comment!
LJ          -4.22908       -0.144058         -0.6202
LJ          0.635095         -3.4497        0.639839
LJ           2.81981        -3.89641         1.70446
LJ           3.39905        -3.47684        -1.56296
LJ          -1.62621        -3.71981         4.39468
LJ           2.00974         2.10589         4.47821
LJ           4.13516         2.81173         4.42304
LJ           5.74528       -0.845594         1.96965
LJ          -2.72924        -1.17976         1.92401
LJ           1.38981         6.41615        -1.63767
LJ         -0.741593         -1.5723        -1.09404
LJ         -0.113482         -4.2569        -3.86682
LJ          -3.25338       -0.492236        -1.30109
LJ          -4.96929        -2.56499         4.52864
LJ          -3.27883         4.70291          6.2543
LJ          0.408277        -4.10562         4.93739
LJ           4.08087        -4.02231        -4.10155
LJ           -6.3565         2.71643         6.02169
LJ          -4.03077        0.820843       0.0501767
LJ         -0.558428        -4.78361         0.48213
LJ          0.877892         -3.7979         5.79447
LJ          -4.02348         2.64818        -2.24603
LJ          -5.69088        -1.27439        -2.29811
LJ           3.98521         1.85017        -6.06644
LJ          -1.34559        -1.76975         6.04496
LJ          -5.69786        0.860204         3.83654
LJ          -2.39773        -2.47605       -0.227373
LJ          -3.65589       -0.391079         5.47134
LJ          -1.13204        -3.80645       -0.673013
LJ          -1.55989        -2.88232           -1.47
LJ           1.93107         2.14572         5.59691
LJ          -5.87384         1.75417         6.11427
LJ           5.27034        -2.75566        -3.74713
LJ           -6.0303        -4.18331       -0.629958
LJ           5.16159          5.5028         4.07652
LJ          -5.44658       -0.370738         5.21229
LJ           3.85746         1.12295         4.34119
LJ          -1.04544        -2.56432         3.76415
LJ          -5.10065          5.7938         1.07988
LJ          -1.01739        -4.84203         2.85764
LJ          -1.45322          2.7856        -6.44425
LJ           5.12101         2.64555       -0.213021
LJ         0.0356914        -4.87667        -1.72988
LJ          -4.24707         5.42136         2.56854
LJ          0.877196        -1.35243       -0.812343
LJ          0.517459         1.00285        -2.95957
LJ          -3.44257        -5.18005         6.15614
LJ          -1.96996       -0.438607        -6.19371
LJ           3.41816        -6.02781        -1.31157
LJ           -1.2673        -5.92553          4.0959
LJ           2.18102         3.60955         -5.0048
LJ          -5.89809        -3.67828        -6.15427
LJ           -2.4121         5.07175         5.13647
LJ           5.79472         4.88444          2.7739
LJ          -2.96591        -2.62583         2.85711
LJ           0.15582        -3.05224         4.63219
LJ          -4.68436         5.25433         4.76385
LJ          0.658411          2.6753        -2.52213
LJ          0.207418        -2.44193        -5.65961
LJ           3.26254         5.99493         4.50932
LJ          -5.83323         2.49988         1.11688
LJ          0.204663        -1.15426        -4.66604
LJ          -5.00609        -0.80792        -3.26174
LJ           3.59715          4.1322          3.8678
LJ          -1.56362         1.44829        -1.51165
LJ          -4.87507        0.782468        -2.87269
LJ          -1.20371        -2.41707        -2.61355
LJ          0.138254         5.71328         0.90004
LJ          -5.65719        -3.29711        -1.42125
LJ           5.68019        -2.93202        -5.16747
LJ             5.722        -1.85983         1.99156
LJ           6.36245       -0.528303        -1.44826
LJ           2.73047        -5.08013         1.39454
LJ          -4.62535        -4.06674        -5.59025
LJ          -3.46957        -1.31503        -6.08659
LJ           1.38368         1.76732         3.58008
LJ          -4.35849           4.116         6.29808
LJ           5.77956        -3.48686        -3.22844
LJ          -2.87082         5.18205         1.15474
LJ          -5.42128        -3.93435        -3.51236
LJ         -0.959782          2.2604        -3.43585
LJ          -5.92772         4.89627         3.41104
LJ          -4.16882        -6.40664         -1.1248
LJ           -3.9117         2.77897         4.97856
LJ           1.76229        -1.72829        -1.20408
LJ          -4.83908         2.38321         3.65009
LJ           2.00242        -3.49841         2.52604
LJ           -1.9925        -5.75135         3.41238
LJ          0.488448        -4.17555       -0.919012
LJ           2.88765        -2.07715        -5.25172
LJ           3.89164        -1.12934        0.942957
LJ         0.0377727        -5.11447        -5.24317
LJ          0.959414        -4.49044         1.77928
LJ          -1.63024         6.08205        -5.16662
LJ          -3.54522        -0.40198         2.37845
LJ          -4.60017         4.77957        -2.01879
LJ          -3.11527        -3.35326       -0.511891
LJ           1.64114        -5.95027         -4.2489
LJ          -2.09764        0.300135        -2.80817
LJ          -4.66572         5.25346       -0.743088
LJ          -1.19418         6.07407        -6.36094
LJ           1.06005        -6.08035          5.7769
LJ         -0.446906        -3.82317         3.87649
LJ           6.02221         1.50766         4.37257
LJ          -4.08117         6.33862        -4.98029
LJ           2.03996         5.05617        -3.34878
LJ          -6.05284         6.22656        -1.85063
LJ          -4.45542         4.05436        -3.90247
