108
#Comment!
LJ          -6.18092        0.855211        -2.67591
LJ         -0.263363         3.88342       -0.321881
LJ           -3.9053        -4.57157         3.53103
LJ        -0.0446501        -1.11657         6.08931
LJ            1.8403       -0.999649         4.24608
LJ          -5.07654        -1.48821         3.41348
LJ           2.74146         4.45977      -0.0182962
LJ           4.33717         4.90341         3.47558
LJ           2.01597        0.114863        -4.07795
LJ          -4.44919        -5.56901         -2.2257
LJ           4.20159          -3.994        -0.96396
LJ           2.74694         2.35342         2.80031
LJ           2.38694        -3.46617         -1.1923
LJ           4.24577        -2.14083         0.59179
LJ          -2.43162        -5.43222       -0.877983
LJ           5.95562         2.37694       -0.160339
LJ          -1.03477        -3.81253        -1.69143
LJ          -5.31042        -5.00452        -3.38993
LJ          -2.42199          6.4153        -2.16722
LJ         -0.990627         1.68809        0.171658
LJ          -6.45914        -2.08622         4.06029
LJ           4.92003        -1.19705        -1.11829
LJ           -4.4332         1.38535        -2.70777
LJ            3.8658         1.27614        -4.30548
LJ           5.70993         1.81721         2.25876
LJ            6.4116         3.76681      -0.0292637
LJ          -6.01482         1.33369         2.77497
LJ          -5.50835        -5.37996        -1.38547
LJ           5.95652         2.83952        -3.02464
LJ           5.62018         4.92561        -4.66063
LJ          -5.10502        -2.01968         1.81713
LJ           3.67251        0.868742          3.2001
LJ          -4.13125        -4.40175       -0.919057
LJ            5.6027         1.38018       -0.809488
LJ          -6.11589         2.45979       -0.583591
LJ          -5.55681         3.23427         5.62181
LJ          -5.92528         5.72938         5.63045
LJ          -5.37021        -2.66158        -3.86881
LJ          -4.00148        -3.10911         1.09145
LJ          -2.69808         4.08524         3.84929
LJ          0.941383         3.79235        -3.23171
LJ          -3.17983        -3.83238        0.330826
LJ            2.5594       0.0504967        -2.27967
LJ          -6.22872        -5.87088        -3.23617
LJ           2.48867       -0.397263         3.31765
LJ           6.39988        -4.42374        -5.41148
LJ          -2.52714         -3.4788        -1.21097
LJ          -5.32817         3.89484         4.25826
LJ          -2.88569         1.66084         5.27397
LJ           6.46173         5.20062         2.74526
LJ          -3.50219         4.05513         1.90201
LJ          -5.21518        -3.59974        -4.50791
LJ         -0.194984        -2.15303        -5.75111
LJ          -3.27599        0.949526        -6.33064
LJ           3.77994         2.88943         2.29052
LJ          -3.89937         3.37058       -0.165577
LJ          -0.75983        -1.44892        -3.39249
LJ         -0.837322        -2.32466        -2.86027
LJ             5.833         6.26938         1.85665
LJ           4.12479        -1.76392         3.34856
LJ           3.92924         4.26667         1.75355
LJ           3.77253         6.27986        -6.04205
LJ          -5.43633         4.74648        -3.29961
LJ           2.50573         4.48492         2.34323
LJ           3.20639        -3.51575         5.41229
LJ         -0.479949        -2.96874         6.01549
LJ          0.417914        -3.53673        0.947496
LJ           5.04802        0.349655        -6.12877
LJ          -1.85282       -0.318429        -2.96711
LJ           5.55495        -2.11703        -4.76769
LJ           3.36018         4.85254         4.83689
LJ           4.49891         2.01503        -3.83109
LJ           2.05424       -0.951781        -4.16668
LJ           -5.4226        -2.63617        -4.91815
LJ          -3.77289          2.3771         5.36964
LJ           3.70361         3.62885         3.08835
LJ          0.540827        -6.07886        0.885654
LJ           -4.9939        -2.05169        -2.51346
LJ          0.756065           -2.39        -2.64289
LJ           1.33061        -3.87175         1.57414
LJ         -0.812176          1.2622        -6.42781
LJ          -2.08488         4.66187         4.66814
LJ           5.57717        -2.12024         3.37594
LJ          -4.35348        -5.94326        -1.35907
LJ           2.18948          3.6617        -6.44644
LJ          -2.50855       0.0348867         1.65851
LJ           1.20339        -4.24519        -1.04029
LJ          -5.15088         6.40795        -2.29528
LJ           2.13478         3.86453         -1.3792
LJ          -2.92703        -4.00245        -4.35982
LJ           3.22014        -5.26399        -3.41311
LJ           -5.9682          2.8525         1.33828
LJ          -5.40213         3.15136        0.551255
LJ           1.31886          5.6181         4.52995
LJ          0.900835        -6.02165         2.63441
LJ          -5.32631         5.50689          1.6645
LJ           1.59614        -1.08631        -2.94145
LJ          -1.08436         4.81498         4.02313
LJ           6.17168         5.10978        -3.39252
LJ           3.70221         6.00159        -3.29703
LJ           5.68414         5.96012         5.30223
LJ          -2.38472        -3.42189         3.07409
LJ           5.82228         2.92666        0.733633
LJ          -4.99085          -0.803         1.83998
LJ           2.21006          -2.431       -0.617518
LJ           3.56649         5.88329        -4.81711
LJ          -1.62821         1.94346         4.58865
LJ           -5.8797        -4.64878       -0.465654
