108
#Comment!
LJ           3.83139        -4.92433        -5.82867
LJ          0.542809        -2.89881         6.34573
LJ           3.73089         1.22784        0.127042
LJ          -5.15878         2.58447        -5.09589
LJ           6.44255         1.66545        -1.48635
LJ          0.234469         5.71791         5.88178
LJ          -4.56578         3.45721        -1.73318
LJ           3.33405         3.48764        -3.41345
LJ           -6.1537         0.62338        -6.30115
LJ          -5.43359         1.55216       -0.490239
LJ         -0.305428         2.15742        -3.52715
LJ           3.44902         1.10328          1.2861
LJ          -1.34809         3.65854        -3.67046
LJ          -2.52259         2.80405        -6.46299
LJ         -0.692247        -5.49356        -2.23546
LJ           3.52189        -6.09833         5.35534
LJ          -2.88767         3.94664        0.207848
LJ          -0.73959        -2.54621         5.69272
LJ           5.95065        -3.83634         5.81149
LJ         -0.468237         6.36082        0.627206
LJ         -0.974633        -1.17289         1.95353
LJ         0.0501637        -6.44506        -3.90474
LJ           5.47354         -5.7489         3.23697
LJ          -5.06959         4.64464       -0.531885
LJ          -6.09882        -5.00668        -3.69428
LJ          -3.29026         1.23798        -2.76537
LJ           1.57467         4.81649         1.43893
LJ           2.01709        0.235733         4.81176
LJ          -1.63588        -5.15196         2.65925
LJ         -0.975622        0.370755       -0.499165
LJ           6.32934          4.6452       -0.422884
LJ          -0.63654         5.28793         4.96448
LJ          -5.86736        -3.86527         5.92333
LJ           5.01741         5.01617        -5.90415
LJ          -1.21452         2.88352         4.55331
LJ            3.4725         6.02594         2.29909
LJ            -2.774        -5.74002         4.96159
LJ           3.10619         3.23319         4.76313
LJ          -4.64518        -3.71327         1.82241
LJ           5.61942         4.99868         1.82458
LJ          -4.76802        0.815275         -3.5776
LJ           4.31658         4.77805       -0.225857
LJ         0.0525547         2.43283        -0.25817
LJ          -6.32415        0.534392         -1.2925
LJ          -5.05465        -0.47996        -6.39419
LJ          -5.97677        -1.53623       -0.515073
LJ           1.29913        -3.43329         2.65385
LJ          -2.02968        0.262689         3.90049
LJ          -3.01688         -4.3522         3.33766
LJ          -3.91664         4.19579        -3.27472
LJ           5.81506       -0.174345          2.7573
LJ          0.437932          3.9638         5.04115
LJ          -4.96685        -3.42544        -4.59247
LJ          -1.45325         4.28365       -0.714146
LJ          -4.10043        -2.50502        -6.41643
LJ           4.64035        -2.33791        -0.45598
LJ          -6.02181         3.32137         6.08975
LJ          -5.14888        -3.81151        -5.54357
LJ          -6.25912         5.13366         2.75884
LJ         -0.872617        -1.67443         -4.0489
LJ          -4.03272        -0.74446         3.19103
LJ           6.06736         3.57328         2.79932
LJ          -2.55501         6.15688       -0.740194
LJ           5.95736         5.16708         4.09481
LJ           2.71319         3.90149         4.15165
LJ           4.75576         5.19805          3.1712
LJ           3.11697         5.47984         5.99685
LJ           3.14897          5.8401         -4.2838
LJ           5.16197        -2.80421        0.341181
LJ          0.845468         3.56609        -1.08134
LJ          -2.68837         5.59424        -2.41997
LJ          -4.66409         4.83271        -2.86422
LJ         -0.387116        -3.20282        -3.94784
LJ           1.48564         3.80566        -2.80875
LJ         -0.879465         3.23849        -2.58645
LJ           -3.7596         1.01482        -4.90139
LJ           6.08008        -3.39164         4.32115
LJ           5.96764          5.7684        -2.01835
LJ           0.65102        -0.80179         4.48286
LJ           5.43368        -2.35175       -0.996024
LJ          -1.14105         1.53743        -3.16996
LJ          0.390664         5.59428        -6.05597
LJ          -3.74537         2.72156        -1.71366
LJ           2.76258        -3.69046         1.80806
LJ           3.03412       -0.636575        -5.53377
LJ          0.322577        -6.12961       -0.160246
LJ          -3.87702        -3.51761          3.4296
LJ          -4.72157          -3.361        0.062982
LJ         -0.755741        -1.74852        -5.61195
LJ           2.91604        -5.06282         6.30668
LJ            2.9799         3.22326         3.02973
LJ           1.69107        -3.54728        0.996219
LJ          -2.65345         2.26349         -3.4526
LJ           6.44503          3.2668         3.85559
LJ          -6.06849         -2.5006        -5.06061
LJ         -0.772968        -4.08862       -0.789493
LJ            1.0973         2.79816       0.0395803
LJ           1.77919         2.83206         6.10152
LJ          -2.25059       -0.692279        -1.35086
LJ          -3.18133        -2.99625        -0.59735
LJ           3.49517        -1.21044         6.14244
LJ           3.15819       -0.204126         4.12779
LJ           3.24748        0.120131         5.24208
LJ          -1.91015         4.43539         5.15034
LJ           2.29176         -3.8888        -2.77349
LJ          -6.41564        -2.88645         5.46494
LJ           1.17839        -1.79506        -2.51897
LJ          -1.53328        -6.06261         1.17326
