108
#Comment!
LJ          -6.36875        0.843247        -2.79286
LJ         -0.391975         4.05603       -0.313263
LJ           -4.2056        -4.44723         3.77166
LJ        -0.0891245       -0.880202         6.02333
LJ           1.99089        -1.13675         4.14598
LJ          -5.01985        -1.74328         3.51551
LJ           2.76497         4.47853       -0.120986
LJ           4.36022         4.93732         3.63026
LJ           2.06731        0.551295        -4.00636
LJ          -4.53067        -5.59773        -2.15578
LJ           3.84454        -3.79973       -0.762814
LJ           2.84932         2.08494         2.77358
LJ           2.52412        -3.54622        -1.34603
LJ           4.16139        -2.11317        0.501895
LJ          -2.45525        -5.21713       -0.800019
LJ           5.99414         2.24513       -0.299688
LJ          -1.10858        -3.98375        -1.59693
LJ          -5.11456        -4.88211        -3.20091
LJ          -2.08667        -6.23018        -2.24758
LJ         -0.966969          2.0698        0.162203
LJ           6.12023        -2.01761         4.33364
LJ           5.20599        -1.19282       -0.896332
LJ          -4.39439         1.50029        -2.58808
LJ           3.72608         1.09955        -4.09511
LJ           5.78948          1.7423         1.97901
LJ          -6.40429         3.64703      -0.0543215
LJ          -5.68648         1.44999           2.736
LJ          -5.50999        -5.54853        -1.34085
LJ           6.24464         2.63536        -3.16645
LJ           5.44503         5.00203        -4.70194
LJ           -4.9041         -2.0392         1.83169
LJ            3.9004          0.8215         3.19779
LJ          -4.05616        -4.33902       -0.727487
LJ            5.6456         1.37213         -1.0001
LJ          -5.85362         2.49118       -0.830111
LJ          -5.61666         3.40106         5.51881
LJ          -5.88669         5.34096         5.72613
LJ          -5.46721        -2.67952        -3.88397
LJ          -3.95109        -3.02557         1.10846
LJ          -2.80277         4.00476         3.98205
LJ           1.29204         3.60112        -3.40037
LJ          -3.54301        -3.50477        0.377415
LJ           2.47307         0.43513        -2.58707
LJ          -6.29053        -5.89206        -3.38054
LJ           2.50361       -0.387556         3.17171
LJ          -6.14646        -4.11863        -5.55857
LJ           -2.5618        -3.52335        -1.38075
LJ            -5.098         4.03424          4.1134
LJ          -2.85919         1.45975         5.16861
LJ           6.24545         5.20144         2.89686
LJ          -3.43137         3.91262         1.87875
LJ          -5.34358        -3.54591        -4.49127
LJ        -0.0895729        -2.13824          -5.738
LJ          -3.13564        0.751615        -6.43052
LJ           3.65344         2.65983         2.65897
LJ          -4.03564         3.53485       -0.287918
LJ         -0.905778        -1.46074        -3.63626
LJ         -0.781096        -2.42663        -2.91815
LJ           5.99719         6.14477         1.85602
LJ           4.27415        -1.66683          3.3231
LJ           3.46567         4.28177         1.81617
LJ           3.83363         6.08434        -6.01075
LJ          -5.95452         4.65375         -3.1925
LJ           2.40334         4.52937         2.39161
LJ           3.43761        -3.83324         5.22563
LJ         -0.692251         -3.1387         6.18078
LJ           0.40465        -3.91882        0.921614
LJ           4.84289        0.267143        -5.96268
LJ          -1.93401       -0.359999        -2.75646
LJ            5.3145        -1.95482        -4.65977
LJ           3.52643         4.92453         5.01574
LJ           4.45305          2.1739        -3.75603
LJ           1.91253        -1.04358        -4.03616
LJ           -5.6774        -2.58625        -5.00526
LJ          -3.71263         2.39092         5.40946
LJ           3.86062         3.64794         3.08413
LJ          0.780324        -6.15753          0.8437
LJ          -5.09791        -2.11112        -2.56607
LJ          0.980033         -2.6947        -2.35628
LJ           1.52389        -3.91495         1.77637
LJ         -0.844892         1.15038         -6.3116
LJ          -2.06537         4.54329         4.68241
LJ           5.72919        -2.37762         3.16633
LJ          -4.25479         -6.3344        -1.12559
LJ            2.0065         3.78662         6.39088
LJ             -2.45      -0.0307291         1.65706
LJ           1.21804        -4.21218       -0.761147
LJ          -5.31636         6.43314        -2.26696
LJ           2.21942         3.86448        -1.22536
LJ          -2.97943        -4.10859        -4.37178
LJ           3.24966        -5.09361        -3.56993
LJ          -5.89381         2.80776         1.26976
LJ          -5.56671          3.2823        0.283063
LJ           1.44244          5.6608          4.1967
LJ          0.929883        -5.78109         2.63718
LJ          -5.30013          5.4772         1.92302
LJ           1.57746        -1.34615        -3.16202
LJ          -1.28267         4.76145         3.91876
LJ           6.09234         5.30731        -3.47386
LJ           3.62838         6.19163        -3.40914
LJ           5.89623         6.04485         5.15468
LJ          -2.37053        -3.11358         3.28707
LJ           5.61927         3.24203         0.56736
LJ          -4.85057       -0.982699         1.70545
LJ           2.35683        -2.35629       -0.435154
LJ           3.55827         6.03724        -4.91344
LJ          -1.96511          2.0613         4.59315
LJ          -5.88738        -4.72692        -0.41555
