108
#Comment!
LJ           1.84507         1.18703         -5.5614
LJ          -5.83747        -5.63471         -4.3056
LJ           0.89936       -0.566639        -6.40586
LJ          -4.21351         5.72536         5.38452
LJ          -3.68268        -5.72555      -0.0786647
LJ          -2.69907        0.738157        -5.60284
LJ         -0.826494       -0.421802        -3.61272
LJ           5.82919         4.50339        -2.72485
LJ           -1.8928        0.410401         6.37731
LJ           5.80816        -5.91942        -1.19504
LJ          -1.08506        -5.85263        -2.27074
LJ           3.33627        -1.87098         3.12189
LJ           2.99261         6.25517        -3.55536
LJ          -2.31891        -1.45047        -5.85504
LJ           1.60314        -5.10358         1.27151
LJ          -5.66643         1.61465        -6.25169
LJ          -1.04611         4.22409        -3.05835
LJ          -2.43493         -3.9846        0.294773
LJ            -4.517         -4.2598         3.67389
LJ          -2.08823        -2.71006         1.55046
LJ           1.48533        0.636375        -6.33755
LJ          -4.37142        -4.48157         5.03556
LJ          0.811863       -0.696363         -2.1116
LJ          -1.06978         1.37566         2.77436
LJ           -5.7851        -1.62906       -0.809222
LJ           2.83444        -3.16578        -2.08008
LJ           1.02993         2.72761        -5.52568
LJ          -4.52637         2.99357       -0.856633
LJ          0.154075        -2.49393         4.08969
LJ           4.07927        -1.57596        -6.12484
LJ          -4.66472         2.75944        -3.62181
LJ          -2.37224         3.20123         2.50536
LJ         -0.750418        -5.46436         3.23173
LJ           1.98696        0.662558        -2.80532
LJ           1.97355        -0.75558        -4.11596
LJ           2.82432        -1.08774         1.63199
LJ          -5.38028         2.23656         -5.1875
LJ          -4.29259        -1.11545        -3.37637
LJ          -1.35978         3.97912         6.39925
LJ          -3.97572         1.42455         1.98707
LJ          -1.15504        -2.22433         3.75064
LJ           1.59704       -0.570657         2.63737
LJ           5.20423        -1.82419        -2.85948
LJ           6.19526          6.2552         6.04362
LJ          -1.44451        -1.61952        -1.24593
LJ           4.59217        -5.31124         3.92226
LJ          -4.67456        -6.22483       -0.931484
LJ           2.97559        -2.29653      -0.0712934
LJ          -5.11995        -6.13052         4.59092
LJ             1.081         4.96083         5.90579
LJ          0.693935         5.47766        -2.35936
LJ          -1.07864        -1.19583        -4.32503
LJ           2.08813        -2.36813        -4.25815
LJ           4.11904        -2.81576        -3.31579
LJ        -0.0124452        0.783823        -4.23386
LJ           6.25295        -2.36073        -1.11387
LJ           5.60712        -1.67454        -6.35791
LJ           2.41032        -5.03236         -3.9535
LJ          0.802656        -4.00898        -6.19464
LJ          -4.49006          2.1577         3.99373
LJ          -3.25728         2.47204        -4.07228
LJ          -5.29953          5.2756        -4.31152
LJ          -3.05656        -4.63379       -0.455129
LJ           6.21219         6.02405         -3.5974
LJ          -1.70514         4.89383       -0.992885
LJ           -3.7532        -5.48577        -2.53056
LJ           2.59517       -0.697394          5.7442
LJ          -3.33368         1.38336        -4.00828
LJ          -3.47114        -1.16511         3.61208
LJ          -3.25616         1.58456        -1.84243
LJ          -5.48199         3.07401        -4.44706
LJ           3.19137        0.536535       -0.487502
LJ          -2.55766         3.66365        -1.85377
LJ           3.87375        -3.14774          1.7129
LJ          -1.76259        -1.42065         3.83339
LJ          -5.52458         4.63535        -2.95806
LJ            -3.216        -1.12345         1.27916
LJ           3.52289        -3.54804         3.81212
LJ          -4.39451         1.08432        -4.73758
LJ           2.88998        -3.72722         4.74156
LJ          -2.63195         5.67884        -4.28949
LJ           3.21525       0.0332304         3.61161
LJ           2.59615         6.45762        -2.01107
LJ            1.9836         3.21529         -4.3898
LJ          -3.24673         -5.4932         1.63926
LJ          0.736534       -0.718159         3.06897
LJ           1.39006         5.90077       -0.579562
LJ          -5.48388        -4.74953       -0.660815
LJ           2.40061         1.03553        0.382111
LJ           3.40103         3.20537       -0.821615
LJ           1.78529        0.208865         4.48934
LJ          -2.46732        -2.11214        -1.22031
LJ          -1.37974         5.16806        -4.90255
LJ          -5.37339        -1.48359         -3.8083
LJ          -3.67276         6.27072        -5.92685
LJ           5.07215         4.42952        -5.71439
LJ           3.45909         -1.9205         5.34266
LJ             3.784       -0.784463         3.04386
LJ           2.95917        -5.70991         5.86319
LJ           2.21678        -3.59739         2.57046
LJ           1.37177         4.90122       -0.505504
LJ         -0.946821        0.616853         4.33629
LJ           6.01177        -1.15773       -0.986871
LJ          -2.35726        -6.27749       -0.740756
LJ          -1.46032         -4.0832        -5.72366
LJ           1.47422        -5.04759         6.12582
LJ           4.86993        -1.08448          3.8889
LJ          -6.05646        -6.02645       -0.677637
