108
#Comment!
LJ          -6.14313         1.35009        -1.41756
LJ          -4.31233        -3.23848         -5.4848
LJ          -5.70498         2.78588        -2.95722
LJ           3.11873         4.97913         3.80229
LJ          0.826091         1.28119         3.34208
LJ           2.94555       -0.190993         1.44788
LJ          -2.93812         5.30335         2.40344
LJ           -3.5473         3.15965         2.42813
LJ           4.87692         3.49346        -3.06341
LJ           1.09138        -2.41021         6.43431
LJ          -3.86664       -0.221707        -6.35831
LJ          -6.23347         5.65933        -3.76045
LJ          0.529921         4.83545         3.96033
LJ           -4.8862         4.70386         -5.0906
LJ          0.368459         2.66153        -3.30874
LJ          -3.31799        -2.51393         2.71792
LJ          -3.42198        -5.92439         3.62328
LJ          -2.83993        0.847493         2.54413
LJ          0.392774         5.96044        -5.43586
LJ           5.25062        -2.09768         1.39404
LJ           1.85492        -5.99146         4.86326
LJ          -3.19774         4.99216        -1.43358
LJ           5.60151         5.99499        -2.17656
LJ           3.16479         3.39814       -0.224784
LJ           4.08093         5.70757         1.34337
LJ          -1.47148      -0.0244965        -2.95346
LJ          -1.77624        -5.62277         2.41617
LJ           4.48238         2.64188         1.46575
LJ           3.54567        -4.60774         1.05918
LJ          -4.46221         2.12643        -3.69465
LJ          -0.99153         1.69719         4.07219
LJ         -0.215255        0.864988         4.14193
LJ          -3.97591         4.69593         2.79762
LJ         -0.980191        -4.13781         -3.8331
LJ           3.84777         3.54747        -2.72918
LJ          -1.24116         1.16923         1.42755
LJ          -4.09621        -3.42436         5.56035
LJ          -6.07556       -0.395195         2.32961
LJ          -2.88438          6.2119         2.80334
LJ          -2.16129        -2.20043         5.81063
LJ         -0.473762        -1.19867        -2.54016
LJ          -6.02292         2.32061       -0.639258
LJ           5.49205         4.15736         4.00543
LJ           1.65576        -4.66369        -6.46237
LJ           5.32374         1.97003        -1.35386
LJ           5.24194        -4.36244         3.27217
LJ           4.72895         0.16968       -0.214683
LJ          -2.58175         -3.5503        -0.80005
LJ           2.20591        -0.76731         -4.1131
LJ          -1.55507      -0.0667951        -4.32632
LJ           5.45949         1.22694        -2.55679
LJ         -0.706319        -5.12073         1.97959
LJ           4.53888        -3.23053        -5.90345
LJ          0.885802        0.279569         2.58414
LJ          0.710551        0.171951       -0.883363
LJ          -1.68391         1.50431         2.92648
LJ           -6.2484         4.86531          2.7451
LJ          -1.31437        0.997428        -3.82307
LJ           4.36837        -6.23369        -1.51585
LJ           4.74927         6.29132         2.73419
LJ           2.12174         4.88645         5.90826
LJ           5.77148         -1.5893         4.93629
LJ          -4.38125         5.43823        -3.20459
LJ           3.77974        -3.80523        0.389735
LJ          -1.94864         1.15133       -0.622319
LJ          -1.40469        -4.52206       -0.418059
LJ          -2.19778         1.95023          3.6341
LJ           6.25304        -3.81047        -2.60118
LJ          -4.48099         3.32528         4.85448
LJ            -2.332        -1.94848         -4.3153
LJ        -0.0735343        -3.67158         4.85531
LJ         -0.151317        -1.37581         5.41154
LJ           2.73595        0.162885        -6.26614
LJ            5.6067        -3.22089        -1.09005
LJ           3.47724          2.9768        -3.58428
LJ          -1.58551         4.63641        -3.59693
LJ         -0.421288         3.16992       -0.495856
LJ          -2.69607        -1.42694         6.36566
LJ           2.98542        -2.22211         4.87728
LJ           6.45014         5.70694        -6.39957
LJ           4.39818        -2.47643         5.34678
LJ          -5.14467        -3.48793         5.04706
LJ         -0.187002       -0.723193        -3.63757
LJ         -0.334867         4.94112         1.98519
LJ          -5.56255        -1.41858        -6.01705
LJ           4.58974        0.944598        -1.10311
LJ          -1.38491        -1.51047         5.16039
LJ          -5.29502        -5.85796        -5.91273
LJ           1.44968         5.14181         1.78494
LJ          -2.01355        -3.74991         2.47838
LJ           3.09201        -4.46783        -2.56818
LJ           6.13443        -5.12813         2.20167
LJ           6.26968        -5.19379       -0.526356
LJ           3.44262        -5.76381          1.4887
LJ          -1.55101         3.11393          5.1102
LJ          -6.37863        -2.60544        -5.97261
LJ          -4.95565        -2.72417       -0.319115
LJ          0.412426        -2.73348         3.59348
LJ            5.5761         -5.5412         3.03831
LJ           1.77091         4.21333         5.38383
LJ           3.18826        0.537505        -2.60647
LJ            3.4676        -5.97901         3.72915
LJ          -1.36507       -0.828754       -0.303682
LJ           3.45035         4.13932         -1.0486
LJ          0.767191         -4.6106         1.05749
LJ          -4.22799        -2.69258          3.5043
LJ           -4.2503         4.18992         5.94053
LJ         0.0488213         5.55928        -2.07476
