108
#Comment!
LJ           5.56769         1.76523        -2.19327
LJ          -4.69037        -3.20469        -5.66052
LJ          -6.15895         3.16024        -2.70685
LJ           4.06492         3.96077         4.34451
LJ          0.271491       -0.504217          4.3976
LJ           3.78935        -1.38835         0.61151
LJ          -3.26703         5.52854         1.91933
LJ          -2.00174         3.90526         2.98053
LJ           4.24262         3.87781        -1.65507
LJ          0.504461        -2.30417        -6.11736
LJ          -3.89366        -1.10961        -5.71076
LJ          -6.24626         5.05829        -3.57045
LJ           1.95937         4.17059         4.28759
LJ          -6.09126         4.57468        -5.48923
LJ         -0.773238         2.81833        -3.25805
LJ          -2.91294        -3.18452          2.7525
LJ          -2.59355         -6.0345         3.68938
LJ           -2.6478        0.654787         3.14954
LJ          0.417522         5.47831        -6.09469
LJ           4.55196        -1.88839       0.0390907
LJ            2.0259        -6.25511         4.32392
LJ          -2.34687          4.7939        0.116618
LJ           5.18281        -6.26318        -1.64066
LJ           3.40598         2.92354        0.124976
LJ           4.32776         6.12278        0.995848
LJ          -1.36758       -0.387509         -3.7244
LJ          -1.99339        -4.98187         1.57055
LJ           2.55474         2.90261         2.71966
LJ           4.16404        -4.43751         1.02764
LJ          -3.41899         1.67841        -5.05711
LJ         -0.291264         2.39158         3.19202
LJ         -0.375601         1.38817         4.25737
LJ          -5.32293          4.8048         2.53103
LJ          -2.45438        -5.17968        -3.45437
LJ           3.10195         4.65269        -2.39972
LJ            -1.401        0.357607         1.27804
LJ          -4.41344        -2.40153         4.53177
LJ          -6.07555        0.289843         1.62231
LJ          -2.93868        -6.09371         2.05729
LJ          -2.07948        -2.47503         5.58794
LJ         -0.805586        -2.08114        -2.73482
LJ          -6.36457         2.28148        -1.42705
LJ           6.15974         3.90895         2.86137
LJ           2.63916        -5.54531         6.34943
LJ           5.71489            2.23       -0.662171
LJ           5.55571        -4.13771         2.86722
LJ           4.01893       -0.766756       -0.137331
LJ          -3.27251        -4.09649         -0.7495
LJ           1.54872        0.878367        -5.23871
LJ          -3.16376       -0.281937        -4.11884
LJ           4.67782         0.77737        -1.38421
LJ          0.595319        -4.81187         1.27154
LJ           3.88594        -3.19417         6.02031
LJ         -0.493236      -0.0871808          3.1386
LJ        -0.0788636      -0.0786426       -0.921589
LJ          -1.00147         1.86542         1.72139
LJ          -6.41427         4.29457         1.97276
LJ         -0.549311         1.11665        -3.49047
LJ           5.50377           5.587       -0.415153
LJ           4.71399         6.12792         3.11107
LJ           2.89955         5.44761        -6.31497
LJ          -5.85837        -1.09824         4.71266
LJ          -3.96474         4.32937        -1.77276
LJ            4.1489         -3.4258         0.23895
LJ          -1.38145        0.952516         -1.8906
LJ          -2.48738        -4.37516        -1.46781
LJ          -2.01956         2.53924         3.23267
LJ            5.7615         -2.8776        -1.61301
LJ          -4.64706         3.78471         4.11941
LJ          -3.09634        -2.64369        -5.56925
LJ           1.23556        -3.93911         5.78616
LJ          0.167359         -1.3083         5.82602
LJ           2.82592       -0.819551         5.09209
LJ           5.79045        -2.93855        0.225123
LJ           4.00342         3.55999        -3.15665
LJ         -0.558939         4.81053        -4.05062
LJ         -0.814878         3.94925        0.136881
LJ          -1.22977        -1.55222        -5.50827
LJ           2.12606        -2.46057           4.402
LJ          -5.83122         5.87506        -4.67593
LJ           3.87638        -1.40936         5.81987
LJ          -5.57901        -2.23096         5.67489
LJ         -0.413149       -0.144543        -4.08076
LJ          0.715985          4.4749        0.998178
LJ          -5.31145       -0.886423        -5.06557
LJ           4.02073         1.90086        -1.10562
LJ           -1.3666       -0.454072         3.79802
LJ          -5.95085         6.42107         -6.1814
LJ           1.93978         4.59726       -0.224536
LJ          -1.03286        -4.92292         2.82996
LJ           2.12896        -5.08492        -2.25625
LJ           6.22086        -5.10605          2.1313
LJ           5.66441        -5.32131      -0.0971938
LJ            4.4119        -5.94078         2.30978
LJ          -1.05883         2.31825         4.71653
LJ          -5.32672        -1.93973        -4.89274
LJ          -4.97044        -3.36357        0.316307
LJ         0.0944995        -2.68488          4.8716
LJ           4.91621        -5.04117         3.76812
LJ           1.31215         3.47506         5.00529
LJ           2.92061         1.46544        -2.43381
LJ           3.83013        -5.09703         3.51204
LJ          -1.69631       -0.670186       -0.973092
LJ           2.75255         4.01944       -0.081324
LJ          0.616559        -3.69049         1.07762
LJ          -3.05169        -2.47215         4.29853
LJ          -3.26785         3.40025         5.89685
LJ          -0.71203         6.35343        -2.01474
