108
#Comment!
LJ           6.19148        -1.32965       -0.739026
LJ         -0.131522        -3.30246         1.96373
LJ           5.08682        -6.08717         1.29051
LJ           4.62376          3.8965        0.477158
LJ          -3.59468        -4.15402         2.03275
LJ          -1.17012         3.71501         5.34697
LJ           5.81757         3.40653        -5.28601
LJ          -5.92891         3.34032         1.77346
LJ          -1.21342       -0.754021        -1.12105
LJ          -2.89437         5.03911         5.00104
LJ         -0.218477        -1.43816         4.36477
LJ          0.746891        -3.33763         4.63779
LJ           5.54396        -5.53387        -1.37511
LJ          -4.00047        -3.23042          5.6861
LJ          -5.16157        -5.38185        -2.63503
LJ         -0.372487         5.88437         5.68122
LJ          -5.12787        -3.64335        -3.32038
LJ           2.76004         3.82628         5.28817
LJ           1.40866       -0.446565       -0.721525
LJ           -1.8567          5.1537       -0.759856
LJ          -4.40016         5.50865          4.5791
LJ          -4.54648         3.83169        0.669776
LJ          -3.50166       -0.337839        -1.66973
LJ           5.33415          2.4544        -5.00836
LJ           4.54923         3.75582         5.62852
LJ           -3.4532          1.3297         5.34049
LJ           4.73169         -0.8767        -2.82684
LJ          -3.34778         2.26717          5.9167
LJ          0.878172        -3.82037         2.51293
LJ          -2.37749        -1.48068        -1.52696
LJ         -0.386915         4.19372         6.08235
LJ           5.73946        -2.30788        -2.19964
LJ           5.92217        -4.14296        -3.87439
LJ           4.49932        -1.70421         2.41528
LJ           5.71148        -2.78781         3.68641
LJ          -6.41355        -2.33885         1.81283
LJ           1.22297         -1.2684         6.23383
LJ          -2.89528        -4.93217         4.33712
LJ           -5.0495         2.42884         1.68357
LJ          0.443173       -0.301484         3.58178
LJ           -3.4362         5.28715        0.335041
LJ         -0.677233        0.281327        0.712424
LJ          -1.72287       -0.915853        -4.30482
LJ            5.5725         1.65773       0.0845764
LJ           -3.0118        -3.31194         4.47844
LJ          -2.97444         1.87694        -1.31718
LJ           5.53932         4.75533        -3.03178
LJ          -4.06337       -0.690448        -2.74355
LJ            4.4631        -5.86673        -3.20897
LJ           4.61937         5.98335         2.55987
LJ         -0.101033         2.16813       -0.199191
LJ          -5.86518        -5.16444         3.67468
LJ          -1.36304         1.96154        0.322824
LJ           5.99028        -1.75282         3.11919
LJ          -4.42354       -0.835831         4.01546
LJ           2.06466         3.57268        -4.33044
LJ           4.32574         5.05119         4.75499
LJ         -0.469498        0.233343        -2.66342
LJ           -2.7303        -5.00306        -5.75659
LJ           2.88594        -4.03081         5.99994
LJ           3.31303          3.3055         2.09194
LJ           1.61514         4.91221        -1.44026
LJ          -3.86298          3.1324       -0.304107
LJ          0.346878         3.14917         4.35541
LJ         -0.626126         1.84586        -1.27128
LJ         -0.385395         1.97113        -6.32083
LJ          -5.79083             2.3         6.34698
LJ           1.84499        -6.42836       -0.217456
LJ         0.0412464        -4.84146         5.73597
LJ          -3.32758        -0.49134         -4.4233
LJ           3.30741        -3.25792         3.65144
LJ          -4.08856        -1.00988        -1.07234
LJ           -1.3054        -3.49963        -1.66469
LJ          -3.80357        -5.54209         4.07889
LJ          -3.59731         5.77742         5.59372
LJ          -1.20871      -0.0160331         5.16298
LJ          -4.43005        -5.35495        -3.45944
LJ           4.18241        -4.33107        -3.67473
LJ          -3.45691        -3.09646        -2.08743
LJ           1.58984        -4.52356        -5.09655
LJ          -1.78303        0.548769         3.11588
LJ           -4.6435         4.29258        -6.02914
LJ          -5.41964       -0.745749        -1.49109
LJ           4.92303         4.68892         3.90162
LJ           0.97491        -6.41706        -1.56307
LJ          -5.44545         3.41474         2.63103
LJ           5.21597        -4.98342        -3.33456
LJ          -4.27819        -3.38536          2.6397
LJ          -5.75316         5.28988        -3.38391
LJ           6.10096         -1.9225        -6.45011
LJ         -0.183352       -0.416626         1.40974
LJ           1.41403        -4.27532        -1.78061
LJ           2.38109         5.22635         6.18975
LJ          -1.84912          6.1911         1.04756
LJ          -5.61058         -1.4702        0.064163
LJ          -5.11889         6.20673       -0.798796
LJ          -3.37012        -2.26655        -1.49295
LJ           2.43225        -6.15685        -2.46741
LJ          -1.28207         5.24626        -6.43967
LJ           6.19601         4.62083         1.15314
LJ          -5.31924        -2.31732         4.05018
LJ           1.75412         3.31757        -5.51731
LJ          -2.45863        -1.07118          4.1399
LJ          -5.87816         -2.1992         5.61639
LJ          -3.47155        0.359109         1.91355
LJ           1.35404        -5.90925        -3.17726
LJ          -4.42934         1.42344         2.84124
LJ          -6.30715        -4.56729        -5.60176
