108
#Comment!
LJ          -2.29708          1.2767        -1.09026
LJ           1.12316       -0.190354        -0.12024
LJ          0.244361        0.698779         1.35948
LJ           1.59633        -1.13316        -3.38246
LJ           0.34191        -1.38876         4.57189
LJ           5.29137        0.585467            4.55
LJ            2.9674         3.06002         1.82059
LJ           4.75084         2.35395         1.32888
LJ          -1.23824       -0.100155        -6.32817
LJ          -3.24418        -5.23668          2.9203
LJ          -2.47717        -3.14087         4.78703
LJ         -0.330855        -5.75616        -0.74755
LJ          -1.45212         3.62179       -0.421211
LJ          -6.43114        -2.50515         3.01164
LJ          -3.27467         5.35282        -4.11955
LJ          0.825287        -1.06971         2.33425
LJ           1.78494         -3.7244        -2.83187
LJ          -6.41649         5.02302        -5.94098
LJ           1.36984        0.761891       0.0962377
LJ          -1.44725        -5.42209       -0.282973
LJ          -1.84416        -1.67618        -4.12124
LJ           -3.3448          0.3161        -4.65552
LJ           6.23321       -0.382243        -3.94859
LJ           3.60551          2.0553         6.13303
LJ           -4.8656        -6.14446         5.48699
LJ           6.19414         2.42013         2.31559
LJ          0.036143        -1.76569         2.52383
LJ          -5.37818        -2.76937        -4.37367
LJ          -5.44908         4.95845        0.239971
LJ          -3.28696         1.15389        -1.81784
LJ           3.62134        0.722444          4.0645
LJ          -2.64028         1.64022         4.55109
LJ          -6.21753         -1.7866         -2.8789
LJ           5.24614         3.59372         2.22569
LJ            6.0783         4.54637         3.19234
LJ          -4.24281        0.628347        -5.48689
LJ           4.98697         2.23278         3.39364
LJ           -1.8475        -1.86222         6.16881
LJ          -4.87308        -5.37209        0.824198
LJ         -0.579619        -6.01902         1.44373
LJ          -1.29023         2.65494       0.0399066
LJ          -3.14145          4.0793        0.742804
LJ          0.489505          6.0788          1.5042
LJ          -2.71456        -6.29288        0.419493
LJ           1.31121       -0.664942        -4.55248
LJ           1.96501         1.28093        -3.16013
LJ          -1.17774        -4.16165         3.75823
LJ           1.46645       -0.368239         5.36751
LJ          -6.44484            5.44        -4.37104
LJ          -1.68394         -6.1789        -4.17887
LJ           4.93998         4.92931         4.35847
LJ          -4.24126        -4.26219        -5.30576
LJ           -2.0409        -4.86033        -5.76788
LJ           6.44624          4.9184        -2.29975
LJ          -4.34864        -4.71745        -6.25149
LJ         -0.296287        0.254133         2.96922
LJ          -3.05383         4.60823         2.21837
LJ         -0.305167         2.08527        -3.39865
LJ           2.55577         -3.5765         3.62986
LJ           2.11833        -4.52031         4.63948
LJ          0.621159         2.16486     -0.00280611
LJ         -0.371983         -5.1238        -5.92953
LJ          -6.25993        -3.08698        -4.34571
LJ           3.85287         4.73497         3.91184
LJ          -1.49113         2.20406        -2.15178
LJ           4.86628       -0.791435        0.284471
LJ         -0.160106         6.32642        0.739736
LJ          -2.71456         3.05162         2.60782
LJ           3.32447       -0.697985         3.24114
LJ          0.712282        -3.28348        -6.05481
LJ          -3.38501         6.42148         3.15501
LJ          -5.51332       -0.160025        -3.61122
LJ           4.02003         5.70704         4.10625
LJ          -4.45574        -3.30554         -4.1874
LJ          -3.18845         1.44459        -6.35227
LJ           3.80851         4.40435         2.63498
LJ          -2.98454         4.71738         3.51645
LJ          -5.47925        -2.48073        -2.18758
LJ          -1.57414         1.43616         3.40999
LJ           2.72401        -2.99679        -1.39246
LJ         0.0144946         2.90022         1.21727
LJ         -0.483656         5.88101         2.18829
LJ        -0.0696238         3.19691        -4.01276
LJ          -4.19226        -2.36826          2.8901
LJ           -5.4674      -0.0351192        -2.39706
LJ          -4.28269         1.83982         2.71728
LJ            2.3848        -3.78411         6.31852
LJ          -3.69545        -4.93504        0.669338
LJ          -4.48567      -0.0496024        -2.34427
LJ          0.823087         -2.3253        -4.46179
LJ           3.58505         2.19734        -0.42096
LJ           -2.2271        -6.24377         5.69714
LJ          -1.56378       -0.287745         2.37886
LJ          -1.10901         4.52518        -3.82971
LJ          -2.38592         1.85889         2.66538
LJ          -4.84004         5.31587        -1.39712
LJ           5.48924         5.81907       -0.294957
LJ           0.83946         6.00517        -5.91967
LJ          -3.95471         1.53269        -3.08936
LJ          -6.36505         3.97931        -1.36878
LJ           1.19106         4.12006        -4.91012
LJ         -0.366797        -4.47498         -4.7971
LJ          0.957008        -3.39218         4.08742
LJ           5.81527         2.60246         1.31757
LJ          -2.13265         1.15574        -4.74449
LJ           2.64275         4.68012        -3.57823
LJ           4.19164         3.85291        -5.02567
LJ          -4.96859        -1.75577        -3.95771
