108
#Comment!
LJ           2.68906         5.70678        -2.10045
LJ           3.40786          4.3322        -6.06231
LJ          -3.11182         2.12463         5.81752
LJ           -6.1365         3.67006          3.7201
LJ          -2.71922        -1.51913         4.99975
LJ          -1.48653         5.48843         -4.8872
LJ           6.12172       -0.401625        -2.63053
LJ          -6.04574         3.74038         2.45045
LJ           -3.6145         4.68693       -0.725787
LJ           5.93911        -3.37049         1.47022
LJ          0.415959        0.775399        -3.63224
LJ           4.35928        -6.10983         1.33899
LJ          -5.37229        -5.88655        -4.96129
LJ          0.702792        -4.26939         1.31386
LJ           3.85492        -3.61266         5.77552
LJ             -5.53         5.61495         5.80073
LJ          0.917717       -0.917349        0.687602
LJ          -1.26215        -3.78658        0.524848
LJ           4.98259         3.13692         5.06216
LJ          -1.44941        -2.00161         1.90674
LJ         -0.890957        -4.07484         6.27653
LJ          -4.45857         5.74033        -4.76832
LJ          -2.41712        -4.04905       -0.510278
LJ           5.99348        -4.29345         1.16098
LJ          -6.22371       -0.720857        -1.59714
LJ           4.32172        -6.07515        -2.82727
LJ           2.45563        -6.09552         4.82542
LJ           3.83284       -0.758743          3.0585
LJ           2.03542         5.62935         4.70844
LJ           2.16161         4.34642         5.34949
LJ          -2.08329          1.7563        -3.60813
LJ          -0.19216         2.59991         2.37317
LJ         0.0899768         3.79786        -6.44306
LJ          -4.78561        -3.20462         1.03128
LJ             2.031         2.63634        -3.99699
LJ           6.42684        -6.22986         1.38352
LJ          -4.83774          5.0215         3.89609
LJ          -3.34982       -0.227584        -5.18925
LJ          -2.67967        0.212935         6.05375
LJ           -4.4987         1.25967        -2.11768
LJ           4.17793         3.88272        -1.95467
LJ          0.171786           3.447         4.76019
LJ          -3.57799         5.66854        -2.56726
LJ           1.61244         5.74358        -4.55061
LJ          -1.30964        -3.35745         1.72976
LJ          -4.30921         2.57965         1.06141
LJ           3.99691         6.34201        -1.75149
LJ          -4.43861         3.10592        -1.90536
LJ            5.4363         5.75009          3.6938
LJ          0.955364         4.00514        -4.96318
LJ           2.74971        -1.39391        0.924082
LJ            6.1003        -4.66179         3.78047
LJ           3.62258        -1.12268        -1.82516
LJ           4.30474         3.32276       -0.801428
LJ          -4.10395       -0.341609        -1.82635
LJ           2.75685        -0.30152        -2.50185
LJ           5.04172         -4.0852        -4.24787
LJ            2.3549        -2.92177        -3.16666
LJ           3.58165       0.0454007        -4.63622
LJ           -4.8744         5.79956         4.58657
LJ          -4.50065         4.76822         1.40846
LJ            6.1436         5.05636        -1.61872
LJ          -2.35482        -5.65519       -0.295391
LJ          -4.51641        -4.32584        -1.79759
LJ          0.676188         4.75058         6.22253
LJ           5.32143        -5.40215        -1.79036
LJ           4.14222        -2.84772        0.495305
LJ          -3.04164         3.68982        -3.56233
LJ          -3.40265        -1.12416        -4.15167
LJ           3.71941         5.10363        -4.38958
LJ          -1.03924         1.81217        -3.25104
LJ           5.70911         5.55381         2.73137
LJ          0.201605         4.94408        -5.78803
LJ          -4.98853        -4.56885          3.9763
LJ           6.06964        -3.19284        -3.48587
LJ          -3.46576         4.34585        -2.11235
LJ            3.6207         3.24904          2.5749
LJ          0.198558        -2.96897        -1.59522
LJ           5.80471        0.739768        0.417439
LJ           4.88176         -3.1067        -6.30281
LJ          -3.78208        -5.68777        -4.33965
LJ           1.12336        -2.80343          6.3691
LJ         -0.220664        -6.40943         2.20908
LJ           2.26562         3.13609         2.77692
LJ          -2.19786         -3.4462        -3.28987
LJ          -4.00097        0.994594        -5.81348
LJ          -1.05902        0.380334        -1.55588
LJ          -4.72897         6.20811        -2.94856
LJ           3.08242       -0.427439         0.44219
LJ          -4.16572         2.78462         2.34739
LJ           3.30926        0.801896        0.229546
LJ         -0.627664         6.18134         5.01422
LJ          -1.10096        -3.55376        -2.97089
LJ           -1.4747       -0.209035         4.98845
LJ           6.07233         2.87465         4.01775
LJ         -0.311804          4.9092        -4.03099
LJ           2.79463         1.20653        -6.15671
LJ           1.85412         0.27048        0.424431
LJ           4.28956        -4.70453        0.947667
LJ         -0.427414         6.21604        -5.85135
LJ          -6.34405          0.5679         -3.9841
LJ          0.226877         6.25559         2.95284
LJ          -3.79559        -2.97462        0.849905
LJ          -2.64793         5.14335       -0.219705
LJ          -5.11163         4.71071       -0.315608
LJ          -2.08799        -5.92597         5.24135
LJ           4.39816        -4.93752         3.20915
LJ          -5.42737         6.07158       0.0789639
