108
#Comment!
LJ           5.76202         -1.5455        -1.14874
LJ         -0.394152        -3.35316          2.4589
LJ           4.85197         6.31621        0.497887
LJ           4.74714         3.07587         0.77137
LJ          -3.84675        -3.66335         1.42593
LJ          -1.54768         3.71069         5.62524
LJ           6.21344         3.67205        -4.83698
LJ           6.42879         3.03854         0.82482
LJ         -0.614519        -0.20101       -0.518394
LJ          -1.72847         4.85588         4.18287
LJ         -0.182505        -1.31692         3.27666
LJ          0.858783        -3.24492         3.97458
LJ           4.83185        -6.16781        -1.27184
LJ           -3.9914        -3.62768          5.7634
LJ          -5.40435        -5.06368        -2.17592
LJ         0.0733343         5.54156         5.58616
LJ          -4.67235        -3.56706        -2.97094
LJ           2.22147         3.91944         5.56691
LJ          0.275154        -0.61893       -0.783083
LJ          -2.11805         4.79639       -0.949142
LJ          -3.41055         4.81104         4.11788
LJ          -4.69974         4.22048         1.23583
LJ          -3.59762        0.342925        -1.76678
LJ           5.48969         2.52237        -4.99828
LJ           5.67775         4.14366         4.77972
LJ           -3.0576         1.75195         5.47183
LJ           6.07583       -0.736716        -2.75239
LJ          -3.08017         2.35403        -6.27134
LJ          0.667837        -3.86124         2.84949
LJ          -2.71755       -0.590907        -1.11926
LJ         -0.935256         4.81441         5.76942
LJ            5.2132        -2.88827        -1.39454
LJ           -6.2397        -4.07006        -4.71325
LJ           4.38269        -1.28476         2.82845
LJ           5.33235        -3.18852         3.67009
LJ          -6.29819        -3.00264        0.931601
LJ          0.790171         -1.6326        -6.41757
LJ          -3.03405        -5.96432         4.43005
LJ          -4.95049         1.74096         2.03462
LJ           1.23572       -0.639443         3.66611
LJ          -3.47542         4.41972         1.23676
LJ            -1.669        0.222325        0.742537
LJ          -2.05401       -0.276858        -4.71415
LJ           5.16705         1.12652       -0.585849
LJ          -3.57296        -3.03365         4.98993
LJ           -3.5774         1.80836       -0.824894
LJ           5.51492         4.13402        -1.80148
LJ          -3.89962       -0.928955        -2.20661
LJ           4.81456        -5.71299        -3.92863
LJ           5.47444         5.81887         2.20283
LJ         -0.268477         2.02469        0.261272
LJ          -5.38533        -5.29682         3.75739
LJ          -1.35747         1.32594       -0.541303
LJ           6.42314        -1.19638         2.64167
LJ          -4.56321       -0.594563         4.00718
LJ           1.77041         3.21918        -3.63595
LJ           3.58169          4.9112         5.20484
LJ         -0.883231       -0.197775        -3.08209
LJ           -2.7231        -5.64331         6.39838
LJ           2.88066        -3.33401        -6.31648
LJ           4.68718         3.44236         2.27174
LJ           1.24652          4.0508       -0.585139
LJ          -3.48983         3.39186       -0.188793
LJ         -0.290131          2.9517         4.53179
LJ         -0.325355         2.11045        -1.07527
LJ          0.309463          2.1641         6.05887
LJ          -6.29215         2.52618         -6.2611
LJ           2.14047         6.14733        0.607054
LJ          0.814127        -5.10081         4.80363
LJ          -2.80254       0.0333036        -3.99938
LJ           2.74621         -3.6495         4.37382
LJ          -4.32406       -0.361643       -0.944226
LJ          -1.24054         -3.2852        -1.71493
LJ          -4.11057        -6.21154         3.98968
LJ          -3.16314          4.6622         5.84642
LJ           -1.4127      -0.0309582         5.36422
LJ          -4.46931        -4.54208        -2.71141
LJ           4.28782        -4.46302        -3.38434
LJ          -3.81406        -2.79582        -3.14766
LJ           2.44178        -4.24853        -4.84985
LJ          -1.78334       0.0914248         2.17566
LJ          -4.29699         4.38284        -5.62373
LJ          -5.06748       -0.122145        -1.62813
LJ           4.17764          5.1687         3.87444
LJ           1.22076         5.77709        -2.08893
LJ          -5.11525          4.1027         2.11103
LJ           5.86089        -5.16309        -3.85536
LJ          -4.35159        -3.28491         2.68977
LJ          -4.94433         4.72117         -3.7861
LJ          -6.21351        -1.87393         6.20156
LJ           -0.3251        0.327025         2.01626
LJ           1.55997        -4.18475        -1.23591
LJ           1.94383         4.74623         6.46282
LJ          -1.97261         5.98788       -0.289714
LJ          -5.65908        -1.59266       -0.362974
LJ          -5.93026         6.43885       -0.810851
LJ          -2.82683        -1.89296        -1.33658
LJ            2.6021        -5.47222        -3.20459
LJ          -1.49129         6.03344         5.87525
LJ           5.54221         5.25806        0.953894
LJ          -5.92585         -1.6152         3.76787
LJ           2.14954         2.85665        -4.63674
LJ          -3.84071        -1.35754         4.56718
LJ          -5.79885        -2.82987         5.63948
LJ           -3.3403         1.45888         2.75485
LJ           1.47933        -5.16203        -3.06758
LJ          -4.62776         3.04179         3.52285
LJ           5.52354        -4.97388         6.43206
