108
#Comment!
LJ           2.34345         4.48983        -3.38668
LJ           5.00537         4.92564         6.39303
LJ          -2.41971        0.783966         5.61415
LJ           6.10031         5.24586         4.42681
LJ          -3.67655        -0.30842         2.84015
LJ          -1.70649        -5.27193         -4.7933
LJ          -4.94465       -0.804577        -2.98654
LJ           6.23185         3.77702         1.43262
LJ          -3.41998         3.85726        0.352268
LJ           6.00033        -4.05615         0.52165
LJ         -0.297822       -0.559488        -3.28605
LJ           3.97766        -5.20119         1.68162
LJ           5.96437        -6.36662        -4.78637
LJ          0.976989        -3.55569         3.10697
LJ           4.61606        -5.18488         5.08961
LJ          -4.99092          4.6008         6.17105
LJ           1.76123       0.0812021        -1.31071
LJ          -1.76513        -4.24957        0.434856
LJ            5.6041         4.73101         5.63859
LJ          -3.05134        -2.51102         1.74701
LJ         -0.465211        -1.99036         6.29329
LJ          -4.83404         6.34748        -5.52178
LJ          -1.20569        -3.36053        -1.68365
LJ          -6.33457        -6.34904        0.361419
LJ          -5.63304        -1.29942       -0.800937
LJ           3.58226         -5.7101        -2.54528
LJ           2.18932         5.91936         5.71251
LJ           4.94588         0.58181         1.89029
LJ           1.57533        -5.96704         3.91261
LJ           2.81385         2.73877         5.76856
LJ          -2.73524         2.50956        -3.99578
LJ         -0.638724         2.84091         2.48894
LJ           0.15417         4.22067         5.49055
LJ           6.04341        -2.62773        0.274144
LJ           3.51784         3.18339        -4.94218
LJ          -4.13998        -5.73075         3.11379
LJ          -5.34608         4.07492         4.66802
LJ          -3.36594       -0.189399        -4.53593
LJ          -1.19943        0.369482         6.15524
LJ          -4.38783         1.44207        -1.10414
LJ           2.82474         5.55841        -0.45842
LJ          0.388339         3.06621         4.80651
LJ          -4.99736         3.69033        -2.72861
LJ           3.65197         4.62772        -4.59526
LJ          -1.71444        -2.26452       0.0632533
LJ          -4.89001        0.583299         1.96362
LJ           5.77175          6.2882       -0.522381
LJ           -5.8505         1.84001        -1.35305
LJ           5.74372         6.01662         3.50033
LJ          0.777193         3.99688        -5.57544
LJ            2.3468        -2.06992        0.399089
LJ           4.42379        -3.49221         4.76959
LJ           2.88336         -1.7417        -2.66899
LJ           4.33383         1.83216        -1.48039
LJ          -3.05104       -0.326138        -2.07548
LJ           2.59081       -0.241367        -1.66328
LJ           4.70725        -3.18323        -4.66872
LJ           2.29058        -3.21439        -3.42083
LJ           3.47927        -1.22122        -4.97551
LJ           -4.5592          6.2878         4.11062
LJ          -4.07627         4.38508         3.24507
LJ          -6.45464         5.14092        -2.37855
LJ          -1.35473        -5.00615       -0.149637
LJ          -5.27155        -4.37897        -1.84747
LJ          0.110507         5.15068        -5.11682
LJ          -6.07129        -5.64113        -2.01293
LJ           4.04059        -2.22793        -1.40006
LJ          -3.35629         3.09381        -3.27785
LJ          -3.57562        -1.37913        -5.70524
LJ           4.58894         4.37871        -4.02671
LJ          -1.95896         1.68324         -3.5954
LJ           5.35377         4.22933         1.70833
LJ         -0.798091         4.95153        -4.38229
LJ          -5.05014         -3.7404         2.84317
LJ           3.20846        -3.50657        -2.09651
LJ          -3.88422         4.48894        -1.92572
LJ           1.81527         2.10639         2.19858
LJ          0.909596        -3.26792       -0.198839
LJ          -6.24661        0.450229       -0.910767
LJ            3.1355        -3.07718         5.51951
LJ          -3.72869         6.35586        -5.69065
LJ           1.60658        -2.33692         5.75019
LJ         -0.169304        -5.80607        0.286816
LJ            2.5806         3.63978         4.32604
LJ          -2.80708         -4.1916        -2.40961
LJ          -3.31773        0.911938        -6.30123
LJ         -0.561081         2.05481        -1.63331
LJ          -4.79411         6.00115        -1.29853
LJ             3.132       -0.180847         0.10979
LJ          -2.53668         3.58657         1.45697
LJ           2.88148          0.4526         1.59592
LJ         -0.665792        -5.63202         3.18165
LJ         -0.850277        -4.36724        -2.26738
LJ           -2.5805       -0.420018         5.76862
LJ           5.39446         3.17523         5.90351
LJ           1.29383          4.2817        -4.58347
LJ           2.84013        0.234864         6.09626
LJ           2.54489       -0.646964         1.56799
LJ           3.37729        -4.78361         2.64672
LJ          0.322573         -5.8902         5.93217
LJ           5.29921         1.40105        -2.89867
LJ          0.406255         4.96204         4.00745
LJ          -4.15606        -1.24383         1.28662
LJ          -2.47788         5.26137       -0.704616
LJ          -3.57642         4.90822           2.098
LJ          -1.38054        -5.69257         5.51546
LJ           4.20263        -3.60439         3.50223
LJ          -5.34024        -5.87122       -0.282025
