108
#Comment!
LJ          -2.99355         1.06273        -1.74583
LJ           1.18702         1.49839       -0.448769
LJ          -1.85646         4.18531         1.80597
LJ          0.991642        -1.87859        -5.15492
LJ          0.869388       -0.508944         4.37914
LJ          -6.05358      -0.0220857         4.13977
LJ           2.57002         4.18548        0.722151
LJ           4.21297            4.31         1.72415
LJ          0.344571        0.041952        -4.03892
LJ          -6.02217        -5.04874         6.43548
LJ          -4.90181          -4.703        -4.73107
LJ           1.22729         5.13781         1.05705
LJ        -0.0589621        -5.42851       -0.460321
LJ           5.45222        -2.46275         1.83825
LJ          -3.28231         5.91717        -2.14272
LJ           2.65044          1.7907        0.897643
LJ          0.242683        -3.35157        -1.90016
LJ           6.22779        -6.08781         -5.6245
LJ           5.63243         3.09314       -0.953534
LJ           -1.2415        -3.71106        0.186074
LJ            -1.862        -2.16072       -0.614402
LJ          0.145242         -1.2552        -3.71473
LJ          -5.60473       -0.211671        -3.64053
LJ           3.83853         2.10906          5.9294
LJ           5.64897         3.68246         5.18505
LJ           5.20375         3.56463         1.24062
LJ           2.61274       -0.235534         3.08858
LJ           -5.8093        -4.00368        -3.05078
LJ           2.59465         4.74145       -0.386048
LJ          -4.79922         3.59069        -3.13376
LJ           5.51994        -0.63523          2.5781
LJ          0.242103         1.26295         3.46747
LJ          -5.35151        -2.44386        -2.84745
LJ           5.11358         2.41741         1.54624
LJ           5.95392         3.74115         2.12459
LJ          -4.77996         1.50202        -6.27027
LJ           5.90785        -1.83394          4.2248
LJ          -3.02291        -2.83289        -3.62995
LJ          -4.62363         -4.1889        0.872205
LJ          -1.00369         5.69154         2.42965
LJ          -1.39658         4.28257        -2.15761
LJ           1.07079         5.05396       -0.239345
LJ           3.31332        -5.50305         1.14044
LJ          -4.61721         -6.1071        -1.09237
LJ           2.00005       -0.532405         6.04907
LJ           1.94893         4.14049        -3.48204
LJ          -1.77123         -3.5538         1.44142
LJ           4.54026          1.3522         6.30837
LJ          -3.97959         3.82478        -5.88352
LJ          -3.41256         5.64736       -0.710611
LJ          -4.96121         6.16013         1.66621
LJ          -3.64841         -3.9153         -3.8588
LJ          -2.39072        -3.11432        -5.25441
LJ          -5.02445         3.75343        -5.67996
LJ           6.22479         5.98856         -2.4635
LJ          -1.83927         1.17056         1.43467
LJ          -1.70389         2.16543         -0.2483
LJ          -1.47495       0.0552245        -2.25178
LJ           3.74056        -5.22703         1.99676
LJ           2.67564        -3.01773         3.94456
LJ          -3.91376          2.8004        0.453878
LJ           2.18773        -5.05189        -5.98508
LJ            1.3046        -6.19087        -4.32601
LJ           3.38459         3.76852          2.1613
LJ          0.392001         1.12764        -4.75266
LJ           2.48346        -2.00093          2.7303
LJ          0.261954         1.80283        0.964492
LJ          -4.92753         1.74691         4.61387
LJ          0.293263       -0.340878        -6.02463
LJ          -3.33428        -3.66186        -6.26501
LJ        0.00916655         4.81184         3.71184
LJ           6.36107          1.1099         -3.8727
LJ           5.53105        -5.17699        -6.41249
LJ          -3.27558        -2.99446        -4.84033
LJ          -4.25849         2.05192         5.33908
LJ           4.47454         4.49345         3.04012
LJ          -2.09896         6.42674         1.67891
LJ          -4.33637        -1.96067        -2.45538
LJ         -0.613976       -0.256836         5.78515
LJ         -0.474303        -2.95559        -1.02509
LJ        -0.0687781         2.56162         4.11045
LJ          -1.20776         5.94563         3.52886
LJ           3.19546         1.44152         6.22779
LJ          -4.52984        -6.20765         1.06917
LJ            4.9521         1.74576        -5.06498
LJ          -3.58195        0.892057          1.7884
LJ           1.83646         -3.9404        -4.15646
LJ           -3.6578        -4.95013        -1.26061
LJ          0.476129         3.66702        -3.09787
LJ           -1.1926        -2.81842        -4.13226
LJ            3.0311         4.82451        -1.34358
LJ          -4.27038         4.19955         5.64827
LJ          -3.04335         2.00422         2.32546
LJ         -0.376175         4.50829        -4.18249
LJ         -0.363208         3.77941         2.82593
LJ          -5.53002         5.40799       -0.334223
LJ           2.76503         2.48994       -0.103763
LJ          0.131912         5.45874         5.73218
LJ          -5.47236         2.54446        -3.04774
LJ           5.01547         4.45884        -2.48235
LJ           3.21886         4.79996        -5.41286
LJ          -1.74442        -3.94775        -2.00697
LJ           4.08968       -0.727682         2.75256
LJ          -6.39789         1.58115         1.14027
LJ          0.060847       -0.783271        -2.54329
LJ           3.19853         4.53575        -4.15983
LJ           1.91412         2.20476         5.77278
LJ          -5.24261        -3.73736         -2.0086
