108
#Comment!
LJ          -2.21248          1.3125        -1.04472
LJ           1.10635        0.106514        -0.20335
LJ         -0.195271          1.1895         1.52333
LJ           1.35274        -1.42194        -3.70755
LJ          0.471461        -1.23101         4.41121
LJ           5.69016        0.464323         4.55829
LJ           2.82932         3.24168         1.54099
LJ           4.43266         3.13434          1.3913
LJ          -0.90675      -0.0840122        -5.79926
LJ          -3.87065        -5.20962         3.61268
LJ          -2.96746        -3.44944         5.41812
LJ         0.0308263        -6.12489       -0.434413
LJ          -1.26358         4.52116       -0.418887
LJ           6.29389        -2.49908         2.78415
LJ          -3.32598          5.4197        -3.75786
LJ           1.23143       -0.480763         2.03215
LJ           1.46323        -3.65251        -2.64147
LJ          -6.43654         5.38594        -5.76214
LJ            2.2275         1.19311       -0.106236
LJ          -1.79815         -5.5636       -0.141516
LJ          -1.64399        -1.47214        -3.62798
LJ          -2.77092      -0.0342884        -4.50554
LJ           6.39654       -0.466492        -3.94956
LJ           3.63157         2.09843         6.08231
LJ          -5.32715         6.17944         5.41574
LJ           6.18766         2.60939         2.08629
LJ           0.42157        -1.51256         2.76256
LJ          -5.58531        -3.17681        -4.18719
LJ           -6.2746         4.39607        0.331319
LJ           -3.5601         1.77166        -1.87597
LJ           3.90777        0.451768         3.72092
LJ          -2.09378          1.6794         4.23361
LJ          -5.90981         -1.9117        -2.96158
LJ           5.08244         2.76867         2.64063
LJ           6.10692         4.35645         3.03803
LJ          -4.37282        0.790252        -5.65543
LJ           5.13477         1.99785         3.18054
LJ            -1.991        -2.17178        -6.05752
LJ          -4.75473         -5.1016        0.786957
LJ         -0.638317        -6.26454         1.56042
LJ          -1.21089         2.97002       -0.940778
LJ          -2.45183         4.31212        0.878249
LJ           1.16373         5.92031         1.66743
LJ          -2.60405        -6.05959       0.0181989
LJ           1.48187       -0.605667        -5.02808
LJ           2.03128         1.87784        -3.24775
LJ          -1.29173        -4.04109         3.31318
LJ           2.03975       -0.118908         5.47537
LJ          -5.99526         5.16452        -4.87151
LJ          -1.95745         -6.3586        -3.49961
LJ           5.18909         5.13193         3.66712
LJ          -3.93361        -4.12763        -4.89692
LJ          -2.12131        -4.50929        -5.63067
LJ          -6.23146         4.69975        -2.93867
LJ          -4.82286        -5.16522        -5.51603
LJ         -0.434618        0.546578         2.48149
LJ          -2.77595         4.41377         1.82489
LJ         -0.572176         1.63598        -3.11719
LJ             2.852         -3.9075         3.22729
LJ           2.13097        -4.03641         4.47146
LJ         -0.346933         2.07214       -0.127793
LJ           0.12195         -5.1337        -5.95962
LJ            5.6165        -3.70161        -4.33914
LJ           3.58898         4.46508         3.72095
LJ           -1.2249         2.53053        -2.39597
LJ           4.39834        -1.03819        0.720398
LJ        -0.0471245         5.42876        0.799298
LJ           -3.2345         2.66346         2.90398
LJ           2.75247       -0.585937         4.02251
LJ        -0.0312556        -3.33922        -6.20246
LJ          -2.74882         5.83861         3.26432
LJ          -5.57964        0.101449        -3.78547
LJ            4.3891         6.13225         4.62995
LJ          -4.31326         -3.2318        -4.17615
LJ          -3.37406         1.57498         6.34938
LJ           4.30561         4.69049         2.66502
LJ          -2.82679         4.94032         2.82211
LJ          -5.24402        -2.34461        -2.10329
LJ          -1.54342        0.903831         3.58913
LJ           2.02801        -2.92993        -1.32589
LJ         0.0993304         2.89531         1.82385
LJ         -0.362693         6.00521          2.3706
LJ          0.528663         2.82393        -4.51854
LJ          -4.24202        -3.10453         2.58454
LJ          -5.97451         0.43623        -2.75671
LJ          -4.14338         1.74805         2.60092
LJ            2.2922        -3.79793        -6.12665
LJ          -3.81571        -4.86874        0.306015
LJ          -3.77675        0.795165         -2.6635
LJ          0.577257        -2.32376        -4.35875
LJ           3.45649         2.71579       -0.648242
LJ          -2.61791         6.20367         5.68481
LJ          -1.80906        0.287899         2.75904
LJ         -0.990199          4.1784        -3.63209
LJ          -2.02771         2.20918         2.85384
LJ          -4.96866         5.33566        -1.19079
LJ           4.89276         5.23131       -0.246065
LJ          0.701402         5.89046        -6.17241
LJ          -4.23198          1.5763        -3.11976
LJ           6.24866         4.04308        -1.56345
LJ           1.56001         4.26077        -5.02555
LJ         -0.890969        -4.27201        -4.40456
LJ           1.61552        -3.07576         3.97965
LJ           6.01145         2.89084        0.934994
LJ          -1.73029        0.458598        -4.19229
LJ           2.72133         4.62007        -3.63034
LJ           3.79857         3.55672        -5.46139
LJ          -4.97277        -2.10608        -3.64909
