108
#Comment!
LJ         0.0866554        -1.88619         1.59236
LJ          -2.37305        -5.35656        -5.88169
LJ           5.63868           2.412        -3.91904
LJ          -5.49708        -4.25288       -0.523372
LJ            3.1592        -3.86958        -3.94612
LJ          -5.20667         1.84227        -0.73882
LJ           2.81758        0.510958      -0.0162947
LJ           2.52807         3.42712         2.27709
LJ          -4.23223        0.725674         2.98605
LJ           4.91819        -4.71413         4.35754
LJ          -2.21144          1.3066         5.46698
LJ            3.8625         3.56555       -0.387014
LJ          -4.77057        -4.30846        -5.94853
LJ        -0.0598149         -6.2108        -1.91902
LJ          -6.15231         3.29574        -3.48981
LJ            5.5907        -1.47631          3.7803
LJ          -5.87343         1.49455         1.92453
LJ           4.70948        -0.69843        0.967082
LJ          0.831885        -3.65695       -0.117721
LJ          -4.09425       -0.776043         2.73702
LJ         -0.152094        -4.26294        -6.18624
LJ           -5.8117        -6.22176         2.76313
LJ          -5.89638         3.14961        -5.21439
LJ           1.84344        -4.10081        -3.65192
LJ           2.18505          4.8246         4.06884
LJ          0.940548         2.38136      -0.0151338
LJ          -3.99404         1.37183        -4.52371
LJ          -4.27082         5.06439         -1.8414
LJ          0.492915        -4.65297         1.34601
LJ          -1.78339       0.0965398         1.28725
LJ          -6.17988        -0.32884         -5.4284
LJ          0.725834        0.797954         2.69243
LJ          -2.15558         3.28552         -4.7817
LJ           6.04721         1.28422        -6.21925
LJ           -4.5936        -2.94061        -5.71203
LJ         -0.339365         4.99201         2.18423
LJ         -0.135431        -3.30222        -3.23114
LJ          -4.14322         -2.0517         4.92279
LJ          -4.34945         -6.4289        -4.13225
LJ          -4.74717        -2.83458         5.89733
LJ          0.875983         3.80138         3.03354
LJ          -3.29572         1.13674        -2.24958
LJ           2.30853        -6.20894        -3.50686
LJ           1.20721        -4.21549         2.66276
LJ          -4.70685         1.91232        -1.62609
LJ           5.50501          -6.326         3.91064
LJ          -4.54384         2.51452        -4.29812
LJ           2.55535        -1.65144        -0.83346
LJ          -5.95544         2.82689        0.706309
LJ           0.84856         4.03143         6.04777
LJ           6.30366         1.58874          2.9072
LJ          -2.15082         -2.6185         2.28708
LJ          -5.20768         4.08926         3.20792
LJ          -3.00113       -0.356849        -4.54163
LJ           4.41242         1.68969       -0.895826
LJ           2.55151       -0.568586         4.64175
LJ           -6.0345        -5.91679        -6.03895
LJ          -1.54816         5.34775        -1.04904
LJ           3.99857        -4.42227        -1.98882
LJ            4.6394         -5.1058         0.70537
LJ            3.1402        -2.48389        -5.02138
LJ          -2.59384        -2.30601         4.38841
LJ           5.28397        -3.86286         1.39215
LJ           1.42196        -5.40733         1.45545
LJ          -4.48542         3.48491         3.69772
LJ           4.05044        -4.65787         5.24135
LJ          -5.22894        -1.04658        -5.35981
LJ          -3.88836        -6.37546         4.35527
LJ          -4.37626       -0.534769         4.81976
LJ           3.07409         3.28439      0.00626621
LJ            5.6463        -1.84841        -1.27594
LJ           -1.6783        -1.60959          2.4774
LJ        -0.0999152        -2.72105       -0.395416
LJ          -5.90135       -0.980382        -2.01234
LJ           6.32706        -5.77504        -2.78409
LJ           5.18817         3.98158        -1.77769
LJ           2.02531        -1.06839        -4.23103
LJ            1.1295        0.840017        -6.20067
LJ           2.59266        -6.06713        -5.81244
LJ           3.95903        0.964644        0.562702
LJ           4.45394        -6.21117         1.76475
LJ          -2.64817        -5.02689         5.63044
LJ          -1.54926        -2.44482        -3.18537
LJ            4.6255         5.59729          1.5707
LJ          0.532427         5.62077        -3.71026
LJ           4.72596        -4.17211        -4.84954
LJ          -2.06452        -4.39295        -2.46392
LJ           -1.2708        -4.56456        -1.08127
LJ          -1.09122        -5.09288        -2.13866
LJ           3.59697         2.71806         1.05868
LJ           3.60955        -2.10624        -3.34146
LJ          -5.09365        -1.55516        -1.40541
LJ           5.24641        -4.75622        -1.04478
LJ          -2.13449         5.02903        0.334859
LJ           -5.6712         -5.7065        -4.07546
LJ             2.221        -3.64813        0.372671
LJ          -4.91181        0.863984        -3.83787
LJ           1.50381        -3.48745         -2.7101
LJ           3.28755         6.42445         3.84813
LJ           1.32856          6.1933       -0.594331
LJ           5.55951        -4.04927         -3.9482
LJ           3.66061         4.07376         5.01048
LJ           2.84607        -1.32245         3.98121
LJ           1.68347         2.51444        -2.11498
LJ             1.428         4.23491      -0.0357501
LJ          -5.57146        -3.68707         1.20061
LJ          -6.11099        -3.35332        -4.60514
LJ           3.17829         2.96529        -1.37002
