108
#Comment!
LJ           3.54923          3.8604        -4.44873
LJ          -4.20105        -1.70168        -6.23228
LJ           5.03752         1.46316        -2.06398
LJ          -4.68093        -1.15589         5.81075
LJ         -0.501154        -5.74806         5.42157
LJ           3.64764         4.36615         3.47748
LJ          -3.86217        -5.87402       -0.351972
LJ           4.45336         3.84477         2.64162
LJ           1.20392         3.66122         4.09416
LJ            1.3357        -2.53551       -0.643081
LJ           -5.5184        -6.20166        -2.92332
LJ          -5.76597         4.58656        -3.34262
LJ          -5.79208       -0.260227        -6.13492
LJ           2.25319         2.35183         5.69058
LJ          -6.17842         2.53781        -2.96079
LJ         -0.826157         6.45963         3.86439
LJ           0.97055          6.0702         4.11454
LJ           4.31532         5.57782         4.50731
LJ           1.52093        -6.22207         1.27391
LJ           2.75211        -2.35568        -5.66527
LJ           2.14339        -5.86198         4.11352
LJ          -1.58454         6.43888        -2.88643
LJ           2.80774        -4.51659      -0.0565965
LJ           5.22738        0.367317       -0.897778
LJ           3.52455         5.90971         2.49264
LJ           -4.1846       -0.666344        -6.14519
LJ         -0.151015        -2.71744         -2.7223
LJ          -0.47289         2.12965         4.41452
LJ           -3.8386        -1.93668         2.54993
LJ           2.04391        0.437018         1.76446
LJ          0.930521         3.30431        -1.84379
LJ           1.25603         1.17941         2.04965
LJ           1.20576         3.45456         1.94766
LJ           4.73255         4.07551        -3.03744
LJ         -0.369926        -4.96032       -0.616676
LJ          -1.93619        -4.00037       -0.669359
LJ           6.23406         1.93613      -0.0347851
LJ          -5.43515         4.67175        -1.72105
LJ          -5.70748        -5.28843       -0.907938
LJ         -0.453862        -4.69551        -2.59585
LJ          -2.36603        -5.49389        -3.53514
LJ           2.09372         4.06011        -5.88957
LJ          -5.24367         3.48907         1.86273
LJ            3.8239         4.19455         5.66164
LJ          -4.44715         4.77925         3.10304
LJ           5.94768        -4.39619         2.25169
LJ           6.09539        -0.83581        -1.61929
LJ          -5.74992        -6.05252         -1.9838
LJ          -4.19787        -5.53465        -4.17594
LJ          -1.40125         1.57784       0.0701177
LJ         -0.702974        -1.33411         2.63021
LJ          -6.45031        -1.67163        -1.24269
LJ          0.635993        -5.01024         3.02693
LJ           2.63448         1.61264         1.58409
LJ          -3.99424        -1.28243       -0.338306
LJ          -1.57074         5.44404        -2.29953
LJ          -1.65862        -2.78167       -0.451465
LJ           3.61866         0.74294        -3.21549
LJ          -6.32049         5.36367       -0.108752
LJ          -6.14743         5.59205        -6.15845
LJ           6.07919        -6.27567         -2.6301
LJ          0.949125        0.889159         4.91729
LJ          -2.23259        -1.12055         5.23639
LJ          -3.76557        -3.68951        -2.01208
LJ          0.808326        -1.89418        -3.90046
LJ          -5.46545        -1.42345          -6.304
LJ          -4.09724        -5.17212        -2.29488
LJ            2.0164         1.81977         3.36269
LJ            4.8766        -5.65993         1.68847
LJ           4.37959        -4.85062         1.59919
LJ           6.34069        -5.01367        -3.64683
LJ          -1.34762        -5.81153        -4.42387
LJ           2.77008        -4.25071        -2.22055
LJ           5.25269        -2.62837         6.05341
LJ          -5.88286        -6.24653        0.819922
LJ           2.99094         -4.2018         6.07085
LJ          0.251257        -6.27681         1.90752
LJ           3.37203        -3.57252        -5.39974
LJ          -1.93896        -3.09706         2.51854
LJ          -2.13722         1.74618         1.56587
LJ            0.1517        -6.43665         5.25105
LJ           6.43535          3.9477        -2.73096
LJ         0.0324163         4.46247         -5.8162
LJ           3.65734         4.74511        -3.32871
LJ           1.99319         3.28859        -5.02305
LJ          -5.36939         2.28064        0.188948
LJ          -5.57706         -4.7174         5.33063
LJ          -5.17427         1.92168         5.90448
LJ         -0.415087         5.17013         5.36725
LJ           4.57521          3.6285          4.5266
LJ          -2.34723         4.64382       -0.524299
LJ          -6.44562        -5.47356         2.86197
LJ           3.59647        -4.54868         1.15056
LJ          -3.91848        -3.38973         2.62124
LJ           -2.1326         2.11448         4.30878
LJ          -5.69155        -5.55669        -4.84787
LJ          -5.42602          5.9185         3.40393
LJ           -1.2669        -4.78805        -3.77081
LJ          -4.81927        -2.20557         5.71093
LJ          0.703819        -0.80767         5.21721
LJ           1.80268         -6.4354         -4.0566
LJ          0.440462        -1.99411         1.25525
LJ          -4.10051        0.856528        -4.37345
LJ           3.25613         2.40411         3.66212
LJ          0.502289        0.440846         1.68914
LJ           1.72045        0.253225         2.82877
LJ           1.03952         3.42801         5.95585
LJ          -3.50615        -2.57571       -0.315728
