108
#Comment!
LJ           3.47998         1.66219        -4.38795
LJ          -3.26613         -4.4887        -1.86158
LJ           4.06852        -1.12382        -5.96596
LJ          -1.73328         3.54289         5.62807
LJ           6.43924        -3.70504         1.86044
LJ           -4.1089         5.64243          5.0189
LJ           1.40586         3.05903        -1.64089
LJ           4.61945         4.68416        -5.52871
LJ         -0.454922        -4.44136         1.08555
LJ          -6.33952        -5.90899        -1.15595
LJ          -1.09341        0.914692       -0.466372
LJ           3.05769       -0.765258         2.94713
LJ           3.92162        -5.06028        -2.18856
LJ          -5.87447         -1.0056        -2.30469
LJ          -1.86478        -3.72283        -1.65609
LJ           6.23783        0.902258        -3.18232
LJ          -3.81648         4.10219       -0.879832
LJ          -2.36766        -4.05568       -0.119497
LJ          -2.14508        -2.75665         1.50972
LJ          0.377881        -5.43991         1.21633
LJ           2.44098        -1.56216        -6.06989
LJ           -3.1337        -1.47461         2.96867
LJ          -1.56275       0.0530858        -2.05099
LJ         -0.302166        -1.09165        0.780475
LJ          -5.15266         1.35844        -1.88808
LJ           3.87288        0.839272        -1.83449
LJ          -1.12511         2.24749         4.67743
LJ          -4.87493         4.55997        -1.16731
LJ          -1.86831        -1.75529         6.29531
LJ           2.68414        -5.06624        -6.00266
LJ           6.22141        0.795497        -5.62553
LJ          -4.86026         1.71057          2.9353
LJ         -0.866832         -1.7461         1.10134
LJ           5.36326         1.07207        -4.20615
LJ          -1.13042        -5.42139        -2.89484
LJ          -4.04855         3.22998       -0.789296
LJ          -4.95888         1.47853        -2.92202
LJ           5.55191         -1.9031        -4.58643
LJ          -1.59051        -4.76621         3.43991
LJ          -3.37686         2.24984          4.5544
LJ          -5.08924         0.73156         6.36234
LJ           4.46063       -0.563231        -2.74486
LJ           4.46631         6.31431        -2.78466
LJ           6.42991        -5.96106        -5.50666
LJ          0.847943        -2.32503        0.696839
LJ          0.723631         2.45397         5.60862
LJ          -3.03945        -5.93391        -2.13561
LJ         -0.880729        -6.00139         1.44351
LJ          -2.17163        -2.22444         5.49092
LJ           2.71925         5.41909         4.79511
LJ         -0.928774         3.28219        -1.25368
LJ           6.32565        -2.52796        -5.62077
LJ           1.52156        -2.01753        -5.40717
LJ          0.978869          4.0827        -5.23118
LJ           4.25895       0.0410633        -3.57969
LJ          -6.39928        -4.44859         -2.0235
LJ          -3.92196        -1.59647         5.15557
LJ            1.1319        -4.43592          -4.369
LJ          -2.44266         6.06963         4.89796
LJ          -5.33747       -0.985523          3.0101
LJ           -1.5494         3.33582      -0.0468159
LJ          -6.33923         4.57517        -5.32208
LJ           -3.5109         2.66724        -1.44742
LJ          -3.43784          4.8999         6.18191
LJ          -4.72349         4.87813         1.35867
LJ          -3.10889        -5.21816        -3.97526
LJ           1.09877        0.726921        0.497357
LJ         0.0457188       -0.307736        -4.61973
LJ          -3.12565       -0.850103         0.83099
LJ          0.839205       0.0469939       -0.175319
LJ           6.14655         4.82423        -4.22942
LJ           3.23064         -5.3879        -1.39412
LJ         -0.847531        0.879238         -3.4768
LJ           4.51018        -3.00547        -2.77573
LJ          -3.62298         1.67769        -3.73639
LJ           5.76603         4.98119         6.00372
LJ           5.32643        -4.55457        0.677325
LJ           5.34293        -3.64119        -4.26073
LJ           6.39117         4.24882         3.65377
LJ           2.81295        -5.00796         5.24399
LJ           -1.5252        -2.80581        -3.53968
LJ          -5.09255         2.20126         3.85884
LJ           6.38145        -6.15694       0.0068531
LJ          -1.85599        0.623862         4.37375
LJ          -1.34862         5.96007         4.01767
LJ          -1.76197        -1.73443          2.1325
LJ           1.46123        -4.16878         2.22316
LJ           5.03316        -5.12356        -1.86671
LJ           2.60032         2.19895       -0.155795
LJ          -5.99818         5.58912        -3.41006
LJ           3.31485        -2.11597         5.75604
LJ          -5.42258        0.260472        -2.36099
LJ          -3.80365         2.73167        -3.55538
LJ           4.89505        -3.14515       -0.485287
LJ           1.50232        -3.71629          6.3022
LJ          -6.02378         5.04559         5.42582
LJ            3.4309        -2.26958         -5.7649
LJ          -6.21738          1.8534         3.62916
LJ           3.36996        -6.00798        -5.70445
LJ           1.75962        -4.20449         4.32091
LJ          -2.44118         5.85586         1.90971
LJ          -2.55707        -1.36019         3.87939
LJ           5.10747        -3.92462          -3.279
LJ          -3.40335        -2.89105        0.967225
LJ          0.758104       -0.887967       -0.624502
LJ           3.99526        -4.55924        -6.08831
LJ          -6.43895         1.43611         2.65128
LJ          -5.37003        -6.37613       -0.907641
