108
#Comment!
LJ           2.83637         1.52685        -5.05359
LJ          -4.94081        -4.94628        -3.26579
LJ           2.49972       -0.652592         -6.0618
LJ           -2.6789         5.01131         5.50436
LJ          -4.81209        -4.84996         0.63596
LJ          -3.29138         2.91594         6.21981
LJ          0.173539         1.11866        -2.76654
LJ           5.24755         4.81178        -4.09617
LJ          -1.36437        -1.59143        -3.14822
LJ           6.19423        -6.15137        -1.18102
LJ         -0.926246         4.24725        -1.80614
LJ           3.24769        -1.46979         3.05157
LJ           3.07155        -5.76276        -2.92713
LJ          -4.27616       -0.743864        -4.38338
LJ         -0.196396        -4.49544        -0.29137
LJ           -6.4521        0.978961        -5.02332
LJ          -2.40676         4.87188        -2.54841
LJ           -2.0939        -4.00338       -0.126141
LJ          -4.10569        -2.61015         2.92533
LJ         -0.356129        -3.08209         1.91349
LJ           1.67482       -0.448039         5.96429
LJ          -3.81653        -3.22268         4.33598
LJ        -0.0322306       -0.629549        -2.07652
LJ          0.536956        0.101161         3.11961
LJ          -5.50979       -0.269186        -1.16833
LJ           3.29157        -1.33863        -2.18783
LJ          0.102995         2.02465        -6.36799
LJ          -3.86675         3.44331        -1.45362
LJ         -0.694464        -2.19635         5.08429
LJ           3.19172        -2.98593        -6.04886
LJ          -5.80159         2.27129        -4.21654
LJ          -3.41475         2.75632         2.45411
LJ          -1.11582        -4.09244         2.32373
LJ           3.20991         1.60888        -3.91964
LJ          0.762095        -2.90885         -3.5199
LJ           5.47945        0.813798        0.570049
LJ          -4.75768         1.36217        -4.09513
LJ          -5.45183        -1.26822         -3.9383
LJ          -1.86082         5.70744         5.45871
LJ          -3.74029         1.60896         3.35853
LJ          -2.90428       -0.954089         4.92005
LJ           3.34866        -1.51772        0.322307
LJ           5.17268        -3.46048        -2.49111
LJ           6.28006        -6.20337        -6.32898
LJ         -0.396535        -1.92872       -0.379558
LJ           3.03986         5.19796          4.5252
LJ          -3.73226        -5.89965        -1.72856
LJ           1.34029        -4.00847        0.478701
LJ          -3.37158        -5.00604         4.16799
LJ            1.6635         5.30473          5.5345
LJ          0.296753         3.40141        -2.96148
LJ          -3.34778        -1.39985         -3.8697
LJ           1.92356        -2.19028        -4.82886
LJ              3.05        -5.47243        -3.99334
LJ           1.61565        0.758136        -4.35101
LJ           5.74755        -3.42966        -1.56448
LJ           -5.8555        -1.66374         5.95634
LJ           2.14967        -5.37003        -4.81885
LJ         -0.470169        -5.26864         5.99124
LJ          -4.39158      -0.0733989         3.28231
LJ          -3.16729         3.06154         -2.1049
LJ          -5.27691         5.11183         -4.4742
LJ          -3.30588        -1.65619        -1.22282
LJ          -6.00592         5.22311        -5.67865
LJ          -3.01909         4.89977       0.0790767
LJ          -3.49577        -5.60802        -2.73451
LJ           1.96616       -0.116514          3.2458
LJ          -2.27723        -0.23923          -4.374
LJ          -3.24105       -0.961086         2.24505
LJ          -1.54825        0.716324       -0.846442
LJ           -6.1141         3.62187        -4.21707
LJ            2.9177        -2.13431       -0.951502
LJ          -2.03837         2.58183        -1.95826
LJ           3.82407        -2.51239        0.220735
LJ          -3.62378        0.800242        -6.20921
LJ          -6.33022         5.00362        -4.33371
LJ          -5.24234        -2.52954        0.956776
LJ           4.38517        -3.22249         5.94767
LJ          -4.40155         1.50982         6.28491
LJ           2.75529        -4.58837         5.26447
LJ          -1.89231        -5.91965         -3.2677
LJ           5.27781         1.23554         3.88728
LJ           4.11535        -6.37631        -1.33089
LJ           0.38056         2.51472        -4.53299
LJ          -2.95436        -5.77891         3.33856
LJ          0.353474        -2.41113         2.56412
LJ           1.36752        -5.65164        0.947662
LJ            6.3796        -4.62988        -1.27233
LJ           2.48068         1.56546         0.15495
LJ           4.89226         4.19454        -1.95085
LJ           1.24436       -0.257056         4.37513
LJ          -3.48899        -1.10476         -2.9352
LJ          -2.37968         4.06177        -4.78646
LJ          -6.42622        -1.97723        -2.28087
LJ          -1.51817        -5.28217        -6.05838
LJ           6.23597         4.85025        -6.30064
LJ           3.65012        -2.30275         5.94445
LJ           4.85781        0.396262         3.33982
LJ            2.5834        -5.71703        -5.93763
LJ           1.33755        -3.03456         2.69226
LJ         -0.303784         5.27802        0.549627
LJ          -1.43798       -0.371556         3.86979
LJ           5.43669         -2.4701        -2.20293
LJ          -2.78884        -4.84736       0.0243148
LJ         -0.573342        -2.45607        -3.61527
LJ           2.88095        -4.66431         6.38846
LJ           5.74303       -0.240434         3.15731
LJ          -5.70915        -6.32902       -0.718105
