108
#Comment!
LJ            4.7417         2.16131        -2.51028
LJ          -4.93772        -3.05013        -5.78241
LJ           6.36563          3.3344        -2.40397
LJ           4.76413          3.1947         4.74914
LJ         -0.256311        -1.89349         5.14484
LJ           3.98094        -2.69685        0.854173
LJ          -3.49351          5.7782         1.57486
LJ         -0.836457         4.25941         3.43158
LJ            3.5519         4.16777       -0.734381
LJ        -0.0289818        -2.07512         -6.0143
LJ          -4.03587        -1.85013        -5.10757
LJ          -6.18104         4.70016        -3.56063
LJ           2.93945         3.48691         4.70213
LJ           5.89768         4.67417         -5.7448
LJ          -1.63909          2.8896        -3.22794
LJ          -2.64027        -3.67382         2.89438
LJ           -2.0121        -6.05089          3.7549
LJ          -3.03152        0.836918           3.528
LJ          0.442345          5.1087         6.33433
LJ           4.27375        -1.94824        -1.25385
LJ           2.17348        -6.45058         3.92407
LJ          -1.82052         4.67517         1.39975
LJ           4.87073        -5.78846        -1.09203
LJ           3.69188         2.51341        0.211112
LJ           4.54358        -6.36513        0.825665
LJ          -1.54361       -0.629175        -4.17751
LJ          -2.06886        -4.46026        0.573927
LJ           1.08691         3.12339         3.63045
LJ           4.68509        -4.14617        0.849312
LJ          -2.62463         1.33302        -6.09072
LJ          0.311758         2.57581         2.09319
LJ         -0.244076         1.56838          3.9938
LJ           6.38443          4.7116         2.22738
LJ          -3.57221        -5.96124        -3.14856
LJ           2.73887         5.28928        -2.15634
LJ          -1.48297       -0.353203          1.0483
LJ          -4.82588        -1.61322         3.92286
LJ          -6.07762         0.81013         1.08335
LJ           -3.2603        -6.08396         1.54842
LJ          -1.91035        -2.76574         5.64645
LJ          -1.06899        -2.69182        -2.91942
LJ           5.91508         2.18925        -2.20947
LJ          -6.33661         3.61595         2.43112
LJ           3.38317        -6.26973         6.26729
LJ           6.15477         2.65827       -0.122801
LJ            5.7145        -4.23122          2.6374
LJ           3.74968       -0.969169       -0.703307
LJ           -3.7514        -4.52886       -0.746439
LJ           1.04142         2.12515        -6.09039
LJ          -4.25622         -0.6848        -4.02224
LJ           4.08301        0.533613       -0.646257
LJ           1.53335        -4.57059        0.759616
LJ           3.39645        -3.53601         5.53837
LJ         -0.126054        0.100216         2.97861
LJ         -0.794107       -0.283134       -0.981034
LJ         -0.255087         2.41848         1.07999
LJ          -6.23169         4.16093         1.04902
LJ         0.0427557         1.10007        -3.17648
LJ           6.36433         4.81264        0.366983
LJ           4.63407         5.95971         3.50223
LJ           3.47601         5.94157        -5.80912
LJ          -4.82811       -0.849272         4.63928
LJ          -3.65109         3.48623       -0.683406
LJ           4.55589        -3.29439        0.271395
LJ         -0.892397        0.756941        -2.90156
LJ          -3.36458        -4.25185        -2.23139
LJ          -1.71957         3.11935         2.92114
LJ           5.33342        -2.14957       -0.777521
LJ          -4.87992         4.03997         3.30232
LJ          -3.75487        -3.10646           6.379
LJ            2.2272        -4.08205        -6.46296
LJ          0.382102        -1.47057          6.1074
LJ           2.97056        -1.63735          3.9828
LJ           5.80234        -2.71313         1.18228
LJ           4.39132         4.14129        -2.59025
LJ          0.225247         4.93551        -4.39228
LJ          -0.97791         4.52246        0.540597
LJ         -0.135291        -1.64852        -4.71663
LJ           1.48344        -2.61577         4.07907
LJ          -5.34256         5.83761        -3.40001
LJ           3.34608       -0.197594         5.79378
LJ          -5.81593        -1.19735         6.01005
LJ         -0.339939        0.515228        -4.40353
LJ           1.55941         4.11224        0.178616
LJ          -5.18048       -0.338763        -4.50191
LJ            3.6698         2.45632        -1.14996
LJ          -2.32272       -0.475119           3.682
LJ            6.4256         5.77546        -6.24562
LJ           1.55413         4.66383        -1.69152
LJ        -0.0689791        -5.55399         3.34126
LJ            1.3985        -5.55578        -2.01735
LJ           6.24504        -5.03075         2.04754
LJ           5.14695        -5.44552        0.219011
LJ           5.22763        -5.87973          2.7951
LJ          -1.20317         2.16528         4.98966
LJ           -4.4207        -1.60625        -4.15045
LJ          -4.98337        -3.85584        0.789777
LJ         -0.105838        -2.53612         5.96205
LJ           5.32235        -4.52338         4.28285
LJ           1.07791         3.06939         4.57656
LJ           2.78479         2.19299         -2.2416
LJ           3.26158        -4.56684         3.17062
LJ          -1.84594       -0.485806        -1.49241
LJ           2.88468         3.46327        0.698465
LJ          0.519213        -3.00143         1.08543
LJ          -2.12324        -2.22574         4.48256
LJ          -2.42632         2.89976         6.09503
LJ          -1.29463        -5.97196        -1.97362
