108
#Comment!
LJ           1.76406         3.29784        -3.62726
LJ           5.57934         5.64931        -5.89375
LJ          -1.54418       -0.101784         5.80348
LJ           6.21674         6.29659         4.98456
LJ          -4.05886         1.55851         1.50971
LJ          -1.88968        -3.36382        -4.72546
LJ          -3.11533        -1.42919        -3.04987
LJ           6.27849         3.56455        0.351236
LJ           -3.1561         3.15421         1.83669
LJ           5.89015        -4.93872       -0.270976
LJ         -0.950279        -1.75567        -2.94227
LJ           3.36865        -4.10172         2.43576
LJ           4.60868         6.05941        -4.67375
LJ           0.91775        -2.93186         4.62957
LJ           4.59935        -5.94342         4.07259
LJ          -4.58526           3.686         6.26683
LJ           1.22146         1.49037        -2.34378
LJ           -2.3359        -4.19706        0.509525
LJ          -5.84567         5.73012          5.0106
LJ          -4.30648        -2.67026          1.4668
LJ        -0.0283088       -0.222625          6.3181
LJ          -4.93419        -6.03211         -6.2522
LJ         -0.503454        -2.29163         -2.1108
LJ          -4.49101         4.71924         1.05542
LJ          -5.13119         -1.7346       -0.105993
LJ           2.93717        -5.39138        -2.25101
LJ           1.89824         5.13064         6.44129
LJ           5.89679         1.77747        0.821389
LJ           1.99529         -4.3509         3.56175
LJ           3.37385         1.37417         6.07134
LJ          -3.02122         3.02415        -4.18536
LJ          -1.04781         3.07736         2.55703
LJ         -0.136658         5.25613         4.73501
LJ            4.4075         -1.8989        -0.48624
LJ           3.96592         2.57924        -5.26499
LJ          -1.97635        -4.24408         3.02422
LJ           -5.8464         3.44483         5.50873
LJ          -3.27802       -0.563992        -3.71256
LJ         -0.472134        0.736607         6.11197
LJ          -4.24783         1.38336        -0.22111
LJ           1.63193         -5.8769        0.870262
LJ           0.70328         2.21201         4.16522
LJ          -6.05722          1.9219        -2.83859
LJ           4.89176         4.76442        -5.77112
LJ          -2.04905        -1.48914        -1.42126
LJ          -5.85078        -1.20866         2.74161
LJ           6.23579         6.28339       -0.581168
LJ            5.7971        0.617295       -0.876545
LJ           6.09491         6.02141         3.74133
LJ          0.523675          4.2571        -6.13448
LJ            1.9573        -3.50542       -0.348045
LJ           2.63831        -2.50567         5.88847
LJ           2.37533        -2.35767        -3.25749
LJ           4.37197        0.449638        -2.10788
LJ          -2.17013       -0.313509        -2.33213
LJ           3.85369       -0.719513        -1.60448
LJ           4.41523        -2.48812        -5.24637
LJ           2.35039         -3.4645        -3.51694
LJ           3.27139        -2.35176        -5.27384
LJ          -4.39956         5.54906         5.26711
LJ          -3.83495         4.08469         5.24438
LJ          -6.12986         5.24091        -3.03491
LJ         -0.741045        -4.40846       -0.256145
LJ          -5.97717        -4.85774        -1.88374
LJ         -0.164749         4.96285        -3.52858
LJ          -4.66816        -5.57054        -1.98926
LJ           3.75562        -1.68155        -3.18794
LJ           -3.6448         2.51428        -2.98599
LJ          -3.61972        -1.51427         5.98029
LJ           6.23472         3.46666        -3.39943
LJ          -3.16096         1.81712         -3.9894
LJ           4.45625         3.33632         1.00651
LJ          -1.41556         4.85761        -3.20408
LJ          -5.36395        -3.15322         1.94976
LJ          0.741325        -3.53365       -0.639569
LJ          -4.33517          4.5218        -2.16894
LJ          0.241451         1.09611         1.90013
LJ           1.65208        -3.45206         1.00615
LJ          -5.46438        0.441787        -2.09467
LJ           2.23204        -3.04471         4.64138
LJ          -3.96152         5.53703         6.10211
LJ           2.14524        -1.94134         5.20553
LJ           0.34907        -5.60909        -1.44532
LJ           2.82144         4.02281         5.78013
LJ           -3.3283        -4.83621        -1.58403
LJ          -2.39512        0.925499         5.48278
LJ         -0.127898         3.54513        -1.73544
LJ            -4.847          6.2781       -0.348695
LJ           2.86063        0.178726        0.217431
LJ         -0.479533         3.23634        0.744991
LJ           2.81008        0.185207         2.55504
LJ          -1.08086        -4.41356         1.84064
LJ         -0.378781        -5.56102        -2.25784
LJ          -3.44279       -0.591112        -6.03345
LJ           5.54006         3.97254        -5.92873
LJ            2.7274         4.18631        -4.74939
LJ           2.87871       -0.642818         5.50795
LJ            2.9425       -0.941136         2.48933
LJ           2.96364        -5.08676         3.85861
LJ          0.889606        -5.23803          4.9024
LJ           4.06413         2.52652        -2.15034
LJ         0.0583538         3.09636         4.44646
LJ          -4.81296       -0.814958        0.884479
LJ          -2.32271         5.35078        -1.05891
LJ          -2.90108         6.15348         3.66594
LJ         -0.593082        -5.50535         5.75887
LJ           3.80622        -2.56221         3.57381
LJ          -5.58093        -5.34369       -0.640353
