108
#Comment!
LJ            -2.895         0.99059        -1.04856
LJ          0.951993        -1.43085      0.00640739
LJ           1.21899       -0.678913         1.42151
LJ           2.21178       -0.972893        -2.76555
LJ        -0.0598092         -2.0056         4.78834
LJ            4.2062        0.924452         4.49152
LJ           3.38226         2.79526         2.54341
LJ           4.91359        0.402384         1.27939
LJ           -2.0181       -0.248594         5.34779
LJ          -1.96046         -5.5632         1.32917
LJ          -1.29043        -2.45065         3.35293
LJ         -0.364005        -5.23709        -1.80282
LJ          -1.99551         2.47764       -0.623903
LJ           -5.9546        -2.51535         3.53044
LJ          -3.12132         5.21084        -4.94272
LJ          0.210944        -2.02487         3.00059
LJ           2.53817        -3.85543         -3.2388
LJ          -6.37803         4.22055         -6.2571
LJ         -0.415998        0.711703        0.276099
LJ          -1.23752        -4.96232       0.0244648
LJ          -2.32092        -2.13559        -5.26008
LJ           -3.6244         1.17964        -3.97536
LJ           6.41437       -0.260951        -3.64895
LJ           3.54904         1.94735         6.22415
LJ          -3.77621        -4.69039         5.72176
LJ           5.95591         2.06645         3.16058
LJ          -1.26682        -2.52424         2.05695
LJ          -3.48283        -2.08347          -5.359
LJ          -3.54967         6.25395      -0.0351676
LJ          -2.68209       -0.251784        -1.80073
LJ            3.1166         1.26406         4.84489
LJ          -3.79073         1.51925         5.13828
LJ           6.40571        -1.69382        -2.93502
LJ           5.74401         5.26189         1.21959
LJ           5.83531         4.91716         3.51177
LJ          -4.64168        0.455989        -6.14817
LJ           4.82589         2.68289         3.71726
LJ          -1.49575        -1.06569         4.58659
LJ          -5.03235        -5.96984         0.95227
LJ         -0.946482        -4.85541         2.17123
LJ          -1.25304         1.00558         2.51669
LJ          -4.66591         3.57256        0.412643
LJ          0.567914        -6.24882        0.449746
LJ          -3.05606         6.22731         1.37754
LJ          0.920235       -0.956073        -3.34731
LJ           1.69103        0.402731        -3.01925
LJ          -1.20661        -4.49518         4.90171
LJ          0.225893       -0.687142          5.1842
LJ           5.45141         6.02783        -3.30522
LJ          -1.14412        -5.95679        -5.75698
LJ           4.04382         4.53446         5.64719
LJ          -4.86103        -4.18121        -5.74438
LJ          -2.23788        -5.89217        -6.23061
LJ           6.04938         5.10746       -0.593197
LJ          -3.38218        -3.96001         4.67302
LJ         -0.101149       -0.507051         3.95996
LJ          -3.63491         4.94277         3.61595
LJ          0.250629         3.13609         -3.9595
LJ           1.73935        -2.97762          4.7789
LJ           2.10442        -5.34271         4.92249
LJ           2.74131         2.31294        0.395395
LJ         -0.868747         -4.6074        -5.67949
LJ          -5.73831        -2.37905        -4.21135
LJ            4.3713         3.57372         3.85513
LJ          -1.79698         1.63027        -1.87562
LJ           5.93457       -0.225106       -0.718766
LJ         -0.259833        -5.24665       -0.713964
LJ          -1.69492         4.00988         1.96038
LJ           4.65936       -0.862747         1.48934
LJ           2.43741        -3.17002        -5.68368
LJ          -4.70822        -4.98996         2.80818
LJ          -5.94767       -0.875801        -2.82226
LJ            3.5723         6.37625          3.1796
LJ           -4.4279        -3.59567        -4.40806
LJ           -3.0273        0.771454        -5.99305
LJ           2.78798         3.63596         2.89379
LJ          -3.39066          4.2466         4.58586
LJ          -6.13744         -2.6913        -2.61777
LJ          -1.95958         2.66491          2.8015
LJ           4.28656        -3.16696        -1.58751
LJ         -0.237977         2.77123       -0.299671
LJ          -2.32385         5.64065         2.49678
LJ          -1.48575         4.16558        -2.89225
LJ          -4.08768       -0.692716          3.5919
LJ            5.4927       -0.977908        -2.07318
LJ          -4.50368         2.07506         2.98541
LJ           2.47577         -3.7634         5.13255
LJ          -3.35812         -5.2909         1.50883
LJ          -2.93218        -1.74194        -1.52908
LJ           1.44846        -2.22556        -4.70037
LJ           3.89204         1.01292        0.147692
LJ          -1.34202        -5.07399         5.91683
LJ         -0.771706        -1.59286         1.64412
LJ          -1.31377         5.17569        -4.24969
LJ           -2.8906         1.02453         2.45896
LJ          -4.63922         5.22512        -1.78689
LJ          -6.04201        -5.80484       -0.423356
LJ           1.13826         6.27761        -5.33026
LJ          -3.23402         1.25227        -2.88936
LJ          -5.73645         4.23276        -1.13221
LJ          0.317709         3.84983        -4.65248
LJ          0.678558         -5.0688        -5.93304
LJ          -0.16236        -4.06741         4.24803
LJ           5.83075         2.36743         2.11628
LJ          -3.11639         2.85837        -5.73553
LJ           2.45086          4.8037        -3.48732
LJ           5.08843         4.54278        -4.02421
LJ          -4.93005       0.0563488        -4.10517
