108
#Comment!
LJ           3.22954         3.44365        -3.11414
LJ          -4.64534        -2.26292        -6.15023
LJ           3.88872         2.83477        -1.45356
LJ          -5.69545        0.367418         5.67043
LJ          -0.64046        -4.59411         5.36932
LJ           3.78496        -6.28835         3.01226
LJ          -4.47587         6.12792         0.23676
LJ           2.96636         4.17792         4.58946
LJ           1.89412         4.88025            2.87
LJ         0.0478965        -1.87774        -2.64347
LJ          -4.93538        -4.89284          -3.752
LJ          -5.57403         4.03485        -3.37163
LJ           5.99975        0.985023         6.19444
LJ           3.07477         4.17286         5.53355
LJ          -4.70332         3.07832        -3.12463
LJ          -1.59492        -5.45298          3.4686
LJ         0.0867395        -6.09652         3.89617
LJ            6.4409         3.94044         4.21959
LJ           1.05181         5.46989         3.20523
LJ           3.60618        -2.03386        -4.69585
LJ           2.27942         6.13876         3.27353
LJ          -1.61832         5.64431         -6.0418
LJ           3.57938         -4.9711       -0.319781
LJ           4.70876         0.97693       -0.434828
LJ           4.37741         6.21193         1.59643
LJ          -3.40927       -0.583091        -5.58874
LJ           -1.2464        -2.92626        -2.13669
LJ         -0.697999         2.77043         3.79434
LJ          -5.41579        -2.74884         1.74848
LJ          0.426473        0.448598         3.28862
LJ           3.03308         3.13644        -1.00368
LJ          0.551291         1.66392         2.56706
LJ           2.59748         3.57466         1.12757
LJ           6.18126         5.16245        -2.93277
LJ          0.817218        -5.87282        -1.15545
LJ          -1.71295        -2.78325       0.0341835
LJ          -6.08258        0.603475         1.38837
LJ          -5.93617         3.08046       -0.673083
LJ          -4.44711        -5.53299       -0.367927
LJ          -1.22171         -4.3728        -4.02133
LJ          -2.11906        -4.75684          -3.558
LJ           2.97912          3.2704        -4.88403
LJ          -5.70291         3.10588         2.25633
LJ           4.04688          4.5767          5.7828
LJ          -5.20672         4.30597         1.83077
LJ           5.86554        -4.17797         2.09226
LJ           4.14181        -1.40396        -2.30848
LJ          -5.13224        -6.07397       -0.954869
LJ           -2.0209         5.96536        -5.04171
LJ          -2.59923        0.937531        -1.25778
LJ           1.48357       -0.439331         1.81545
LJ           4.85197        -2.99866       -0.734491
LJ           1.42976        -4.87937         4.04646
LJ           1.98297         1.48339         2.23575
LJ          -3.00248       -0.998528       -0.811779
LJ         -0.161915         4.38033        -1.43151
LJ          -3.19093       -0.214092        0.440671
LJ           2.39404        0.865278        -3.16199
LJ          -5.37559         5.94854       -0.331903
LJ           4.68599         5.36617         5.17865
LJ           5.48866        -5.44855        -4.07773
LJ          -1.22849        0.333651          4.8649
LJ          -2.68971        0.499228         3.16599
LJ           -5.3879        -3.77523        -1.33946
LJ         0.0682747       -0.227559        -4.62272
LJ          -6.30131        -3.70401        -4.64725
LJ          -3.03563         6.43441       -0.105078
LJ           3.24523        0.340276         2.08116
LJ           6.26849          5.6605         1.39133
LJ           5.94737        -4.35971         3.58216
LJ            5.9129        -4.47739        -4.42112
LJ         -0.505501        -4.17395        -5.76707
LJ           3.12416        -3.68331       0.0231328
LJ           5.39183        -2.53156         4.33469
LJ           5.82712         5.93838       -0.386006
LJ           2.68226        -6.41364        -6.22552
LJ         -0.230842          5.9361         1.35241
LJ           2.93247        -2.52447        -3.61805
LJ         -0.736624        -2.98071         3.04637
LJ          -3.86683         3.61258        0.765991
LJ           1.21582         4.09505         5.50236
LJ          -6.37946         2.62151        -5.39605
LJ         -0.112148         3.27154         -5.4188
LJ            2.7513         3.69456        -2.26385
LJ            4.2018         1.99071        -4.66758
LJ           5.93219         2.85467       -0.403148
LJ          -4.35597        -3.30781         4.67824
LJ          -6.32985         3.12984        -6.23151
LJ          0.374575         4.87405         -5.6033
LJ           3.79864         5.18561         4.57633
LJ          -1.02372         5.60068        -1.16452
LJ          -6.45919        -5.58603         2.43353
LJ           3.83859        -4.41078        0.837667
LJ          -4.94449        -4.40701         2.94408
LJ          -1.74324         2.18632         4.73353
LJ          -3.89366        -4.13678        -3.29692
LJ          -5.30489        -5.81165         2.48082
LJ         -0.442516        -3.53739         -4.6927
LJ          -5.95113        -2.85407         5.44726
LJ          0.864499        0.544848         5.36799
LJ           2.21034         4.97261        -3.07097
LJ           1.41801        -2.86226         1.94878
LJ          -3.11091        0.317209        -3.52458
LJ           2.72514         2.25371         2.51598
LJ          0.242884       -0.784059         1.11689
LJ          0.435549       -0.875687         3.62877
LJ          0.300545         2.16047        -5.85029
LJ          -3.08477        -3.67967        -1.33152
