108
#Comment!
LJ         -0.697651        -1.19035          1.3384
LJ          -2.81096        -4.43804         -5.6679
LJ           5.43322         2.49435        -3.62644
LJ          -2.77315        -5.33534        0.879937
LJ           2.55149        -6.38814        -1.62147
LJ           6.40048         2.71324        0.190988
LJ           1.52758         1.89971        0.952812
LJ           4.46377         1.94181         3.05341
LJ          -6.16428          1.2612         5.01705
LJ           2.47731        -2.80673         4.29444
LJ          -2.65806         1.25177         5.08159
LJ            5.6211         4.94892        -2.11976
LJ          -3.01126        -5.55929         5.80455
LJ          -1.36247         6.02002        -2.95605
LJ           4.28539         3.19478        -3.08749
LJ          -6.34029        -1.37983         3.18864
LJ          -5.47194         3.59949         2.74188
LJ           6.10948       -0.303881         1.05078
LJ          0.515098        -5.03129        -2.61316
LJ          -5.13684        -2.27123         3.05958
LJ          0.625828        -4.87733         6.29363
LJ          -5.35457         5.90514         4.84752
LJ          -5.96824         3.73092        -4.13691
LJ            2.5985        -5.72061        -3.35847
LJ           3.20107         5.40669         3.69267
LJ         -0.272485         1.74064        -1.02547
LJ          -3.52316         3.25141        -6.09886
LJ          -5.94939          3.3315       -0.258583
LJ           1.24361         -4.6629         1.31626
LJ          -2.55801        0.750371       -0.163582
LJ          -4.64278       -0.120196         6.34993
LJ          0.141502        0.412231         3.04392
LJ          -2.25319         3.48333         6.13455
LJ           4.13824        -0.22557        -5.46318
LJ          -5.89298        -0.77984        -4.76099
LJ         -0.798831         3.81853         2.00163
LJ          -1.36117        -4.27116          -4.319
LJ          -5.12643        -2.07754         4.51355
LJ           -4.5614         6.10845        -6.32433
LJ          -4.53255        -3.83224          6.3474
LJ          0.242757         2.25924        0.927497
LJ          -4.05228         1.30757        -1.53949
LJ           3.42807         5.70962        -4.97284
LJ           1.05627        -3.59317          4.2711
LJ          -6.35394         1.96706        -1.73979
LJ           4.72748         6.42919         3.84725
LJ          -5.34856         2.42463        -2.42718
LJ           0.87864        -1.99004        -0.77554
LJ           5.38263         5.72389       -0.446545
LJ           1.17841        0.433468         -5.7615
LJ          -5.34806         2.16462         4.89439
LJ          -1.80975        -3.42446         2.24463
LJ          -5.46781          5.8381         6.19164
LJ          -1.64737         1.03522          5.8067
LJ           3.45515         1.13499       -0.885545
LJ           1.62414        0.311334         4.09826
LJ          -6.10487        -5.77409         6.23855
LJ          -1.54558         4.09535        -1.73767
LJ           2.89855        -3.56451        -3.90416
LJ           4.23942        -4.87752         1.67241
LJ           2.40159        -4.79222        -4.83776
LJ          -4.51676        -1.09436         5.03036
LJ           5.92781        -4.40937         3.96702
LJ           2.32591        -4.98902        0.937483
LJ          -4.05769         2.14319         3.77912
LJ           2.29252        -4.76697         3.71203
LJ          -3.84655      -0.0913848        -5.78621
LJ          -4.74126        -5.01622         6.42313
LJ          -4.53162       0.0918656         4.69933
LJ           1.55715         1.42294       -0.978936
LJ          -5.04131        -2.18042        0.893952
LJ          -1.30297        -1.60663         3.45398
LJ          0.841212       -0.826514        -1.65729
LJ          -6.29859        -2.39747        -1.03946
LJ            5.1153         5.12552        -3.39271
LJ          -6.01159         4.26092        -2.08754
LJ           1.23988        0.312593        -3.28562
LJ           3.99303         1.06999         4.77739
LJ           2.65788        -4.07189        -5.90215
LJ            4.9035         2.55026          1.1773
LJ           4.50837        -5.32392         2.61279
LJ          -3.31185        -4.87075         4.91151
LJ          -1.03801        -1.93375         -3.3473
LJ          -6.38208         5.97777         2.38379
LJ           3.48613        -5.55483        -5.93098
LJ           5.10772        -2.19421        -4.11325
LJ          -2.74091        -4.19535        -3.17328
LJ          -3.57034        -4.56025        -2.42944
LJ         -0.219893        -5.29719        -3.80261
LJ           6.05795          1.1865         2.19575
LJ           3.62074        -2.65494        -3.04342
LJ          -5.12679        -3.14224       -0.539192
LJ          -4.81633        -4.64638        -2.10466
LJ         -0.490573         5.88044      -0.0962571
LJ          -4.63049         6.45413        -4.80952
LJ           3.75045        -3.96616         1.98216
LJ          -4.92677       -0.271072        -2.77653
LJ           1.40979        -3.34716       -0.843603
LJ           4.96253         6.36336         2.74487
LJ           1.24729         4.92207         1.72141
LJ           5.00059        -2.88668         -3.1387
LJ           3.40565          4.8501         4.58284
LJ           1.28464        -1.81517         2.82355
LJ             2.651         3.96832        -2.35464
LJ           1.30437         5.07951        0.336295
LJ          -6.05914        -2.85116     -0.00987215
LJ          -5.35547        -5.30491        -5.60324
LJ           2.71266         2.86906        -1.80435
