108
#Comment!
LJ          -5.70768         1.28096        -1.03578
LJ          -4.16863        -3.23457        -5.42937
LJ          -5.68731         2.70108        -3.00017
LJ           2.72722          5.4167         3.57944
LJ           1.01143         1.91238         2.80587
LJ           2.60423         0.28834         1.79989
LJ          -2.65851         4.82314         2.30292
LJ          -4.18228         2.85867         2.21857
LJ           5.07491          3.3247        -3.69546
LJ           1.31783        -2.44357         6.25257
LJ          -3.85028        0.109895         6.30439
LJ          -6.21687          5.9055        -3.84443
LJ         -0.046073         5.08487         3.86313
LJ          -4.40966         4.80286        -4.92233
LJ          0.835848         2.59111        -3.33106
LJ          -3.56525        -2.25816         2.80533
LJ          -3.80919        -5.83178          3.7477
LJ          -3.30965        0.716022         2.34443
LJ          0.385439         6.15897        -5.16526
LJ           5.53064        -2.18591         1.94507
LJ           1.79461        -5.88341         5.08838
LJ          -3.55084         5.07427        -2.07997
LJ           5.73854         5.73111        -2.36417
LJ           3.07507         3.67275       -0.434967
LJ           3.97227         5.61298         1.54134
LJ          -1.38574        0.159181        -2.67712
LJ          -1.75112        -5.88892         2.74528
LJ           5.27776         2.53672        0.940729
LJ           3.28653        -4.71264          1.1265
LJ          -4.73467         2.23127         -3.1745
LJ          -1.33414         1.37852         4.18153
LJ         -0.115242        0.617963         4.06722
LJ          -3.59522          4.5667         3.01258
LJ         -0.371232        -3.70501        -3.98901
LJ           4.18773         3.04317        -2.84852
LJ          -1.18646           1.438         1.46216
LJ          -3.99954        -3.83976         5.99649
LJ          -6.07691       -0.680537         2.62143
LJ          -2.97321         6.15817          3.2132
LJ           -2.2734        -2.33528         5.80564
LJ         -0.379426       -0.773574        -2.41003
LJ          -5.97536         2.20675       -0.435143
LJ           5.23905         4.28239          4.4423
LJ           1.24645        -4.30035        -6.42493
LJ           5.36239         2.09201        -1.44972
LJ           5.15737        -4.64613         3.39281
LJ           5.06522        0.509888      -0.0893575
LJ          -2.23063        -3.37318       -0.812717
LJ           2.47598        -1.44502        -3.64618
LJ          -1.19205       -0.568801        -4.68128
LJ           5.77263         1.27916        -3.15839
LJ          -1.03881         -5.0801         2.13991
LJ           4.82306        -3.44437         -5.3591
LJ           1.45897        0.536622         2.48507
LJ           1.02561        0.273111       -0.869815
LJ          -1.29759         1.48677           3.138
LJ          -6.18882         5.08949         3.10455
LJ          -1.34597         1.40107        -3.64306
LJ           3.94295        -5.78322        -2.00568
LJ           4.76927         6.46103         2.56739
LJ           2.11657         5.27087          6.0867
LJ           5.21366        -1.82277         5.04217
LJ          -4.56383         5.89182          -3.803
LJ           3.65812        -3.93047        0.430774
LJ          -2.17431         1.22046      -0.0925506
LJ          -1.02333        -4.53323       0.0118854
LJ            -2.377         1.87017         4.12216
LJ           6.44633         -4.1896        -2.97708
LJ          -4.56145         3.00451         4.81076
LJ          -2.00512        -1.63936        -3.81683
LJ         -0.607753        -3.52137         4.44221
LJ         -0.348638        -1.43239         5.22362
LJ           2.69971        0.562067        -5.61541
LJ           5.52927         -3.3472         -1.6502
LJ           3.29547         2.78553        -3.69332
LJ          -2.00753         4.56406        -3.40544
LJ         -0.258649         2.84854        -0.75532
LJ          -3.39596        -1.20002         6.08077
LJ           3.39144        -2.13381         5.09472
LJ            6.2378         5.65194         5.80562
LJ           4.57651        -2.68173         4.99475
LJ          -4.95368        -3.99482         4.79068
LJ         -0.165069       -0.920833        -3.50358
LJ         -0.742865         5.13623         2.38967
LJ          -5.69879        -1.72292        -6.41496
LJ             4.737        0.557312        -1.30695
LJ          -1.16755        -1.85684         5.71089
LJ          -5.05834        -5.64803        -5.77746
LJ           1.20305         5.37665         2.62514
LJ          -2.35845        -3.22133         2.40274
LJ           3.49284         -4.2151        -2.69482
LJ           6.34261        -4.94567         1.86101
LJ          -6.41684           -5.14       -0.709532
LJ           3.07627        -5.75703         1.13594
LJ          -1.87251         3.50704         5.44893
LJ           6.17907        -2.80873         -6.4315
LJ          -4.95088        -2.46201       -0.583569
LJ          0.537975        -2.77567         3.10944
LJ           5.54611        -5.83965         3.13038
LJ           1.63174         3.93848          5.0158
LJ           3.31168        0.158013        -2.67042
LJ           3.27087        -6.37762         3.77901
LJ            -1.222       -0.879056      -0.0344941
LJ           3.76135         4.08872        -1.40126
LJ          0.792618         -5.0061         1.07274
LJ          -4.59501        -2.78248         3.08257
LJ          -4.50802         4.65183         6.30724
LJ          0.360871         5.22824        -2.10191
