108
#Comment!
LJ            5.7742        -1.53739        -1.13582
LJ         -0.380067        -3.35485         2.44644
LJ           4.85826          6.3336        0.520984
LJ           4.74302         3.10046        0.761093
LJ          -3.83737        -3.67979          1.4413
LJ          -1.53867         3.70728         5.61621
LJ           6.20112         3.66375        -4.84966
LJ           6.44639         3.04765        0.855037
LJ         -0.632252       -0.218686       -0.537449
LJ          -1.76201         4.86127         4.20593
LJ         -0.185354        -1.32191         3.30979
LJ          0.855603        -3.24683         3.99638
LJ           4.85333        -6.14854        -1.27506
LJ          -3.98696        -3.61068         5.75343
LJ          -5.39941        -5.07509        -2.18795
LJ         0.0541113         5.55361         5.59281
LJ           -4.6822        -3.59341        -2.97728
LJ           2.23799          3.9141         5.55658
LJ           0.31015       -0.613608       -0.781066
LJ           -2.1101         4.80588       -0.944708
LJ          -3.43718         4.83308         4.14106
LJ          -4.71081         4.20423         1.24697
LJ          -3.58057        0.307685        -1.76422
LJ           5.48471         2.52074        -4.99885
LJ           5.64453         4.13092         4.80605
LJ          -3.06952         1.73917          5.4668
LJ           6.03495       -0.740627        -2.75522
LJ          -3.08845         2.35124        -6.29255
LJ          0.667729        -3.85764         2.83473
LJ           -2.7189       -0.601221         -1.1383
LJ         -0.916567         4.79227         5.78083
LJ           5.22837        -2.87257        -1.41967
LJ          -6.26174        -4.07065        -4.68879
LJ           4.38542        -1.29721         2.81569
LJ           5.34685        -3.16752         3.66572
LJ          -6.30175         -2.9829        0.958175
LJ          0.803299        -1.62153        -6.42583
LJ          -3.02616        -5.93169         4.42837
LJ           -4.9538         1.76052         2.02246
LJ           1.21361       -0.627817         3.66352
LJ          -3.47145         4.44757         1.20956
LJ          -1.63788        0.221721         0.74405
LJ          -2.05319       -0.292807        -4.69544
LJ           5.17931         1.14254        -0.56559
LJ          -3.56027        -3.04748         4.98239
LJ          -3.55913         1.81005        -0.84018
LJ           5.51558         4.15278        -1.83875
LJ           -3.9006       -0.919049        -2.22183
LJ           4.80577         -5.7189         -3.9074
LJ            5.4484         5.82445         2.21548
LJ         -0.269818         2.02721        0.251496
LJ          -5.40081        -5.29243         3.75473
LJ           -1.3526         1.34748       -0.513749
LJ           6.40573        -1.22158         2.65951
LJ          -4.56076       -0.599518         4.00642
LJ           1.77906         3.23079        -3.65388
LJ           3.60484         4.91558         5.19021
LJ         -0.870388       -0.184639        -3.06945
LJ          -2.72338        -5.62375         6.42207
LJ           2.88102        -3.35492        -6.33522
LJ            4.6451         3.43815         2.26752
LJ           1.25776          4.0765       -0.610929
LJ          -3.50101         3.38412       -0.192732
LJ         -0.270387         2.95746         4.52565
LJ         -0.332865         2.10359        -1.08735
LJ          0.288549         2.15795         6.07581
LJ           -6.2765         2.51898         -6.2714
LJ           2.13158         6.15805        0.582294
LJ          0.790666        -5.09321         4.83207
LJ          -2.80931       0.0140208        -4.01913
LJ           2.76345        -3.63768         4.35184
LJ          -4.32169       -0.381647       -0.944081
LJ          -1.24232        -3.29186        -1.71342
LJ          -4.10416        -6.19264         3.99104
LJ          -3.18218         4.69521         5.83005
LJ          -1.40648      -0.0304772         5.35826
LJ           -4.4716         -4.5428        -2.74049
LJ           4.28242        -4.45587        -3.39269
LJ          -3.80063        -2.80113        -3.11381
LJ           2.41577        -4.25692        -4.85718
LJ          -1.78424        0.105087         2.20551
LJ          -4.30765         4.38005        -5.63578
LJ          -5.07956       -0.140457        -1.62266
LJ           4.19917         5.15531         3.87578
LJ           1.21292         5.79915        -2.07287
LJ          -5.11335         4.08662         2.09768
LJ           5.84059        -5.16094        -3.83863
LJ          -4.35094        -3.28648           2.691
LJ          -4.96876         4.73846        -3.77378
LJ          -6.22993        -1.87798         6.20758
LJ         -0.320946        0.306378         1.99563
LJ           1.55553        -4.18722        -1.25214
LJ           1.95639         4.76298         6.45663
LJ          -1.96855         5.99565       -0.248081
LJ          -5.65674        -1.58946        -0.34879
LJ          -5.90556         6.43166       -0.810307
LJ          -2.84389        -1.91084        -1.34282
LJ           2.60096        -5.49416        -3.18167
LJ          -1.47825         6.01479         5.89009
LJ           5.56306         5.23747        0.958987
LJ          -5.90647        -1.63752         3.77784
LJ           2.13783         2.86963        -4.66641
LJ           -3.7963        -1.34999         4.55527
LJ          -5.80379        -2.80812         5.64172
LJ          -3.34417         1.42539         2.72929
LJ           1.47141        -5.18352        -3.07191
LJ          -4.62133         2.99284         3.50409
LJ           5.55669        -4.96173         6.45873
