108
#Comment!
LJ           5.41525        -4.94124         5.49975
LJ            2.1044       -0.917311         4.43643
LJ          0.350656         1.38207        0.023774
LJ          -2.82839         3.54189         3.06169
LJ          -6.22686         2.55372       -0.600828
LJ          -0.80877        -5.76521         4.63988
LJ          -4.11576         5.96038      -0.0716855
LJ            1.6472        -1.42417        -2.78482
LJ           4.43843       -0.680108        -2.83544
LJ           0.39288       -0.326607        -2.82339
LJ           2.04941         3.57137        -3.18549
LJ           5.51477          4.5488         1.11637
LJ          0.171794         5.70469        -4.67974
LJ          -1.02322       -0.533844        -4.68207
LJ           2.13795         5.96642        -3.83191
LJ          -4.21503         5.88982         1.26342
LJ          -1.86723         3.74046         2.92279
LJ          -1.85202         5.73988         5.22356
LJ           4.18384         5.90764        -6.45638
LJ          0.863937        -4.20781          2.3537
LJ          -3.41472        -2.38849         4.55925
LJ           2.06265        -6.38984         5.63726
LJ           1.51658        -3.22288         4.42958
LJ          -0.39669         2.39234         3.09155
LJ          -4.48191        -5.16041        -2.53308
LJ          -4.88039       -0.254051        -2.47733
LJ           2.10854         6.34515         2.34452
LJ           3.27598        -3.31416        -4.67663
LJ          -2.40107        -4.48056         2.34665
LJ           0.16838         3.00546        -0.69378
LJ           2.78996         3.20672        -4.82481
LJ          -4.15664         5.65325        -5.07328
LJ           4.49196        -4.52246         3.26146
LJ          -4.82163        -3.35875         -6.0939
LJ          -4.55595        0.363117         5.67898
LJ           4.71804         6.35923         4.50335
LJ          -6.07036         4.49253         1.42191
LJ           3.77188       0.0893121         6.30792
LJ          -4.91273        -5.92127       -0.592497
LJ           2.37306         1.73355        -2.04968
LJ           5.77822       -0.701839         2.82877
LJ            4.1611        -4.17527        -2.33678
LJ           3.44206         2.12958        -5.64255
LJ          -6.01154         3.69221       -0.466004
LJ          -6.10408      -0.0937203        -1.70696
LJ         -0.943294        -2.23383        0.187801
LJ           1.13958         1.48395         2.52419
LJ          -3.16381        0.129572        -4.81011
LJ          -2.69127        -3.82228        0.461136
LJ           6.16552         6.41161        -4.37877
LJ          0.902349        -1.62123         3.93917
LJ           3.32185         0.65219        -5.55657
LJ           3.86969        -3.25483        -5.56198
LJ        -0.0916597         5.95755        -1.28881
LJ          -3.10281        -4.33632        -3.46299
LJ          0.456327        -1.80809       -0.259645
LJ           1.79249         2.63529         1.92658
LJ           5.81962        -4.63214        -6.28312
LJ          -3.86819         4.94786         6.40868
LJ           -3.7812        -3.80569        -2.58132
LJ           5.88978         6.14414         2.68772
LJ           -5.1209         4.16607        -1.14963
LJ          -4.87775        -5.56596        -3.48938
LJ           5.07093         4.36234         6.32109
LJ           1.11533         3.45868         2.08342
LJ             0.964        -5.78116         2.19941
LJ           1.57271         5.05057         5.05232
LJ           1.62345         -2.8463        0.732755
LJ         -0.751121        -1.83291         1.06757
LJ            3.9317         4.94062       -0.349822
LJ          -4.75841         6.13014        -2.51067
LJ          -4.34109        -6.05236        -1.64647
LJ          0.368171        -2.23029        -5.84524
LJ           4.77928         1.38506         5.97112
LJ         -0.167644         3.50598        -3.61597
LJ          -5.50133         1.90315        -2.20246
LJ           6.23692       -0.135991         5.20297
LJ          -6.23906         5.14643        -1.64308
LJ           4.84484       -0.591861         3.65148
LJ            5.1617        -1.80178        -2.86683
LJ          -0.99309         4.70582        -3.47539
LJ           1.76548         5.25584         6.42589
LJ          -4.11013        0.768827        -1.15925
LJ           3.85363         1.51922         2.92866
LJ           2.91643        -2.99456        -3.33869
LJ         -0.544135         5.06485       -0.461927
LJ          -1.49234        -4.08385       -0.645923
LJ          -3.36102         -3.1823       -0.258701
LJ          -4.96231        -2.01402         4.07264
LJ           3.22303         5.83043        -2.53584
LJ           3.96711         6.37017         2.66231
LJ           2.33361        -4.19426         1.39367
LJ          -4.04106         4.29346        -1.99798
LJ            5.9014         2.74134         5.84834
LJ          -6.05172        -5.10051         6.05677
LJ          -5.03142        -1.56893       -0.844552
LJ           3.73455         4.09789        0.228843
LJ          -2.27618         3.51303        -5.57387
LJ          -3.31012         3.04587        -5.23128
LJ           0.71792       -0.248134        -1.46329
LJ           2.05952         -2.8359         5.34273
LJ          0.563784        -3.38155        -5.91194
LJ          -6.42845        0.806691        -6.33612
LJ         0.0166685        0.323297         2.97264
LJ          -4.79924        -3.09484        0.931025
LJ          -2.17454        -6.15123         3.98325
LJ          -2.68008       -0.552607         1.29076
LJ          -2.13453        -4.47537        -1.65092
