108
#Comment!
LJ          0.562976         5.86256         5.59155
LJ           1.85689        -2.86265         6.14778
LJ          -2.74472        -3.41352        -4.69855
LJ           2.06814        -4.55239        -4.95108
LJ           4.73983        -4.26113        -5.39932
LJ          -5.99795        -3.51345         5.67503
LJ           4.23813        -4.88014        -2.25304
LJ          -5.03024         5.91535         -3.0902
LJ          -4.98429         5.60985         4.74432
LJ           1.46107        -5.72948        -6.41729
LJ           6.33468        -5.23613        -6.22249
LJ          -2.19642         5.51714        -3.55947
LJ         -0.155376        -1.31639        -5.13445
LJ           1.86822       -0.206608        -5.88714
LJ          0.275993        0.838091         -2.6064
LJ           2.67662         -2.7686        -3.39931
LJ           3.06656       -0.399567         6.27019
LJ          -6.31958        -2.36453         6.32107
LJ           1.26186        -2.62125        -3.72991
LJ           1.27745         -6.1193         4.40948
LJ          -2.69754        -3.04365         6.10286
LJ           1.64959         3.30622         4.00654
LJ          -2.65345        0.214821        -5.97672
LJ          -2.60671        -2.05713        -2.85419
LJ        -0.0225728         6.32175         6.42916
LJ           2.69488         3.19286        -6.17272
LJ        -0.0520765        -6.37321        -4.36946
LJ           2.54667         1.60455        -5.79084
LJ           4.47751         1.47528         5.49112
LJ          -6.41796          2.7591        -3.30132
LJ           4.60337         4.00639        -3.68211
LJ          -6.18356         3.54325        -2.71015
LJ          -4.35601         2.21828         5.46372
LJ          -1.61766         2.90711         6.27982
LJ          -4.68217         5.35597        -6.35712
LJ          -1.08569         1.48066        -3.29039
LJ           1.03491         5.22965        -1.86665
LJ          0.109096        -4.78345        -3.28879
LJ          0.933997        -4.12256       -0.595193
LJ           1.60889        -6.15143         1.10573
LJ           4.21316        -6.11458        -1.67897
LJ           6.02574        -5.12554         -4.3813
LJ          -3.65779         5.55958       -0.168067
LJ           4.79989         5.61429         1.99569
LJ          -5.84565         6.32892        -4.42949
LJ           4.95444        -4.83928         5.45239
LJ          -4.46482         5.75139       -0.745502
LJ          -2.37294        -6.19804        0.555417
LJ           0.08379        -1.73724        -2.88925
LJ           3.53259         2.04768        -4.71439
LJ          -1.93658         3.31616        0.781403
LJ           1.40671        -1.55476       -0.405273
LJ          -1.46115        -2.07481       -0.168578
LJ          -5.66327         1.32741        -1.01446
LJ            4.0382        -0.69148       -0.752693
LJ           3.26633          1.6043        -1.04486
LJ           2.20248        -3.69338         4.30519
LJ           -2.9065        0.451567        -2.46789
LJ           4.71439         3.45885        0.951569
LJ          -0.63646        -4.69309        0.400042
LJ          -2.81313         3.67201        -1.71346
LJ          -6.10988         2.23675         1.58472
LJ          -2.68254         5.15506       -0.422251
LJ            2.4028         1.91525        -2.77433
LJ           4.06667         4.73157        -2.53567
LJ          -5.06868         5.33687        0.179232
LJ           4.62389         3.94726         2.10261
LJ          -6.32888         1.33164        0.519116
LJ           4.86673         4.64045        -5.54063
LJ           0.50327          1.1014        -1.40024
LJ          -6.27059         4.38426        -1.14617
LJ         0.0920483         3.46875        -1.64435
LJ          0.415241        -6.36984         1.89591
LJ           4.01534        -4.11649        0.089652
LJ        -0.0334226        -6.04407         4.30886
LJ           2.44308         5.80432         4.26772
LJ           2.92539         -5.5291         3.14835
LJ           6.25903        -4.80631          2.5912
LJ         -0.565544        -3.98123         1.63823
LJ           6.27589        -3.99911         3.98715
LJ          -3.94729         5.84213         3.11882
LJ          -2.52312         -5.1972         2.19468
LJ          -3.48491        -4.13976         4.58191
LJ           -2.5965         -6.2345        -6.08612
LJ          -3.54011        -6.28745        -1.84837
LJ          0.683118        0.067183         1.74966
LJ          0.343094         3.18446         5.06075
LJ           1.23477        -2.19791         3.81641
LJ           -3.5012         1.59897          2.6547
LJ           4.47947       -0.891305         4.11009
LJ           4.83658         1.74303         2.56044
LJ          -5.68539        -3.74396         3.88112
LJ          -3.71866        -2.37952          1.6384
LJ          -2.42221        0.845792         2.41574
LJ          -4.42615        0.762094         4.79616
LJ            3.6199        0.893887         5.69583
LJ          -2.52334         1.80615         6.03658
LJ           1.81585          5.4171         2.10357
LJ          -2.35585          5.0198         5.25974
LJ           2.67173       -0.753866         4.05072
LJ          0.912431        -0.61288         4.57783
LJ          -3.28146         3.38394        0.172593
LJ           4.51594         3.09055         4.77534
LJ          -6.38514        0.854649         4.77083
LJ          -4.69608      -0.0428603         2.44913
LJ          0.442773         3.62989         2.26348
LJ          -4.68626         4.47953         5.55879
LJ          -2.48785        0.588908         4.19696
