108
#Comment!
LJ           3.63412         1.63569        -4.23922
LJ          -2.84346         -4.4943        -1.60251
LJ           4.22455        -1.40953        -5.98308
LJ          -1.57174         3.23904         5.63715
LJ           6.03603        -3.45995         2.03514
LJ          -4.22232         6.16413          4.9089
LJ           1.62404         3.44385        -1.41188
LJ           4.58025         4.66989        -5.82902
LJ         -0.119155        -5.03705         1.87874
LJ          -6.31677        -5.78719        -1.19782
LJ          -1.11529        0.351396       -0.115591
LJ           3.01688       -0.627229         2.92899
LJ           3.96663         -4.8938        -2.11731
LJ           -6.1845         -1.1423         -1.9081
LJ          -2.11678        -3.62837         -1.5092
LJ           6.36232        0.906816        -2.78415
LJ          -3.96234         4.85956        -0.61506
LJ          -2.61637        -4.08698      -0.0629891
LJ          -1.87409        -3.22176        0.920754
LJ          0.271938        -5.88281         1.02461
LJ           2.39724        -1.43434        -6.07442
LJ          -2.93968        -1.13079         2.69074
LJ          -1.88954        0.292894        -2.02562
LJ        0.00189387       -0.897414        0.381318
LJ          -5.10937         1.52011        -1.80621
LJ           4.00627         1.20924        -1.80233
LJ          -1.39855         2.25027         4.35116
LJ          -4.94526         4.74023         -1.1036
LJ            -1.968        -1.46478        -6.05996
LJ           2.77421        -5.44667        -5.84371
LJ           6.36161        0.449499        -6.13494
LJ          -5.21638         1.46258         3.05635
LJ          -1.33856        -1.97224          1.1775
LJ           5.35008        0.998363        -4.01423
LJ          -1.56204        -5.87415        -2.75118
LJ          -4.33483         3.40586       -0.203169
LJ          -5.08343         1.74882        -3.09153
LJ             5.216        -2.10005        -4.76417
LJ          -1.55169        -4.37685         3.06395
LJ          -3.33203         2.38516         4.74419
LJ          -5.53682         1.04431        -6.28165
LJ           4.85346       -0.814969        -2.60527
LJ           4.24324         5.80387        -2.82584
LJ           6.45621        -5.94346        -5.34486
LJ           1.03357         -2.3656        0.909955
LJ          0.254229         1.95351         5.83185
LJ          -2.92581         -5.8375         -2.2447
LJ          -1.22836        -6.26841         1.66283
LJ          -2.09063        -1.86427         5.37777
LJ           2.93572         5.41423           4.642
LJ          -1.18003         3.22558       -0.865925
LJ           5.59394        -2.67972        -5.87062
LJ           1.35063        -2.05762        -5.40998
LJ          0.571425         3.44512        -5.48164
LJ           4.57433         0.44417        -4.17671
LJ          -6.07468        -4.86015        -2.15448
LJ          -3.50891        -1.57218         4.98423
LJ          0.931312        -4.24595        -4.24952
LJ          -2.81898         5.75773         4.55641
LJ          -5.62908       -0.945212         3.02734
LJ          -1.18023         3.38734         0.24378
LJ           6.26675         4.49294        -5.48546
LJ          -2.77572         2.94307        -1.53221
LJ          -2.97394         4.84687         5.87088
LJ          -5.05262         4.87215         1.59677
LJ          -3.04656        -5.12014        -4.15204
LJ           1.07674         1.40271        0.458083
LJ          0.490861       -0.314107        -4.65639
LJ          -3.10292       -0.873889        0.601106
LJ           1.27029       0.0803102       -0.625852
LJ           6.00809         4.98863        -4.47021
LJ           3.34402        -6.02524        -1.49645
LJ         -0.669557        0.464231        -3.82963
LJ           4.41471        -2.94945        -3.27245
LJ          -3.58224         1.76278        -4.12655
LJ           5.64393         4.95404         5.58977
LJ           4.94639        -4.96654        0.658961
LJ           5.60906        -3.55426          -4.055
LJ           5.98167         4.75881         3.14357
LJ           2.83828        -4.99314         4.91768
LJ          -1.47186        -2.18697        -4.00225
LJ          -4.61915         2.39955         3.85731
LJ          -6.04935        -6.10084        0.230626
LJ          -2.27003        0.314737         3.56806
LJ          -1.05874         5.81647         4.27753
LJ          -1.82874        -1.49453         1.97687
LJ            1.4833        -4.06579         2.14608
LJ           5.11342        -5.24578        -1.88775
LJ           2.61398         2.31723        -0.22117
LJ          -5.56952         5.94929        -3.58457
LJ           3.71379        -2.46498         6.14834
LJ          -5.76586        0.527061        -2.07193
LJ          -4.13516         2.53412        -3.24014
LJ           4.52567         -3.5015       -0.214808
LJ           2.11575        -3.43266         6.18218
LJ          -5.87904         5.08168         5.21115
LJ           3.83714        -2.40817        -5.52944
LJ          -5.70686         2.12543         3.67621
LJ           3.59056        -6.03188        -5.51562
LJ           1.91356        -4.31941         4.98821
LJ          -2.84918         5.97665          2.1768
LJ          -2.97261        -1.41899         4.14309
LJ           4.93269        -4.37465        -3.11946
LJ          -3.40529        -2.49933         1.15496
LJ           1.01203        -1.16266       -0.326498
LJ           3.93179        -4.63261        -6.00971
LJ          -6.30659         1.82483         2.59483
LJ            -5.346        -6.38817       -0.923362
