108
#Comment!
LJ           2.83714        -4.54468         2.25007
LJ         -0.334098         3.74011        -5.56905
LJ          -4.46564         4.32984        -5.36754
LJ          -1.50044         1.23782          5.7877
LJ          -3.10028        -5.86212        -2.49944
LJ           -1.6719         1.78513        -4.17241
LJ           2.75142       -0.810334        -3.44972
LJ          -4.48658         5.17314        0.273154
LJ           5.12135         4.25756       -0.970016
LJ           3.57797       0.0891136          6.1834
LJ         -0.355123         1.45709        -5.41539
LJ           4.87182         5.58125        0.339333
LJ          -1.12904        -5.96746        -4.21986
LJ           1.25782         6.02796        -2.72529
LJ           1.54679     -0.00213372        -6.12235
LJ           5.89983        -3.86069         5.87616
LJ           3.48274        -2.47907        -6.26775
LJ         -0.773475        -3.18628         0.18855
LJ           4.55306       -0.990907         2.18487
LJ          -1.37615        -1.07679         2.37849
LJ          -1.88447         2.77585        -6.27243
LJ          -4.80531        -5.24796        -2.79045
LJ          -6.19024         4.58744         1.84486
LJ           3.77538         -2.8886         2.98316
LJ            5.3958          1.1548        -3.37726
LJ           5.31844         6.23497       -0.937672
LJ           4.08101        -3.80623         3.62221
LJ          0.571394        -4.96234         6.41089
LJ          -6.20908        -5.14645         4.01227
LJ            2.5649         3.91628         5.58198
LJ           1.30983        0.906979        -2.00856
LJ           1.17458         2.01415         2.10374
LJ          -1.04004           4.888        -4.29368
LJ          -2.76854        -5.26656          4.0718
LJ         -0.607122         4.80039      -0.0106229
LJ           1.31087        -6.40583        -3.90069
LJ          -2.75956         3.76003         1.23757
LJ          -2.99443       -0.844896        -6.03146
LJ          -4.50605        -2.17355         4.08244
LJ          -4.48192      -0.0675959        -4.56457
LJ          -4.85397        -1.28296         -5.1595
LJ           -1.3073         2.19759         2.17664
LJ         -0.406851        -2.93372        -3.00872
LJ           -4.2991        -5.80352         5.92413
LJ          0.142714         -5.8133         6.38811
LJ          -4.54226         5.65031         1.38022
LJ           1.09427        -4.15189        -5.73017
LJ          -3.66427         5.87228        -1.15251
LJ           3.00135        -6.14745         5.62501
LJ          0.789228         3.60515       -0.263235
LJ           3.20616        -1.63045         1.90912
LJ          -4.63454        -4.97033         1.43207
LJ           4.28515        0.587955          3.0154
LJ           5.26727        -5.23973        0.183683
LJ          -5.94991        0.216639         -1.0094
LJ           3.31878       -0.157103        -4.46257
LJ           5.65194        -6.10123        -4.77562
LJ           1.77603        -3.06596        -2.26504
LJ           3.93533         3.52332        -3.56262
LJ          -5.66457         4.47363         5.37106
LJ           -6.2643         3.14091        -2.15506
LJ            3.1663         5.79511        0.820661
LJ         -0.769216        -5.86913        -2.68753
LJ          -2.68289        -5.17535        -1.90521
LJ         -0.902731         4.41895         4.87619
LJ          0.220763        -4.56478        -3.06381
LJ           4.72069        -4.24083         5.07968
LJ          -1.55813         2.74488         4.57344
LJ          -2.61668        -1.61213        0.418111
LJ           1.32374         5.85256        -6.11065
LJ           1.13822         1.42428        -3.13878
LJ           -4.3941        -4.51053          2.7025
LJ           3.03137         3.06314         3.72883
LJ          -5.82562         5.70418         -5.9588
LJ          -3.36582        -1.59488        -3.98957
LJ          -2.10349          4.3539        -3.30613
LJ           -4.3554        -6.41094         3.52882
LJ         -0.831805       -0.976137        -2.90356
LJ            3.5746         1.21594         4.51903
LJ          -2.70832        -2.25875         -2.8249
LJ          -5.69416        -5.40817        -1.71242
LJ          0.141449        -4.45981        -4.78928
LJ          -2.61194        -5.29489       0.0267697
LJ             1.652         1.47409        -1.21122
LJ           1.99648       -0.827071         5.48515
LJ          -5.27045         3.74156         6.18277
LJ          -2.36146        -3.42477        -1.55925
LJ          -3.29924        -4.74416          4.9569
LJ            2.2754         2.44144        0.468764
LJ           5.19968         1.06612         2.61556
LJ           4.62542       0.0286734        -3.14893
LJ          -1.51156         3.50187        -2.43369
LJ          -0.88746         -2.9075         5.85996
LJ           3.89134         2.39999         4.80278
LJ           5.40969       -0.613877         1.11995
LJ          -3.89062        -5.11826        -6.00481
LJ           2.39066         4.02911        -4.18193
LJ          0.356532         1.62969        -2.43928
LJ          -5.29046        -6.19888        -3.30132
LJ         -0.566728         3.38126        -2.56005
LJ          -6.28412         2.96584         6.19016
LJ           3.42463         4.54338         6.25371
LJ           0.33284        -2.63542         1.15775
LJ        -0.0330081        -4.47348         0.42946
LJ           5.27284         4.54961        -6.15396
LJ          -3.53879         6.22098         4.71246
LJ           5.61083         4.09198         1.51826
LJ           5.82831         4.65707        0.123336
