108
#Comment!
LJ           6.09556         1.58009        -1.86996
LJ          -4.51692        -3.23579        -5.58348
LJ           -5.9575         3.00499        -2.82585
LJ           3.65618         4.40059         4.11034
LJ          0.536284        0.275838         4.00236
LJ           3.41267       -0.845272        0.963773
LJ          -3.12075         5.42803         2.12549
LJ          -2.67661         3.59808         2.73117
LJ             4.585         3.70591        -2.23441
LJ          0.768844        -2.35989        -6.26093
LJ          -3.87217       -0.715018        -5.99869
LJ           -6.2444         5.31809        -3.63986
LJ           1.33384         4.48524         4.10441
LJ          -5.55092         4.58748        -5.32097
LJ         -0.275435         2.75568        -3.27824
LJ          -3.07001        -2.89776         2.69762
LJ          -2.92376        -6.02312         3.60579
LJ          -2.60853         0.80077         2.87708
LJ          0.405221         5.68781        -5.80863
LJ            4.8654        -1.97945        0.634752
LJ           1.94802        -6.14137         4.55546
LJ          -2.71611         4.88037       -0.554541
LJ           5.36949         6.37934        -1.89352
LJ           3.31353         3.07899     0.000556454
LJ           4.22449         5.90883         1.12066
LJ          -1.44463       -0.251008        -3.40026
LJ          -2.02497        -5.37715         2.11979
LJ           3.39051         2.78777         2.17845
LJ           3.88791        -4.53163         1.06338
LJ          -3.87088         1.87321         -4.4675
LJ         -0.693593         2.22499         3.84679
LJ         -0.302676         1.15902         4.21928
LJ          -4.73652          4.7585         2.65393
LJ          -1.81536        -4.72866        -3.61946
LJ           3.36416         4.22957        -2.52392
LJ          -1.34395        0.797426         1.42936
LJ          -4.21559        -2.84321          4.9309
LJ          -6.07518     -0.00670104         1.92905
LJ          -2.72504        -6.10278         2.35866
LJ          -2.13161        -2.34996         5.69546
LJ         -0.658986        -1.71898        -2.63517
LJ           -6.1435         2.34722        -1.03668
LJ           5.85209         4.00005         3.38681
LJ            2.2147        -5.16195         6.40379
LJ           5.48187         1.95634        -1.09207
LJ           5.41746        -4.15344         3.04739
LJ           4.32113       -0.374994       -0.152949
LJ           -3.0056        -3.83698       -0.771121
LJ           1.83499        0.165363        -4.75129
LJ          -2.42273       -0.089494        -4.13726
LJ           5.00488         1.03415        -1.79562
LJ         0.0270372        -4.94641         1.58266
LJ           4.15777        -2.97485          6.2885
LJ         0.0949125       0.0466409         2.82937
LJ          0.271526       0.0310395       -0.903912
LJ          -1.42223         1.53213         2.13463
LJ          -6.34106         4.55169         2.27255
LJ         -0.922707         1.02565        -3.69302
LJ            5.0045         6.05626       -0.877624
LJ           4.74212         6.15257         2.96268
LJ            2.5634         5.19879         6.30611
LJ          -6.42421        -1.30256         4.80464
LJ          -4.14425         4.81043        -2.39361
LJ           3.98152        -3.55196        0.265616
LJ          -1.63122         1.04712        -1.34157
LJ          -1.98428        -4.46207        -1.01385
LJ          -2.13271          2.2871         3.40967
LJ           5.97705        -3.28331        -2.05595
LJ          -4.51845         3.64417         4.57837
LJ          -2.76943        -2.35362        -5.01088
LJ          0.669377        -3.84148         5.39274
LJ         0.0332088        -1.32078         5.64607
LJ            2.7844       -0.387298         5.77095
LJ           5.72218        -3.06387       -0.341608
LJ           3.76759         3.26209        -3.40419
LJ          -1.00555         4.73612        -3.85574
LJ         -0.645024          3.6091       -0.139954
LJ          -1.83996        -1.50454        -5.97838
LJ            2.4945          -2.358         4.60128
LJ          -6.14897         5.80351        -5.40405
LJ           4.12359        -2.11149         5.78801
LJ           -5.4086        -2.78143         5.42079
LJ          -0.28813       -0.420911        -3.90944
LJ          0.249361         4.67757         1.43447
LJ           -5.4207        -1.09514        -5.47226
LJ           4.27799         1.53537         -1.0971
LJ          -1.38797       -0.908473         4.37816
LJ          -5.64383        -6.18067        -6.09527
LJ           1.76498         4.81731        0.643227
LJ          -1.55243        -4.50897         2.57592
LJ           2.54597        -4.81726        -2.39188
LJ           6.17633        -5.15581         2.18701
LJ           5.93245        -5.26343        -0.28072
LJ           3.96794         -5.8491         1.95447
LJ          -1.12541         2.55714         4.64298
LJ          -5.81299        -2.24032        -5.35368
LJ          -4.96335        -3.08535        0.042116
LJ          0.228752        -2.69902         4.29728
LJ           5.14066        -5.27498         3.42202
LJ           1.51514         3.77059         5.21446
LJ           3.02849         1.06036        -2.51427
LJ           3.75585        -5.46149         3.63767
LJ          -1.55835       -0.747674       -0.678576
LJ           3.01127         4.14222       -0.523307
LJ          0.699323        -4.08818         1.05858
LJ          -3.62616        -2.56582         4.01518
LJ          -3.75024         3.68236          5.7785
LJ         -0.381238         6.01036        -2.03955
