108
#Comment!
LJ          -2.61856         1.07103        -1.69121
LJ           1.16892         1.26104        -0.42337
LJ          -1.59671         3.67542         1.72549
LJ           1.04535        -1.83378        -4.92528
LJ          0.807023       -0.646129         4.30588
LJ          -6.17437       0.0903036         4.26725
LJ             2.692         4.05671        0.640187
LJ           4.04895         4.52397           1.783
LJ          0.137147     -0.00330204        -4.12002
LJ          -6.03937          -5.162         6.02951
LJ          -4.60018         -4.5109        -5.21669
LJ           1.02905         5.40996        0.756492
LJ         -0.380626        -5.63962       -0.403316
LJ           5.59526        -2.47398         1.99258
LJ          -3.29084         5.82921        -2.42629
LJ           2.42144         1.40765          1.0984
LJ          0.471796        -3.39967        -2.00981
LJ           6.15086         -6.1328        -5.87047
LJ           5.07715         2.75044       -0.820315
LJ          -1.21458        -4.29295       0.0587174
LJ          -1.33119        -2.19355        -1.15619
LJ         -0.462227        -1.13803        -3.90048
LJ          -5.76061       -0.359839        -3.69805
LJ            3.8087         2.19909         5.95075
LJ           5.97499         4.09595         5.22052
LJ           5.38595         3.41875         1.31951
LJ           2.20541       -0.423354         3.09569
LJ          -5.82849         -3.9127        -3.29521
LJ           3.28228         4.55055      -0.0986675
LJ          -4.61043         3.27263         -2.8913
LJ            5.1948       -0.445602         2.70142
LJ         -0.157053         1.32107         3.55168
LJ          -5.44043        -2.25886        -2.85781
LJ           5.04378         2.39688         1.77674
LJ           5.74666         3.99964         2.39952
LJ          -4.67516         1.41298        -6.21933
LJ           5.78208        -1.22617         4.06121
LJ          -2.69589        -2.86716        -3.82155
LJ          -4.68391        -4.30795        0.844623
LJ          -0.91396         5.88331         2.26261
LJ          -1.29702         4.02799        -2.23042
LJ           0.48714         4.94924      -0.0186858
LJ           3.29779        -6.19766         1.31204
LJ          -4.31783        -6.15783       -0.893686
LJ           1.97387       -0.553821         6.38213
LJ           2.10723         3.90095         -3.5284
LJ          -1.69382        -3.63027         1.76331
LJ           4.15723         1.01686         6.14681
LJ          -4.24867         4.05221        -5.75388
LJ          -3.14055         5.78292        -1.18026
LJ          -5.46536         6.01223         1.95957
LJ          -3.47713        -3.91123        -3.92049
LJ          -2.33213        -3.29652        -5.23758
LJ          -5.28988         3.89767        -5.16464
LJ          -6.38909         6.28405        -2.96996
LJ          -1.56086          1.0411         1.56808
LJ          -1.87748         2.58495        0.115455
LJ          -1.52446         0.40483        -2.21916
LJ           3.59866        -4.99832         2.19862
LJ           2.56906        -3.17978          4.0378
LJ           -3.4204         2.57451        0.242118
LJ           1.83642        -5.07448         -6.0003
LJ           2.03021        -5.79231        -4.31587
LJ           3.37481         3.86076         2.44941
LJ          0.127884         1.54828        -4.35344
LJ           2.77554        -1.87511         2.32496
LJ          0.245967         2.39472        0.938295
LJ          -4.67986          1.8886         4.29282
LJ          0.666726       -0.353024         6.43677
LJ           -2.7724         -3.6204        -6.39476
LJ         -0.441345         4.89828         3.72928
LJ          -6.33496         1.00569        -3.87772
LJ           5.82292        -5.55017         6.35388
LJ           -3.5192        -3.07342        -4.68033
LJ          -4.13294         1.94043         5.59287
LJ           4.65509          4.5262          2.8105
LJ          -2.28579         6.16454          1.8129
LJ          -4.49564        -1.97725        -2.36609
LJ         -0.794363      -0.0893165         5.42639
LJ         -0.541176        -2.67106        -1.10823
LJ         0.0635184         2.65189         3.77636
LJ          -1.03906         6.04238         3.32707
LJ           2.71365         1.62583        -6.27714
LJ           -4.4731        -5.72395         1.37378
LJ           5.19942         1.57146        -4.67069
LJ           -3.7422         1.01071         1.88902
LJ           1.91636        -3.89371        -4.47701
LJ          -3.65043        -4.84882        -1.02474
LJ         -0.259978         3.35919        -3.06549
LJ         -0.860281        -2.73664        -4.15891
LJ           3.06633         4.48608        -1.26935
LJ          -3.98973         4.54135          5.6338
LJ          -2.81005         1.75564         2.46341
LJ         -0.522573         4.19183         -3.8127
LJ          -0.68834         3.51788         2.91024
LJ          -5.44706         5.38533       -0.474527
LJ           3.03556         2.95313      -0.0618523
LJ          0.225877         5.52889         5.90288
LJ          -5.24978         2.42103        -3.07394
LJ           5.22174         4.38977        -2.33384
LJ           2.93826          4.6705        -5.15529
LJ          -1.95053        -3.86234        -2.67213
LJ           3.72353        -1.12451         3.02516
LJ          -6.43637         1.85338        0.997907
LJ         -0.146038       -0.603968        -2.90637
LJ           2.98294          4.4591        -4.17524
LJ           2.23153         2.46262         5.99256
LJ          -5.12221         -3.6043        -2.28609
