108
#Comment!
LJ           4.07705        -3.60545        -3.51686
LJ         -0.845051        -3.75187         5.19108
LJ           5.06358         2.63276       -0.369566
LJ           6.19579         1.76617        -1.41912
LJ          -5.51949        -0.60871       -0.345312
LJ         -0.682501         4.92189         5.68863
LJ           -5.4439         3.68367        -3.17061
LJ           4.36713        -3.68131         -1.6558
LJ           -3.5774        0.911975         3.82651
LJ           3.95609         3.26242        0.750891
LJ        -0.0524456       -0.247276        -2.66732
LJ           2.16466       -0.966428         2.22107
LJ         -0.461862         4.51745        -3.86916
LJ          -3.42374         5.57291         5.43175
LJ          -2.43649        -3.83552        -3.25913
LJ           2.70125         4.92005         4.14774
LJ          -3.85165        0.514888        -1.10037
LJ          0.392082        0.807758         5.88699
LJ          -4.08274         -2.4898         -3.3799
LJ          -2.91613         4.84514       0.0460921
LJ           1.14356         1.01069        0.841182
LJ          -1.55053         6.15875        -1.84355
LJ          -5.99708          4.7152        0.801603
LJ           6.36725         3.80249         -2.2712
LJ           -6.0819         6.20574        -6.40437
LJ          -3.09956         2.71111        -4.46489
LJ        0.00483506         1.82111        -1.04963
LJ          -1.43014        0.915948       -0.162966
LJ          -1.16535        -5.59699         3.46345
LJ          -1.94875       -0.344682       -0.283556
LJ          -5.24216         5.72917         3.43373
LJ            2.5554        -5.61567         2.83307
LJ          -5.13578        -2.12632        -6.22688
LJ           3.96882         1.05974         5.29598
LJ           1.99676         5.79473         4.30265
LJ           5.01756        -5.55471        0.173006
LJ          -1.52598        -3.56778        -4.93412
LJ           6.22864           3.706         4.91136
LJ          -4.39225        -1.72677         3.31108
LJ           2.85427         -4.1192         2.53347
LJ          -4.89824       -0.262754         5.84855
LJ           5.41521         1.34236         1.08095
LJ          -2.10295         2.55468         4.97316
LJ           4.34403       -0.930477        -2.93591
LJ          -3.93112        -1.28507         4.78855
LJ          -6.15265        0.735905       -0.315005
LJ           3.48488         6.33546         1.70788
LJ          -2.98558       -0.727787         1.49512
LJ          -5.00281        -4.04086         5.83784
LJ          -3.86694         4.39147        -1.24074
LJ           -3.3639         1.08514         1.79727
LJ          -1.83454        -6.24711         4.16485
LJ          -2.06903        -3.30108        -3.99251
LJ          -3.55208         2.45641        0.801888
LJ          -5.19422       -0.975834         5.15429
LJ            2.4783        0.769444       -0.474474
LJ         -0.987236         4.33454        -5.26487
LJ           -3.3607        -2.25113        -5.09367
LJ          -4.98537         4.59556          3.1717
LJ           1.60154       -0.790849        -3.61913
LJ          -1.54865         3.98232         2.79455
LJ           3.48101         3.42597         2.84882
LJ          -1.98979         5.22475        -0.65971
LJ          -3.37476          4.1297         4.61351
LJ           1.40558         3.52957         1.71982
LJ           3.36256         4.39771           3.639
LJ           4.92616         4.29066          6.4261
LJ           3.34833         4.72787         5.35435
LJ           2.19748        -5.62734         1.04693
LJ          -1.77936         2.23186         -1.7462
LJ         -0.457717        -5.79719        -4.83103
LJ          -3.85208         2.94272         -2.7893
LJ         -0.853011        -3.24451        -2.56038
LJ          -1.40857          5.1165        0.929098
LJ          -1.95031         2.83341         -3.8469
LJ          -2.65021        0.396583        -6.13041
LJ          -5.66222        -4.04255         1.65956
LJ           5.34991        -6.10498        -2.57141
LJ          -2.23008        -1.57029         5.74865
LJ           5.47148        -3.07237        -2.75005
LJ          -1.30559       -0.316081        -1.95979
LJ            -1.808         5.24632        -5.43219
LJ          -2.66981         1.91111        -1.97192
LJ         -0.127436         5.52159         2.53144
LJ           2.58287         1.81022        -4.89664
LJ         -0.478037        -6.03767        0.876376
LJ          -5.26826         -5.1732         5.66984
LJ          -4.36373        -3.02492         1.36617
LJ         -0.622637         0.13649        -4.10821
LJ           3.97166        -2.27941         -5.9894
LJ          0.529824         2.35309         3.56656
LJ           2.48569        -3.86532         1.63178
LJ         -0.222536         3.22264        -4.71114
LJ          -3.34409         3.07063         5.92106
LJ          -5.93142        -2.12658        -3.12732
LJ           2.44583        -5.30774       -0.820344
LJ         -0.995639         1.97863       -0.424844
LJ           2.95832       -0.126877        -5.95269
LJ           -1.7034         -3.1944         1.83878
LJ           6.25411          -5.019           0.851
LJ           4.53619     -0.00398765          4.1382
LJ           2.32163         1.16754        0.379097
LJ           3.72405       -0.349894         5.00057
LJ          -4.01145        -6.16785         5.48837
LJ          -1.19497        -5.91863        -6.23578
LJ           4.33162        -2.13645        -4.39266
LJ           4.23347        -4.63357        -5.67879
LJ           1.87771        -4.59116         2.81793
