108
#Comment!
LJ           1.52933         2.76257        -3.70984
LJ           5.87592         6.03632        -5.52936
LJ          -1.10358       -0.247606         5.96614
LJ          -6.26746         6.34773         5.17005
LJ           -4.0341         2.68819         1.12668
LJ          -1.97207         -2.4957        -4.68899
LJ          -2.18951        -1.63525        -3.06586
LJ           6.26182         3.43156       -0.116555
LJ          -3.03249         2.82541         2.49781
LJ           5.94495         -5.3949       -0.678415
LJ          -1.42086        -2.22482        -2.92038
LJ           3.02077        -3.61328         2.89335
LJ           4.02656         5.77767        -4.69327
LJ          0.223486        -2.64266         5.12106
LJ           4.02858        -5.81419         3.44964
LJ          -4.55517         3.21454         6.23348
LJ          0.989548         2.13594        -2.81854
LJ           -2.5143        -4.19791        0.526742
LJ          -5.18626         6.23093         4.66743
LJ          -4.27241        -2.40051         1.01363
LJ          0.380279      -0.0570036         6.42198
LJ          -4.91101        -5.85427         6.29733
LJ        -0.0749029        -1.85785        -2.13563
LJ          -3.69179         3.76942          1.7579
LJ          -4.86428        -1.94817        0.262776
LJ           2.63886        -5.24045         -2.1175
LJ           1.76688         4.69325        -6.17166
LJ           6.32713          2.3521        0.318023
LJ           2.08941        -3.54868         3.43266
LJ           3.62719        0.763217         6.21187
LJ          -3.25074         3.07427        -4.11988
LJ          -1.23395         3.18998         2.55616
LJ         -0.263162         5.70258         4.41878
LJ           3.66624        -1.52817       -0.874502
LJ           3.56985         1.89113        -5.01622
LJ         -0.957655        -3.58303            2.92
LJ           -5.9728          3.2177         5.96783
LJ          -3.23839       -0.758646        -3.27324
LJ         -0.573686         1.46799          5.9195
LJ          -4.19441         1.36126        0.206468
LJ           1.09056        -5.19132         1.46946
LJ          0.966947         1.59812         3.84552
LJ           6.40933         1.11867        -2.87818
LJ           5.25958         5.15963        -6.28116
LJ          -2.21979        -1.21754        -2.14051
LJ          -6.35892        -2.02856          3.0475
LJ           6.41816         6.35957       -0.692243
LJ           5.25165      0.00654972       -0.705118
LJ           6.26194          6.0802         4.14029
LJ          0.466498         4.41306         -6.3804
LJ           1.59915        -4.20411        -0.68171
LJ           1.82168        -2.21322        -6.46118
LJ           2.27194        -2.31394        -3.42216
LJ           4.35793       -0.215306        -2.35511
LJ           -1.7827       -0.314856         -2.5255
LJ           4.46405       -0.938291        -1.55672
LJ           4.64502         -2.3018        -5.48169
LJ           2.36418        -3.86017        -3.63517
LJ           2.78933        -2.73313        -5.44001
LJ          -4.62587         5.00547         4.91457
LJ          -3.70429         4.12157         6.16601
LJ          -5.98086         5.26605        -3.33102
LJ         -0.778955        -4.18167       -0.329232
LJ           -6.1957        -5.26776        -1.82031
LJ         -0.427075         4.84989        -2.77937
LJ          -4.18635        -5.42033        -1.92031
LJ           3.51601        -1.45077         -4.0014
LJ          -3.65837         2.23379        -3.05146
LJ          -3.59262        -1.45296         5.47682
LJ          -5.94372         3.05131        -3.11728
LJ          -3.73911         2.07982        -4.11093
LJ           4.09353         2.93239        0.673443
LJ          -1.54206         4.82149        -2.69002
LJ           -6.1277        -3.18565         1.84461
LJ        -0.0859782        -3.36568        0.161928
LJ           -4.5462         4.53474         -2.2832
LJ         -0.470172        0.642514         1.76843
LJ           2.03372        -3.52616         1.44891
LJ          -5.17196        0.525935        -2.60581
LJ           2.67207        -2.97148         4.52951
LJ          -3.67946         5.14121        -6.40719
LJ           2.26051        -1.68482         4.73926
LJ           1.11044        -5.68813        -1.63616
LJ           2.88167         4.23792        -6.44255
LJ          -3.53755          -5.118        -1.15355
LJ          -1.81256        0.732414         4.97523
LJ         0.0637111         4.22901        -1.79615
LJ          -4.81198        -6.28354       -0.270077
LJ           2.74081        0.333476        0.269628
LJ          0.435155          3.0707        0.456397
LJ           2.78004       0.0488078         2.97524
LJ          -1.32599        -3.85122         1.26167
LJ         -0.590091        -5.99465         -2.8248
LJ           -3.8614       -0.772448        -5.58111
LJ           6.35192          4.4057        -5.88243
LJ            3.3345         4.13001        -4.87809
LJ           2.88928         -1.0774         5.25347
LJ           3.12451        -1.07127         2.90812
LJ           2.95809        -5.22655         4.32599
LJ           1.11157        -4.93734         4.43743
LJ           3.52012         3.01694        -1.82397
LJ         -0.224818         2.50085         4.65375
LJ          -5.24363       -0.906039          0.4701
LJ          -2.25766         5.38842        -1.22745
LJ          -2.60477        -6.21669         4.39144
LJ         -0.180843        -5.41851         5.84733
LJ           3.58393         -2.1062         3.62195
LJ          -5.74882        -5.21934       -0.900703
