108
#Comment!
LJ          -3.81789         1.03391        -1.87195
LJ           1.11574         2.08081       -0.439053
LJ          -2.36594         5.39085         2.04605
LJ          0.842783        -1.93966        -5.65593
LJ           1.03783       -0.184685         4.57759
LJ          -5.78922       -0.277644         3.84659
LJ           2.39135         4.31785        0.907787
LJ           4.38564         4.37796         1.87263
LJ          0.796251       0.0925869        -3.95312
LJ          -5.36711        -4.68287        -5.64146
LJ          -5.56468        -5.09601        -3.60371
LJ           1.54995         4.57672         1.77476
LJ          0.657109         -4.9324       -0.590655
LJ           5.12965        -2.41036         1.50466
LJ          -3.30034         6.12152        -1.36617
LJ           3.24824         2.54866        0.958622
LJ         -0.145072         -3.2872        -1.93003
LJ           6.44036        -5.91721        -5.09807
LJ           -6.0409         3.87894        -1.25405
LJ          -1.21592        -2.29241        0.298284
LJ          -3.04732        -2.12519        0.619911
LJ           1.50081         -1.2967        -3.16638
LJ           -5.2818        0.162709        -3.51474
LJ           4.40704         2.37879         5.76308
LJ           4.98192         2.78881         5.03121
LJ           5.29269         3.63283        0.901426
LJ           3.60652        0.142158         3.04861
LJ          -5.70247        -4.13977        -2.56489
LJ           2.94619         4.57113        -1.16142
LJ          -5.33572         4.13364        -3.65294
LJ           6.12011        -1.07021         2.31869
LJ           1.13083         1.20186         3.32542
LJ           -4.9723        -2.92594        -2.73133
LJ           5.38995         2.41956         1.04973
LJ           6.18666         3.07665          1.3438
LJ          -4.98302          1.7649         6.42308
LJ           6.19327        -3.19017         4.58036
LJ          -3.83992        -2.75161        -3.40866
LJ          -4.48236        -3.94044        0.929836
LJ          -1.31733         5.25444         2.84993
LJ          -1.61415          4.8589        -2.00159
LJ          0.502599         5.88243       -0.280564
LJ           3.13448        -4.09101        0.319267
LJ          -5.18048        -5.97071         -1.5203
LJ           2.00428       -0.466618         5.27245
LJ           2.52548         5.18845        -3.80177
LJ           -2.0178        -3.44285        0.758957
LJ           5.38101         2.06124         6.22979
LJ          -3.30716         3.33964        -6.33164
LJ          -4.08493         5.43616         0.25695
LJ          -4.50901         5.60019         1.92263
LJ          -3.98987        -3.80185         -3.8965
LJ           -1.7778        -2.83542        -5.58059
LJ          -4.62742         3.27182        -6.19093
LJ           5.50394           5.294        -1.32004
LJ          -2.55412         1.50146         1.15295
LJ          -1.31924         1.20551        -1.05435
LJ          -1.34419       -0.742381        -2.32435
LJ           4.27461        -5.58756         1.97267
LJ           2.98746         -2.6616         3.72236
LJ          -5.01876         3.30318        0.944468
LJ           2.98538        -4.99971        -5.93703
LJ         -0.348695         5.87714        -4.31918
LJ           3.23831         3.43241         1.63371
LJ          0.915184      -0.0538881        -5.54135
LJ           1.76806        -2.23274         3.66855
LJ          0.316241        0.464835        0.990256
LJ          -5.74062         1.29861         5.10658
LJ         -0.523868       -0.267322        -5.07519
LJ          -4.55222        -3.69848         -5.8287
LJ          0.965356         4.57817         3.61282
LJ           5.87051         1.32218        -3.85842
LJ           4.23121        -4.49963        -5.92863
LJ          -3.51249        -2.85418        -4.52355
LJ          -4.33884         2.43001         5.13345
LJ           4.01998         4.34658         3.33581
LJ          -1.61701        -5.96416         1.42684
LJ          -4.13358        -2.07862        -2.75253
LJ         -0.109022       -0.628779        -6.16763
LJ         -0.453632        -3.55982       -0.477531
LJ         -0.350067         2.29962         4.80378
LJ          -1.53208         5.65299         3.87084
LJ           3.80742        0.508711         5.51771
LJ          -3.96068        -6.44554       -0.622394
LJ           4.25515         2.22184        -5.58786
LJ          -3.11137         0.78705         1.61815
LJ             1.652        -4.05109        -3.43852
LJ          -3.75389        -5.26827        -1.78275
LJ           1.28368         3.93051        -2.84168
LJ          -2.02909         -3.0041        -4.14988
LJ           3.02804         5.62489        -1.82535
LJ          -4.76452         3.47813         5.16196
LJ          -3.59187         2.38992         1.90493
LJ        0.00554929         5.14716        -5.00258
LJ          0.362722         4.46121         2.68018
LJ          -5.67368         5.49364      -0.0216569
LJ           2.16374         1.57739       -0.712112
LJ        -0.0821841         5.29537         5.32973
LJ          -5.87982         2.98888        -3.02525
LJ           4.55658         4.63424        -2.80698
LJ           3.84312         5.09575        -6.01283
LJ          -1.31208        -4.15152       -0.480385
LJ           4.96954        0.160473         2.14683
LJ          -6.35523         1.00173         1.47449
LJ          0.534449        -1.23109        -1.95947
LJ           3.58661         4.67966        -4.03583
LJ            1.2668         1.57144         5.29881
LJ           -5.5028        -3.95839        -1.39739
