108
#Comment!
LJ          -6.21325         5.64503         6.12785
LJ           -4.2137        -3.49685         5.93647
LJ           -6.0635        -4.39392        -5.29277
LJ          -4.20978        -6.18839         -5.1544
LJ          -1.82742        -5.09226        -6.45765
LJ          0.403875        -3.63036        -6.29568
LJ          -2.44604        -4.77213         -3.6679
LJ         -0.145621        -6.20936        -4.77262
LJ           1.72632        -6.22408         6.28065
LJ           4.23644        -4.88943         -5.6112
LJ           2.35162        -5.12924        -4.20073
LJ           4.63866         6.12021         -3.7567
LJ           5.97159        -1.81169        -5.68906
LJ          -4.49488        0.291019          6.4058
LJ           6.31283        0.772175        -3.76724
LJ          -4.54713        -1.58685        -4.31897
LJ          -2.49919        -1.46016         5.96672
LJ          0.388181        -1.01145        -5.78864
LJ          -1.89712        0.392636        -4.35966
LJ          0.801613        -2.33216        -3.56757
LJ           3.44926        -2.36748         6.28667
LJ           5.25362        0.678849        -6.31337
LJ           3.29323        0.158415        -4.96326
LJ           3.45854        -2.67226        -3.90802
LJ          -5.62626         3.08144        -6.28292
LJ          -3.66564          4.3009         6.32969
LJ           -5.4372          4.6818        -3.98215
LJ          -3.89062         2.70096        -4.15989
LJ          -1.82543         1.61281         6.18329
LJ          -1.14873         4.72704         -6.1193
LJ          -2.53445         4.86879        -3.76025
LJ         -0.157258         3.30255        -4.05747
LJ           2.22423         2.37345        -6.04077
LJ           4.41619         3.80213         6.04849
LJ           2.31416          4.7124        -4.83626
LJ           4.34977         3.09926        -4.03461
LJ          -5.70696         6.24826        -1.92898
LJ          -5.41617        -3.84307        -2.90743
LJ          -5.50155        -4.45166       -0.486182
LJ          -4.48552         6.02042        0.517482
LJ          -2.65729        -6.36034        -1.49118
LJ         -0.234719        -4.96179        -2.36296
LJ          -2.60583        -3.87461     -0.00293135
LJ         -0.335384         6.38746        0.372409
LJ           2.12105         5.85318        -2.18008
LJ           5.19245        -4.20306        -2.22527
LJ            2.4936        -5.51229        0.533667
LJ           4.80008        -6.36492       -0.429616
LJ           6.12027        -1.53671         -2.5478
LJ          -4.33546         1.00588        -1.77305
LJ           6.15285       0.0767545       -0.310572
LJ          -4.68704        -1.87845       -0.583301
LJ          -1.95882        -2.08013        -3.15997
LJ          0.533941        0.659503        -3.41483
LJ          -2.07436       -0.326739        -1.00846
LJ          0.135256         -3.4684       -0.054571
LJ            2.4245         -4.1529        -1.62804
LJ           3.90643        0.413033        -2.50953
LJ           1.62046       -0.697069       -0.443562
LJ           4.13221        -1.57905       -0.245736
LJ           6.13674          2.6587         -1.9267
LJ          -4.36977         3.71368        -1.43038
LJ           6.34339         4.03847        0.663246
LJ          -4.56269         1.93523        0.854056
LJ          -1.79911         2.52898        -1.71102
LJ         -0.650348         4.80073        -1.73668
LJ          -2.01163         4.14475        0.598844
LJ          0.337937         2.07929       -0.111682
LJ           1.85139         2.98511        -2.30297
LJ           3.88446         4.06049        -1.36386
LJ           1.96882         4.25823        0.256666
LJ           3.76661         1.79846        0.120525
LJ            6.3137        -6.26704         1.93069
LJ          -4.54286        -4.50477         1.93345
LJ           6.36341        -4.87611         4.30976
LJ          -4.08309         6.43255         4.02106
LJ          -1.99828         -5.7631         2.48402
LJ          0.260472        -4.64254         2.46315
LJ          -1.88754        -3.13703          3.8424
LJ         -0.554183        -6.19043         4.73918
LJ           2.18527         5.96165         2.69292
LJ           4.03452        -4.37642         2.17787
LJ           2.61189        -4.25762         4.45096
LJ           4.03522         -6.4629         5.02438
LJ           6.23856        -2.51818         1.05848
LJ          -5.42279       -0.414329         2.05811
LJ           6.45264        0.598121         4.08999
LJ          -4.75398         -2.4443         3.74525
LJ           -2.9055        -1.67252         1.72462
LJ         -0.227617        -1.61417         1.82899
LJ          -1.33776        0.504694          3.6071
LJ           1.04913        -1.93677         4.22708
LJ           2.42718        -2.40139         1.65679
LJ           3.86525      -0.0812521         2.03273
LJ            2.4209       0.0389074         5.23215
LJ           4.92179        -2.25143         4.28209
LJ            5.9959         1.74085         1.75943
LJ          -4.83857         4.37898         2.44504
LJ           5.90725         4.11642         3.85241
LJ          -3.90111         1.87457         4.11785
LJ          -1.78054         1.27525         1.01697
LJ        -0.0523099         4.25639         2.43735
LJ          -1.90353         4.02986         4.08571
LJ         0.0328755          2.2053         4.83218
LJ           1.52192        0.860429           2.906
LJ           3.92321         3.79596         2.03045
LJ           1.35312         4.53891         4.71943
LJ           3.77856         1.84763         4.13783
