108
#Comment!
LJ           4.08477        -5.03539          6.0596
LJ           1.59746        -1.65323         -6.4322
LJ           2.09585         1.23869        0.113341
LJ          -4.06281         3.09451         5.52601
LJ           6.24106         2.05638         -1.3197
LJ          0.599847         6.11131         5.37297
LJ          -4.58114          4.6908        -0.92509
LJ           2.57815       -0.035378        -4.53517
LJ           5.54351      -0.0631463        -4.47746
LJ          -2.69663        0.584468        -1.72385
LJ            0.6561         3.34477        -3.46916
LJ           4.49632         2.71307         1.31518
LJ         -0.101119         3.98427        -3.93894
LJ          -1.89605         1.18823        -5.66287
LJ          0.252548          6.2217        -2.09902
LJ           5.87649         6.22082         3.57272
LJ          -2.21329         4.83847         1.23562
LJ          -1.19115        -4.77486         5.42677
LJ           5.09417        -5.66094         5.34633
LJ          0.406272        -5.32167         1.38548
LJ          -2.39647        -2.17543         2.98947
LJ          0.860835        -6.24845        -5.36026
LJ           3.63317        -5.16281         3.89693
LJ          -2.54651         3.95166        0.478145
LJ          -5.77709        -4.04382        -2.10839
LJ          -3.91458        0.259109        -2.42822
LJ            2.5431         6.45844         3.11837
LJ           2.37427       -0.684411        -5.79313
LJ          -2.02967        -4.86367         2.62831
LJ         -0.416073        0.954807       -0.686433
LJ           4.67177          4.1038        -2.65117
LJ          -1.86863         4.70967         6.43074
LJ           5.66893         -4.3629         4.61902
LJ          -6.13091        -5.98888        -5.89528
LJ           -3.1002         1.71599         5.01816
LJ           3.43855          5.9224         3.65669
LJ          -4.28438         5.75262         3.19224
LJ           3.72493         1.91223         5.41855
LJ          -4.74244        -4.95598        0.758977
LJ            4.2561          3.3059      -0.0889354
LJ          -5.51915        0.534905       -0.787075
LJ           4.59045        -5.51395        -1.43127
LJ           2.07497          2.5922        -3.58637
LJ          -5.88947         2.13479       -0.530574
LJ          -6.39941      0.00726196        -5.29971
LJ          -3.73166        -2.23209        0.129164
LJ          0.162888        -1.63319         2.16039
LJ          -1.81702         0.97151         5.50687
LJ          -2.98503        -3.97779         1.71269
LJ           -5.2889          5.2265        -3.95323
LJ           3.41386       -0.993301         3.36432
LJ           1.76316         2.30031         5.98937
LJ           5.82969        -3.18845         -4.8361
LJ         -0.384379         5.36435        -1.66178
LJ          -3.63537        -3.39924        -5.01219
LJ           2.71458        -2.32447       -0.596125
LJ           3.98757         2.77503         4.30009
LJ           -6.3871        -4.50647         -5.7152
LJ          -5.10884         5.03059         4.56288
LJ          -2.25521        -2.66796        -3.31418
LJ          -5.35508        -3.86452           3.358
LJ          -6.12769         4.09317        0.795153
LJ          -3.33689        -6.33111        -1.64945
LJ           4.74801         4.96786         4.39049
LJ           2.12571         4.30619         3.05213
LJ           3.20639         6.06232         2.17545
LJ           1.52145         5.80777         5.52831
LJ           2.40696        -5.03165          -1.873
LJ          -3.25904        -1.64017         1.27752
LJ           2.36714         4.28052       -0.680406
LJ          -3.57655         5.45799        -1.98841
LJ           -5.2868         5.78332        -1.94019
LJ        -0.0289967        -2.75633        -4.83459
LJ           3.20805          2.5496        -4.98847
LJ         -0.430921         3.19681        -2.62297
LJ          -4.67831         1.44698         -3.7395
LJ           5.70027        -1.84359         4.66952
LJ           -6.2762         5.49818        -1.81207
LJ           2.96848       -0.459461         4.37004
LJ           5.90088        -3.45841        -2.08684
LJ          -1.25498         3.26883        -3.65079
LJ           1.78057         5.64249        -6.04755
LJ          -3.84822         1.73098        -1.19277
LJ           3.33042        -1.15141         2.06454
LJ           2.91081        -1.53517        -4.59131
LJ        -0.0831786          6.1928       -0.549541
LJ          -2.14855        -3.06443         1.66332
LJ          -4.64235        -3.72915        -0.86619
LJ          -2.72768        -1.88387          5.7418
LJ           2.64362         6.13632        -5.21567
LJ           4.07373         5.01249         3.45416
LJ           1.80039        -3.93292         1.27298
LJ          -3.94225            2.87        -2.65996
LJ           5.65867         2.90806         5.37635
LJ          -5.88644        -3.32818        -6.38253
LJ           -2.7946        -2.96126        -1.02345
LJ           2.30111         3.50032        0.147593
LJ         -0.844269         3.76921        -6.17986
LJ          -2.62714          1.1355        -3.35738
LJ          -1.24596        -1.65351        -1.06771
LJ           2.99502        -2.12259          5.8591
LJ           1.98223        -2.04716         5.51436
LJ           5.60136        0.202652        -6.08204
LJ          -1.24927         1.66015         4.68224
LJ           4.97398        -3.21151       -0.672591
LJ          -4.43375        -4.18667         4.26384
LJ         -0.725574       -0.287622       -0.531084
LJ          -2.20183        -6.09708       -0.336881
