108
#Comment!
LJ          -3.28347         5.53469         6.02253
LJ           5.73621        -3.44878           5.985
LJ          -3.14076        -4.45419        -5.34342
LJ           5.79615        -6.12802        -5.19777
LJ           1.11533        -4.82592        -6.38352
LJ          -2.51625        -3.93837        -6.32286
LJ          0.453839        -4.91397        -3.16434
LJ          -3.07712        -6.14357        -4.74518
LJ           4.63007        -6.26563         5.78587
LJ            1.2939        -5.04324        -5.28182
LJ           5.30167        -5.11048        -4.47864
LJ           1.69618          6.1272        -3.68062
LJ          -4.05694         -1.7496        -5.28668
LJ           5.45991        0.272941        -6.45597
LJ          -3.70531        0.801633        -3.71849
LJ            5.4564        -1.63665        -4.65425
LJ          0.423172        -1.31423         6.38099
LJ          -2.51209        -1.16062        -6.18494
LJ          0.817259        0.101568         -5.2686
LJ          0.526386        -3.31189        -5.20327
LJ           6.41163        -2.43099         6.21357
LJ            2.3224        0.547079        -6.10083
LJ           6.22271        0.303765        -5.44341
LJ          0.605078        -2.63884        -3.77223
LJ          -2.73122         3.89539        -6.36912
LJ           6.35448         4.03326         6.44834
LJ          -2.47346          4.5782        -4.00901
LJ           6.11927         2.73034        -4.15525
LJ           1.08244         1.74619         5.84313
LJ          -4.04471         4.34201        -5.93619
LJ          0.375107         4.69847        -3.77375
LJ          -3.12313          3.5661        -4.00689
LJ           5.16301         2.43986        -6.10085
LJ           1.47947          3.7614         5.98807
LJ           5.23235         4.68716        -4.75812
LJ           1.42232         3.18031         -4.0073
LJ          -2.76128          6.1555        -1.90596
LJ           4.46164        -3.86695         -2.9216
LJ          -2.60268         -4.3708       -0.537939
LJ            5.4935         6.10486        0.740179
LJ           0.27092        -6.35028        -1.52354
LJ          -3.13992        -5.00553        -2.83482
LJ          -2.73249        -5.62772        0.273299
LJ          -3.25429           6.452        0.311001
LJ           5.05346         5.84699        -2.28786
LJ           4.45925        -4.37161        -4.18452
LJ           5.39747          -5.885        0.150641
LJ           1.90796        -5.99496      -0.0523342
LJ          -3.88651        -1.54097        -2.59963
LJ           5.65848         1.09559         -1.7173
LJ          -3.85794        0.104857       -0.379925
LJ           5.31717        -1.86485       -0.509703
LJ          -1.73167        -1.14794        -1.67408
LJ          -2.18132        0.900128        -2.54405
LJ          0.834732       -0.310502        -1.01562
LJ          0.261128        -1.87475       -0.239984
LJ           3.25772        -4.03323        0.243125
LJ           0.99682        0.413282         -2.4856
LJ           4.01831        0.598789       -0.736541
LJ             1.741        -2.87862       0.0957783
LJ          -3.82181         2.81376        -1.79194
LJ           5.58821         3.39953        -1.53962
LJ          -3.66514         4.05488        0.739091
LJ           5.87585         2.21817       -0.414333
LJ           1.14348         2.54017        -1.55863
LJ          -3.58853         4.97821        -1.77117
LJ          0.923543         4.13551        0.670032
LJ          -2.57197          1.8704        0.128656
LJ           4.78617         3.29972        -2.11602
LJ           0.94551          3.7884        -1.47691
LJ           4.89696         4.21525        0.148221
LJ           1.27339         2.05383       -0.331628
LJ          -3.67897        -6.28262         1.73468
LJ           5.46595        -4.60296         1.92327
LJ           -3.6263        -5.03495         4.28961
LJ           5.91347        -6.36226         4.02257
LJ          0.979878          -5.728         2.47797
LJ          -2.71964        -4.63897         2.47232
LJ           1.02923         -2.6974         3.95085
LJ          -3.47947        -6.14369         4.75489
LJ           5.10044         5.93816         2.69486
LJ           1.11276        -4.38142         2.15017
LJ           5.53042        -4.22627         4.44489
LJ           1.14256         -6.3747         5.57935
LJ          -4.13211         -2.8584        0.742416
LJ           4.58146       -0.370566          2.0657
LJ          -3.61002         1.14856         4.04949
LJ           5.26124        -2.47283         3.75187
LJ          -3.55554        -1.57631         1.45783
LJ          0.807499        -1.36031         2.34201
LJ           1.62408        0.613564         3.58676
LJ          -1.86677        -2.36379         4.10088
LJ           5.33669        -2.40103           1.632
LJ          0.940015        0.337584          2.4735
LJ            5.3776        0.144561           5.408
LJ           1.99686        -2.29729         4.33341
LJ          -4.43377         1.43612         3.05898
LJ           5.17452         4.33325         2.70601
LJ          -4.10032          4.1897         3.48166
LJ           6.13975         1.34885         4.06755
LJ          0.705066         1.29482         1.06629
LJ          -2.97368         4.23373         2.52231
LJ           1.01989         4.00368         3.94005
LJ          -2.87804          2.0774         5.11874
LJ           4.45328        0.541055         2.67037
LJ          0.994151         3.83256         1.92978
LJ           4.28614         4.50618         4.88199
LJ          0.821737         1.59208         3.97746
