108
#Comment!
LJ            3.6376         4.03438         -4.5938
LJ          -3.89999        -1.77447        -6.22107
LJ           5.27803         1.17638        -2.17521
LJ          -4.48784        -1.23978         5.84786
LJ         -0.908729        -5.47318         5.51156
LJ           3.62985          3.9802         3.40853
LJ          -3.75561        -5.65139       -0.502623
LJ           4.70479         3.89179         2.38188
LJ           1.08176         3.43022         4.32876
LJ           1.64945        -2.62051       -0.248705
LJ          -5.60291        -6.46285        -3.04986
LJ          -5.85777         4.69384         -3.3227
LJ          -6.11633       -0.350287        -6.08325
LJ           2.06177         2.03106         5.73868
LJ           6.44851         2.47982         -2.9395
LJ         -0.644128         6.26995         3.96692
LJ           1.09293         5.85788         4.21336
LJ           3.84246          5.8302         4.54733
LJ           1.53921        -5.97815        0.938417
LJ           2.61119        -2.51264        -5.80044
LJ           2.05766        -5.71135         4.26193
LJ          -1.60727        -6.23154        -2.31355
LJ           2.67188        -4.41489      -0.0140689
LJ           5.33741        0.260246        -1.01149
LJ           3.24429         5.82353         2.71492
LJ          -3.74219        -0.58332        -6.09187
LJ        -0.0106241        -2.72496        -2.85715
LJ         -0.387674          2.0156         4.50956
LJ          -3.53822         -1.8366         2.70858
LJ           2.27232        0.363626         1.38849
LJ          0.504719         3.31192        -1.94026
LJ            1.5381         1.08352         1.99876
LJ          0.945428         3.42236         2.11507
LJ           4.43659         3.88197        -3.07844
LJ         -0.603428        -4.78098       -0.520668
LJ          -1.98724        -4.18032       -0.801304
LJ           6.18059         2.23468       -0.320568
LJ           -5.3552         4.97055        -1.94001
LJ          -6.00615        -5.27084        -1.00938
LJ           -0.3519        -4.73666        -2.42979
LJ          -2.22684        -5.57593        -3.44601
LJ           2.23051         4.31398        -5.83043
LJ          -5.14281         3.58761         1.79176
LJ           3.81892         4.12469         5.56178
LJ          -4.33848         4.86672         3.33937
LJ           5.91907        -4.54373         2.33439
LJ           6.36705       -0.519576        -1.55355
LJ          -5.92914        -5.94973        -1.90187
LJ          -4.72113        -5.36093        -4.10672
LJ          -1.18179         1.70016        0.337178
LJ          -1.10551        -1.53261         2.72813
LJ          -6.05585        -1.61075        -1.26296
LJ          0.536989        -4.97012         2.81072
LJ           2.84359         1.82013         1.46372
LJ           -4.1403        -1.38688       -0.224756
LJ          -1.83435         5.58995        -2.47188
LJ          -1.41445          -3.321       -0.656514
LJ           3.85611        0.724476        -3.22165
LJ           6.38702         5.29629      -0.0322723
LJ           -5.7607         5.62837        -5.86512
LJ           6.26294        -6.40703        -2.38321
LJ            1.3846        0.959215         4.93422
LJ          -2.14753        -1.42609         5.62966
LJ           -3.4893        -3.33334        -2.13736
LJ           0.94155        -2.21722        -3.75424
LJ          -5.43433       -0.965495         6.29608
LJ          -4.20468        -5.32164        -2.70166
LJ           1.71914         2.06583         3.50509
LJ           4.99399        -5.71378         1.76334
LJ           4.32014        -4.68451          1.3834
LJ           6.45702        -5.16343        -3.48405
LJ          -1.54304        -6.10717        -4.10679
LJ           2.71424        -4.38697        -2.61209
LJ           5.22976        -2.64719         6.38038
LJ          -5.62034        -6.16124         1.00691
LJ           3.05355        -3.77543         5.96923
LJ          0.422885        -6.13486          2.0186
LJ            3.4304        -3.68316        -5.80358
LJ          -2.17046        -3.11563         2.41788
LJ          -1.80334         1.39098         1.70349
LJ          0.421479         6.44385         5.02325
LJ           -6.4582         4.17903        -2.19137
LJ         0.0763889         4.60668        -5.88149
LJ           3.88197         4.91242        -3.63351
LJ           1.52883         3.53118        -5.20509
LJ           -5.1349         2.13095        0.311112
LJ          -5.81322        -4.97188         5.45735
LJ          -4.95683         1.68937         5.75901
LJ         -0.562746         5.27739         4.98893
LJ           4.75927         3.23895         4.64249
LJ          -2.60955         4.48396       -0.402892
LJ           6.44084        -5.40575         2.90644
LJ           3.13012        -4.41475        0.956203
LJ          -3.72204        -3.14717         2.55385
LJ          -2.23489         2.08196         4.25347
LJ          -6.04552        -5.84869        -5.08077
LJ           -5.4381         5.68896         3.56241
LJ          -1.40977        -5.07592        -3.49542
LJ          -4.74246        -2.38866          5.6341
LJ          0.647343        -1.01201         5.16548
LJ           1.72794        -6.15302        -4.24188
LJ          0.247158        -1.81676         1.13221
LJ          -4.28972        0.956293        -4.53803
LJ           3.36528         2.47128         3.87537
LJ          0.552843        0.627645         1.86531
LJ           1.85182        0.453746         2.81497
LJ           0.90554         3.52296         5.54062
LJ          -3.57393        -2.33044       -0.125832
