108
#Comment!
LJ           3.84372         -5.0317        -6.34239
LJ          0.973693         -2.3844         6.42512
LJ           3.01843         1.21093        0.141506
LJ          -4.70165         2.80594        -6.06895
LJ           6.24014         1.94407        -1.50475
LJ          0.371991         5.90644          5.6142
LJ          -4.67258         3.89452        -1.41751
LJ           3.04487         1.96561        -3.88957
LJ           6.23696        0.375267        -5.53771
LJ          -4.45452         1.09241       -0.991472
LJ          0.204262         2.65238        -3.34165
LJ           3.91405         1.78273         1.28621
LJ         -0.896746         3.74082        -3.73687
LJ          -2.25956         2.11839        -6.11187
LJ         -0.284663        -6.00992        -1.97405
LJ           4.32407        -6.34449         4.88488
LJ          -2.49526         4.97872        0.442214
LJ          -0.93687        -3.49657         5.56885
LJ           5.40322        -4.49872          5.0501
LJ        -0.0507155        -6.01675        0.944521
LJ          -1.59868        -1.68499         2.32269
LJ          0.371586        -6.34092        -4.49425
LJ           4.93895        -5.32558         3.83727
LJ           -3.8128         4.70034       -0.684901
LJ          -6.09385        -4.52273        -2.98346
LJ          -3.41242        0.692117        -2.57327
LJ           1.88226         5.54875         2.08765
LJ           2.29816      -0.0712361         5.87908
LJ          -1.96031        -4.91841         2.64469
LJ         -0.742843        0.530238       -0.573164
LJ           5.72188         4.60834        -1.46282
LJ          -1.30966         4.86908         5.55671
LJ           6.44246          -4.239         5.45508
LJ           5.76938          5.8194        -5.89692
LJ          -2.04527         2.39751         4.72589
LJ           3.18518         5.62099          2.9806
LJ          -3.40694        -6.34383         4.21717
LJ           3.40477          2.6967         5.01656
LJ          -4.69743        -4.25453         1.38808
LJ           5.23758         4.16211         1.16401
LJ          -4.55207          1.3668        -2.71141
LJ           4.41441         5.89922       -0.725671
LJ          0.772082          2.5096        -1.74034
LJ          -5.90611         1.18083       -0.819337
LJ          -5.59742       -0.315356        -5.91931
LJ          -4.99368        -1.77118       -0.272528
LJ           0.80712        -2.66689         2.46204
LJ           -1.8787         0.58737         4.52593
LJ          -2.81093        -4.32277         2.66028
LJ          -4.48155          4.6003        -3.64213
LJ           4.81491       -0.514543         3.01586
LJ           1.02362         3.27052         5.31805
LJ          -5.91146        -3.24305         -4.6325
LJ           -1.0076         4.70566        -1.11727
LJ          -3.88631        -2.87828        -5.82706
LJ           3.90084        -2.46027       -0.631305
LJ           5.55654         3.03929         5.46055
LJ          -5.63148        -4.26515        -5.64893
LJ          -5.74738         5.09555         3.51737
LJ          -1.48356        -2.06685        -3.72444
LJ          -4.56264        -2.07386         3.32049
LJ           6.18737          3.9141         1.77718
LJ          -2.65141         6.32609       -0.665424
LJ           5.22726         5.23203         3.99107
LJ           2.56558          4.4844         3.68266
LJ           4.41253         5.54899         2.91748
LJ           2.57225         5.86313         5.96649
LJ           2.83683        -6.21951        -3.26738
LJ          -5.90617        -2.33138        0.786552
LJ           1.49423         3.94116       -0.963609
LJ           -3.2131          5.1777        -1.67229
LJ          -4.93398          5.3066        -2.46031
LJ          -0.20817        -3.04426        -4.32941
LJ           2.19758         3.31891        -3.72878
LJ         -0.556057         3.25133        -2.65313
LJ          -4.14957         1.17745        -4.47312
LJ           5.84703        -2.84565          4.6497
LJ            6.1274         5.45636        -1.83042
LJ           1.52149        -0.58584         4.36114
LJ           5.75317        -2.90589        -1.49587
LJ          -1.25524         2.23924        -3.47975
LJ            1.0647         5.61932        -5.92461
LJ          -3.71973         2.26219        -1.41143
LJ           3.02874        -2.61485         1.92086
LJ           3.05079        -1.11871        -5.33485
LJ          0.140441        -6.36621       -0.526236
LJ          -3.13446        -3.22153         2.75525
LJ           -4.6847        -3.54412       -0.358115
LJ          -1.59138        -1.79367        -6.27455
LJ           2.87789        -6.18201        -6.44435
LJ           3.60373         3.87693         3.20763
LJ           1.72163        -3.72881         1.08252
LJ          -3.90861         1.98423        -2.95768
LJ           6.20882         3.11458          4.4242
LJ          -5.98977        -2.76594        -5.62307
LJ          -1.60888        -3.69327       -0.892975
LJ           1.63135         3.06452        0.165019
LJ          0.651681         3.20551        -6.42719
LJ          -2.36915       0.0484717        -2.19807
LJ          -2.37735        -2.35186       -0.792038
LJ           3.27001         -1.5616         6.30781
LJ           2.76681        -1.04959         4.72044
LJ           4.06748        0.150901         5.78994
LJ          -1.53223         3.40463         5.02313
LJ           3.34497        -3.46997        -1.78373
LJ           -5.5511         -3.3419         4.81991
LJ          0.388129        -1.06921        -1.67864
LJ          -2.12571         6.30989        0.382142
