108
#Comment!
LJ           0.70805         -2.5635          1.8346
LJ          -2.03633        -6.44601        -5.93596
LJ           6.20177         2.87312        -3.92574
LJ            4.8874         -3.1728        -1.77108
LJ           4.08237        -1.29119        -6.39629
LJ          -4.30507         1.07087        -1.04445
LJ            3.6622        -0.50363        -1.53345
LJ          0.129982         5.05089         1.88085
LJ          -2.45994         1.16511        0.889444
LJ          -5.56475         5.82303         5.71637
LJ            -1.939         1.39302          5.7061
LJ           4.86451         3.43947       -0.776544
LJ           5.90562        -3.92262        -4.85711
LJ          0.903464        -5.30207       -0.978971
LJ          -4.00988         2.77989        -4.21916
LJ           4.76444        -1.58476         4.40037
LJ          -6.05121       -0.350898        0.646223
LJ           3.33904        -1.11078         0.81922
LJ           1.11317        -4.37874        0.299582
LJ          -3.22577       -0.239198         2.80754
LJ          -0.87524        -3.71781        -5.76988
LJ          -6.30794        -5.52641        0.987217
LJ           6.41874         2.98996         6.24729
LJ           2.28003        -3.97485         -5.0079
LJ           2.59906         4.51083         5.26333
LJ           2.35374         3.35628        0.903363
LJ          -3.08578        0.609026        -3.93513
LJ          -2.94769        -6.17102        -3.34957
LJ         -0.202865        -4.59728         1.40006
LJ         -0.912873        0.357916          2.4453
LJ           5.64901       -0.743928        -4.31824
LJ           1.26765         1.14499         2.36711
LJ          -2.13865         3.05619        -2.92658
LJ          -5.02499         2.66587         6.08985
LJ          -3.15529        -4.50468         5.82747
LJ          0.230098         6.03275         2.37673
LJ         0.0499113        -1.85064        -2.24827
LJ          -3.27587        -1.79285         5.61196
LJ          -4.27961        -6.03724        -2.16169
LJ          -4.57689        -1.86583         5.70717
LJ          0.358382         5.01319         4.09635
LJ          -2.79952         1.02563        -2.85645
LJ           1.07023        -4.49739        -2.91148
LJ           1.89475        -4.53896         1.83909
LJ          -2.77286         1.93163        -2.07501
LJ           5.98263        -6.42291         3.39513
LJ          -3.17061         1.30006        -5.12464
LJ           4.05265        -1.82134       -0.801649
LJ          -4.40065        0.101907         1.70193
LJ           0.61965        -5.62577         4.96155
LJ           4.66249        0.710781         1.78245
LJ          -2.80948        -2.73559         2.10156
LJ          -5.92892         3.57675      -0.0125224
LJ          -4.21008        -1.56014        -2.05341
LJ           5.07901         1.93961       -0.672289
LJ           2.97971       -0.113225         6.10326
LJ          -6.00092        -6.13362        -5.60803
LJ          -1.40247         6.41113        -1.18919
LJ           4.15193        -4.96983        -1.78713
LJ           5.60268        -5.71572        0.949993
LJ           3.63747       -0.448738        -5.17324
LJ          -1.29796          -3.581         3.81809
LJ           4.42942        -3.94913        -1.10408
LJ          0.437023        -6.03073         1.79656
LJ          -3.57139         3.78153         3.86183
LJ           6.09818        -4.41363         6.15977
LJ           6.36277        -1.36865        -5.04319
LJ          -2.99043         5.42435         2.60548
LJ          -4.07302        -1.37786         4.73719
LJ           1.25913         4.50639         2.04836
LJ           3.98467        -1.48325        -3.30663
LJ          -1.79363        -1.60887           1.995
LJ          -3.20583        -2.36316        0.211076
LJ          -5.90564        0.410044        -2.96462
LJ          -5.41223        -4.03526        -2.68474
LJ           3.54816         3.49891        -1.45263
LJ           2.56613        -2.11036        -4.79108
LJ          -1.49894        0.615687        -4.45087
LJ            2.5082         5.02099        -5.57034
LJ           3.53697        0.153095        0.596346
LJ           4.34489         -6.2168        0.917223
LJ          -2.31451        -4.91956         6.17156
LJ          -1.85183        -3.12683        -2.99508
LJ           3.57775         4.66358        0.502045
LJ          -1.88887          4.1075        -1.48443
LJ           4.83765        -5.81498        -4.99315
LJ          -2.23743        -4.02534        -1.72161
LJ         -0.989729        -4.27865        0.636247
LJ          -0.12393        -6.45389        -1.42922
LJ           3.06878         2.45618        0.316719
LJ           3.28614        -1.94094        -4.21224
LJ          -4.93922       -0.292576        -1.82536
LJ           2.86196        -4.56286        0.524627
LJ          -3.64783         4.41994          1.4264
LJ           6.33242        -4.88324         -3.0682
LJ           4.21959        -3.09335        0.996572
LJ           -6.4466         1.78673        -4.14578
LJ           1.48487         -3.0015        -2.76075
LJ            1.4398        -6.38962         5.22891
LJ           1.28827         6.43924        -2.28676
LJ           5.78294        -5.13509        -5.18102
LJ           3.70334         3.51573         5.21684
LJ           4.01085         -1.4129         3.53966
LJ           1.19161         1.09564        -1.56461
LJ          0.198028         3.97317        -1.28526
LJ          -5.12496        -4.42674         2.12186
LJ           6.20641        -1.47388        -3.53573
LJ           3.89715         3.31777       -0.234999
