108
#Comment!
LJ           4.76006          2.1499         -2.5044
LJ          -4.93379        -3.05548        -5.77874
LJ            6.3776         3.33293        -2.41333
LJ           4.74625         3.21465          4.7386
LJ         -0.243681          -1.856          5.1209
LJ           3.98648        -2.67715        0.837644
LJ          -3.48569         5.78135         1.58393
LJ         -0.865988         4.25272         3.42029
LJ           3.57067         4.16109         -0.7582
LJ        -0.0134617        -2.08307        -6.01582
LJ           -4.0309        -1.83009        -5.12363
LJ           -6.1845          4.7072        -3.56023
LJ           2.91531         3.50586         4.69138
LJ           5.92153         4.66967        -5.73763
LJ           -1.6166         2.88811        -3.22874
LJ          -2.64748        -3.66107         2.89048
LJ          -2.02749        -6.05055         3.75354
LJ          -3.00591        0.813363         3.52256
LJ          0.441675         5.11842         6.34725
LJ           4.27698        -1.94278        -1.22037
LJ           2.16946        -6.44557         3.93452
LJ          -1.82222         4.67436         1.35845
LJ            4.8785        -5.80141        -1.10837
LJ           3.68112         2.52869        0.211863
LJ           4.53666        -6.37819        0.830668
LJ          -1.54137       -0.623873        -4.16504
LJ          -2.06659        -4.47368        0.599831
LJ           1.12326         3.11692         3.63555
LJ           4.66987        -4.14966        0.851995
LJ          -2.64549          1.3418        -6.06348
LJ          0.297534         2.57156         2.12376
LJ         -0.250649         1.56725          4.0038
LJ           6.41775         4.71756          2.2381
LJ          -3.54297        -5.94107         -3.1569
LJ           2.74874          5.2738        -2.16376
LJ          -1.48096       -0.334713         1.05426
LJ          -4.81542        -1.62947         3.94247
LJ          -6.07753        0.796452         1.09751
LJ          -3.25434          -6.094         1.56174
LJ          -1.92024        -2.75437         5.63151
LJ          -1.06205        -2.67604        -2.91446
LJ           5.93531         2.18867        -2.18716
LJ          -6.34894         3.62165         2.44338
LJ           3.36346        -6.24855         6.26802
LJ           6.14307         2.64716       -0.135423
LJ            5.7169        -4.23622         2.63629
LJ           3.75708       -0.966018       -0.688917
LJ          -3.74006        -4.51771       -0.744101
LJ           1.05477         2.09253        -6.06809
LJ          -4.26257       -0.674473        -4.04159
LJ           4.09912        0.539918       -0.665548
LJ           1.50934        -4.57847        0.772929
LJ           3.40988        -3.52688         5.55084
LJ           -0.1417       0.0930481           2.986
LJ         -0.772238       -0.277228       -0.978302
LJ         -0.275974         2.40332         1.09389
LJ          -6.23712         4.16281         1.06955
LJ         0.0249853          1.1014        -3.18163
LJ           6.34188         4.83291         0.34605
LJ           4.63554         5.96574         3.49033
LJ           3.46124         5.92633        -5.82079
LJ          -4.85438       -0.859324         4.63577
LJ          -3.65929         3.50829       -0.711948
LJ           4.53381        -3.28863         0.28384
LJ         -0.902301        0.763759        -2.87534
LJ          -3.34037        -4.25463        -2.21381
LJ          -1.72903         3.10204          2.9288
LJ           5.34763        -2.16943       -0.800266
LJ          -4.87327         4.03319         3.32418
LJ          -3.73535        -3.09506         6.40355
LJ           2.20073        -4.07859         6.44628
LJ           0.37891        -1.46166         6.10312
LJ           2.96678         -1.6155         4.01095
LJ           5.80384        -2.71834         1.15803
LJ           4.38149         4.12607        -2.60608
LJ          0.204703         4.93226        -4.38323
LJ         -0.985674         4.51135        0.537392
LJ         -0.164746        -1.64554        -4.73529
LJ           1.49992        -2.61229         4.08717
LJ          -5.35341         5.84148        -3.43404
LJ           3.36059       -0.229051         5.79539
LJ          -5.81062        -1.22507         6.00275
LJ         -0.340266        0.497264        -4.39848
LJ           1.53641           4.122         0.20068
LJ           -5.1523       -0.356957        -4.50026
LJ           3.67947         2.44171        -1.14955
LJ          -2.30746       -0.453889         3.67686
LJ           6.44062         5.79417        -6.24484
LJ           1.56289         4.66204         -1.6533
LJ        -0.0939316        -5.53739         3.32788
LJ           1.41762        -5.54339        -2.02363
LJ           6.23996        -5.02367         2.05567
LJ           5.16243        -5.44141        0.210741
LJ           5.20612        -5.88475         2.78463
LJ          -1.19616         2.16553         4.98043
LJ          -4.44244        -1.60984        -4.16801
LJ          -4.98305        -3.84285        0.777508
LJ         -0.101604        -2.54489         5.93151
LJ             5.312        -4.53701         4.27138
LJ           1.08493            3.08         4.55913
LJ           2.78691         2.17349        -2.24809
LJ           3.27543        -4.58038         3.17946
LJ          -1.84516       -0.491605        -1.47956
LJ           2.88474         3.47293        0.678938
LJ          0.521226        -3.01789         1.08526
LJ          -2.14221         -2.2361         4.49111
LJ           -2.4485          2.9133         6.08982
LJ          -1.27932        -5.98773        -1.97468
