108
#Comment!
LJ           3.56672         3.00129         -2.7703
LJ          -4.87822        -2.63593        -6.02824
LJ           5.29514         3.12521        -1.90091
LJ            5.8247         1.87924         5.45899
LJ         -0.782434         -3.4532         5.39304
LJ           3.67667        -4.06668         2.02063
LJ           -3.9426         5.91506        0.931509
LJ           1.12411         4.43639         4.07478
LJ           2.60955          4.6935         1.08002
LJ         -0.492137       -0.915818        -4.29078
LJ          -4.36604        -3.35869        -4.49242
LJ          -5.88795         4.30149        -3.51357
LJ           4.69466         2.16961         5.43443
LJ            3.9317          4.7374        -6.09014
LJ           -3.1528         2.97971        -3.17501
LJ          -2.14598        -4.53945         3.16558
LJ         -0.953903        -6.07119         3.83313
LJ          -4.73885         2.38091         3.90621
LJ          0.616116          4.7843         5.14174
LJ           4.06057        -2.07646        -3.15463
LJ           2.35154         6.17203         3.25441
LJ          -1.70663         5.00763         4.12977
LJ           4.19707        -5.07613       -0.588546
LJ           4.24661         1.64757      -0.0466205
LJ           4.50087         6.39879         1.16483
LJ          -2.04095       -0.795278        -4.96614
LJ          -2.24763        -3.57928         -1.1955
LJ         -0.583678         3.30592          3.1952
LJ           6.01599         -3.6667         1.09388
LJ          -1.12113        0.900659         4.99077
LJ           1.72784         2.95183        0.817701
LJ          0.204564          1.6428         3.28453
LJ           4.36099         4.04419         1.37642
LJ          -5.28513         5.97651         -2.9041
LJ           1.86819         6.19105        -1.65287
LJ          -1.60583        -1.59247        0.599711
LJ          -5.46653       -0.522252          2.6424
LJ          -6.07074         1.82253        0.135562
LJ          -3.74377        -5.74776        0.673033
LJ          -1.54606        -3.57712        -5.92381
LJ          -1.54169         -3.7488        -3.25987
LJ            4.5177         2.62887        -3.57817
LJ          -5.89001         3.35189         2.35917
LJ           4.73504         5.31765         6.14419
LJ          -6.03942         3.48126        0.746526
LJ           5.70557          -4.258          2.4914
LJ           3.48929        -1.33952        -1.79361
LJ          -4.48955        -5.26175       -0.951493
LJ         -0.258819         4.36761        -6.27233
LJ          -3.63364        0.212996        -2.56169
LJ           2.99649       0.0184973        0.611826
LJ           3.17561        -4.02283       -0.123102
LJ           2.42622         -4.1972         4.79571
LJ           0.88985        0.705575         2.56205
LJ          -1.90173       -0.641711       -0.884582
LJ          0.739839         3.40723       -0.577977
LJ          -4.76677         2.01619        0.871835
LJ            1.2781         1.00166        -3.11697
LJ           -5.9797         5.35539      -0.0160429
LJ           4.58628         5.64001         4.25623
LJ           4.50936        -6.13319        -4.91082
LJ          -3.07449       -0.204959         4.81596
LJ          -3.10977          1.9999         1.25175
LJ           6.06892        -3.47431       -0.671497
LJ         -0.482087        0.103155        -4.40989
LJ          -5.00364        -4.08581        -3.35507
LJ          -1.71181         4.49665         1.87263
LJ           4.11859       -0.879216        0.649731
LJ          -5.29858         4.61438         1.72059
LJ          -5.23048        -3.80223         4.92204
LJ           4.07911        -4.27831        -5.41591
LJ          0.181577        -2.51804         6.40072
LJ           3.20654        -3.16185         2.05014
LJ           5.60085        -2.51062         2.76801
LJ           5.07587         5.08706        -1.50306
LJ           1.66211         5.17266        -5.08086
LJ         -0.553304         5.25848         0.90497
LJ           1.73245        -1.86234         -3.7035
LJ          0.391653        -2.83388         3.54465
LJ          -4.96104         5.11576       -0.802282
LJ           2.36065         1.93874         5.67819
LJ          -6.14269          0.6764        -6.43593
LJ         -0.184926         1.90643        -4.75198
LJ           2.09583         3.56562        -1.19199
LJ           5.97035        0.814733        -4.56541
LJ           3.95182         3.07704       -0.804821
LJ          -3.33906        -1.92212         4.12085
LJ           5.70486         4.84222         6.44124
LJ           1.12409         4.89197        -4.17329
LJ           1.69986         6.21011         4.21325
LJ           0.12772        -6.41827        -1.59382
LJ           6.23086         -5.3195         1.93621
LJ           4.52787        -4.79083         0.55136
LJ          -6.18547        -5.31876         3.21729
LJ          -1.59967         2.13128         5.13278
LJ          -3.40636        -2.86869        -2.90993
LJ          -5.02121        -4.76617         1.61521
LJ         -0.149576        -3.12287        -5.46305
LJ           6.02495        -3.61611         4.96789
LJ          0.837135         1.92389         5.36333
LJ           2.71305         3.45811        -2.23756
LJ           2.34698        -3.61284         2.57011
LJ          -2.27973       -0.134461        -2.63263
LJ            2.8916         2.80568         1.75843
LJ          0.389499        -1.90063           1.096
LJ         -0.845934        -1.53335          4.0462
LJ          -1.00838         1.81639        -6.06049
LJ          -2.33602        -4.88369        -1.89028
