108
#Comment!
LJ           4.08048        -3.65209        -3.57666
LJ         -0.836601        -3.75763         5.25588
LJ           5.07921         2.54056        -0.35596
LJ            6.2415         1.78808        -1.53718
LJ          -5.55043       -0.529249       -0.383274
LJ         -0.649659         4.94275         5.69148
LJ           -5.4198         3.67467        -3.13452
LJ           4.33036        -3.85848        -1.70618
LJ           -3.6602        0.910285         3.91054
LJ           4.08207         3.19968        0.692125
LJ        -0.0795862       -0.218982        -2.79887
LJ           2.19757       -0.913598         2.18716
LJ         -0.588307         4.46656        -3.95146
LJ          -3.42133         5.49155         5.42595
LJ          -2.34701        -3.84234        -3.27248
LJ           2.71621         4.99515         4.17994
LJ          -3.83123        0.610465        -1.05275
LJ          0.361331         0.70817         5.89343
LJ          -4.18867        -2.53548        -3.47179
LJ          -2.85846         4.88068        0.102332
LJ           1.08703        0.930295        0.866301
LJ          -1.48898         6.17061        -1.90409
LJ          -6.03571         4.80231        0.872706
LJ           6.38862         3.83649        -2.19851
LJ          -6.08307         6.25714        -6.32012
LJ            -3.108          2.7241        -4.36496
LJ         0.0948086          1.9266       -0.980176
LJ          -1.33788        0.900012       0.0140782
LJ          -1.21336        -5.63767         3.48253
LJ          -1.92338       -0.330751        -0.29234
LJ          -5.36932         5.70468         3.37154
LJ           2.46613        -5.68422         2.91311
LJ          -5.14101        -2.06496        -6.23131
LJ           3.94168         1.15636         5.38973
LJ            1.9013         5.68462         4.30587
LJ           4.96649        -5.59919        0.227646
LJ          -1.58139        -3.60812        -4.89448
LJ           6.11716          3.6759         4.91758
LJ           -4.3996        -1.78647         3.26681
LJ           2.93499        -4.19158         2.45603
LJ           -4.9191       -0.348305         5.97583
LJ           5.28835         1.38454         1.08731
LJ          -2.03324         2.54855         4.81974
LJ           4.40888       -0.887545         -2.8911
LJ          -3.92207        -1.24348         4.83705
LJ           -6.2168        0.714959       -0.316654
LJ           3.42335         6.42294         1.75747
LJ          -2.95045       -0.703595         1.56997
LJ          -4.91608        -4.03638         5.76274
LJ          -3.81269         4.35053        -1.32344
LJ          -3.48155         1.04832         1.82699
LJ           -1.7361        -6.27242         4.13675
LJ          -2.07339         -3.3816        -4.10538
LJ          -3.48419         2.51793        0.757641
LJ          -5.18875        -1.03527         5.15958
LJ           2.54251        0.673462       -0.464688
LJ          -1.10208         4.32702        -5.21283
LJ          -3.41136        -2.29788        -5.12867
LJ          -5.01545         4.57863         3.13564
LJ           1.49688       -0.766045        -3.61295
LJ          -1.63376         3.84246         2.80168
LJ           3.56857         3.42125         2.83808
LJ          -2.00353          5.2653       -0.698083
LJ          -3.46135         4.20018         4.63013
LJ           1.45041         3.55696         1.79379
LJ           3.48389         4.43988         3.59336
LJ            4.8946          4.3324         6.41001
LJ           3.34219         4.72858          5.4574
LJ           2.14664        -5.60246         1.02039
LJ          -1.70828         2.26999        -1.73854
LJ         -0.532382        -5.84588        -4.75262
LJ          -3.84164         2.97923        -2.85297
LJ         -0.853237         -3.2599         -2.5974
LJ          -1.30647          5.0808        0.816567
LJ          -1.95576         2.82782        -3.78887
LJ          -2.68097        0.417203        -6.09302
LJ          -5.70184        -4.02168         1.74701
LJ           5.37249        -6.13875        -2.55494
LJ          -2.14603        -1.54813         5.69488
LJ           5.48514        -3.03647         -2.6853
LJ          -1.27331       -0.270995        -2.01965
LJ          -1.73424         5.24516         -5.4391
LJ          -2.69124         1.94688        -1.96885
LJ        -0.0154257         5.65144         2.47311
LJ           2.61154         1.72112        -4.95909
LJ         -0.351013        -5.99297        0.843536
LJ          -5.25186        -5.13639         5.59949
LJ          -4.37252        -3.02473         1.32843
LJ         -0.524421       0.0224771        -4.09889
LJ           3.82848        -2.28858        -5.97158
LJ          0.600971         2.36141         3.55038
LJ           2.49486        -3.85771         1.67287
LJ         -0.270092         3.20126        -4.67902
LJ          -3.44547         3.06559         5.85768
LJ          -5.93393        -2.13984        -3.18982
LJ           2.34537        -5.28205       -0.816128
LJ         -0.954843         2.00023       -0.394746
LJ           2.97552       0.0065304        -5.99292
LJ          -1.72041        -3.12017         1.74071
LJ             6.362        -4.96939        0.792157
LJ           4.50417      -0.0453866         4.19708
LJ            2.4429         1.18337        0.465302
LJ           3.69852       -0.295993         5.03359
LJ          -3.94081         -6.2675         5.47666
LJ          -1.13299        -5.80234        -6.15548
LJ           4.39787        -2.15181        -4.48711
LJ           4.12883        -4.54763        -5.59046
LJ           1.75239        -4.62881         2.77683
