108
#Comment!
LJ          -2.89169       0.0941879        0.486973
LJ          -3.52074        -3.57616         -5.5872
LJ           5.21226         3.14578        -2.68419
LJ         0.0268254        -6.39828         2.32915
LJ           1.81793          4.2028        0.565654
LJ           4.16147          1.6157         1.25735
LJ         -0.429682          3.4622         1.57418
LJ           6.25329         1.78223          1.8812
LJ           5.62621         2.38042         -5.8975
LJ           2.11944        -2.69682         5.45694
LJ          -3.63047         1.00424         5.06781
LJ          -6.01296         6.26785        -4.06368
LJ          -1.57836         6.25566          4.5759
LJ          -2.70577          5.4053        -4.03595
LJ           2.49255         2.59407        -3.19589
LJ          -4.87497        -1.80082         2.93538
LJ          -4.87992         5.84488          3.5013
LJ          -5.21213          0.2262         1.50544
LJ          0.366761        -5.94181        -4.05239
LJ          -6.35867        -2.84736         4.03574
LJ           1.48842        -5.50812         5.92877
LJ          -4.77438         5.37638        -5.01535
LJ           6.36382         4.66289        -3.26003
LJ           3.17356         4.91119         -1.8616
LJ           3.69746         5.58665         2.57905
LJ          -1.19566         1.05462         -1.9136
LJ           -2.5673         5.14411         4.85402
LJ          -6.35121         2.89809       0.0422489
LJ           2.28013        -4.67158         1.26162
LJ          -3.51118         1.46695        -1.70676
LJ          -2.73733        0.245315         5.32445
LJ         -0.122516        0.106488         3.56243
LJ          -2.91011         3.73456         4.43846
LJ           2.10543        -1.86004        -4.67464
LJ           5.59512         1.08881         -3.8126
LJ          -1.07469         2.54252         1.73707
LJ          -3.04142        -4.65278        -5.52669
LJ          -5.82726        -1.53714         3.75194
LJ          -3.69835          6.2106         4.91282
LJ           -3.4075        -3.20654         6.19616
LJ         0.0753833        0.689578        -1.28949
LJ          -5.00913          1.5905       -0.814283
LJ           4.31266         4.95437         6.22165
LJ            0.4547        -3.25851         5.98198
LJ           5.63039         2.41157         -1.9231
LJ           4.73278        -5.94558         3.74992
LJ          -6.36819         1.76901        0.218101
LJ         -0.720113         -2.6666       -0.825991
LJ           3.75536        -4.31501        -1.81417
LJ          0.681139        -2.02641        -5.15299
LJ          -5.93053         1.67017        -5.54665
LJ          -1.47016        -4.26684         2.22057
LJ           6.26827        -4.90003         -4.6637
LJ          0.490199         2.00157         4.14523
LJ           2.29273        0.693915       -0.839972
LJ          0.284969         1.15405         3.47056
LJ          -6.13041         6.08893         4.66377
LJ           -1.4603         2.81695        -2.73833
LJ           2.34112        -3.54752        -4.07051
LJ           4.78799        -5.91073         2.13037
LJ           2.14197        -6.01921        -6.07199
LJ           6.20982        -1.39135         5.35437
LJ          -5.90887        -5.44084        -6.41526
LJ           3.12469        -4.40349        0.576421
LJ          -2.98787         1.52841         2.22302
LJ          0.557859        -4.61963         1.92466
LJ            -2.803         1.09794          5.9661
LJ          -5.67937        -5.04568        -4.54043
LJ          -4.83802         1.66762         4.64859
LJ         -0.129307      -0.0781636        -1.89174
LJ          -2.80693         -2.8416         2.68854
LJ         -0.836449        -1.55338           4.346
LJ           2.07171        0.933804         -3.2403
LJ           5.84927        -3.36257        -2.50707
LJ            3.7938         3.05375        -3.69022
LJ          -3.93105         4.36176        -2.65976
LJ          0.399557         1.44374        -1.86251
LJ          -6.17276        0.151905         4.94591
LJ           2.95645        -2.81684         6.27353
LJ           5.50099         4.68144         3.00599
LJ           4.46254        -4.11464         3.67013
LJ          -4.10248        -4.87924         4.51851
LJ         -0.480725        -1.48649        -3.51608
LJ          -3.31551          5.7469         2.59833
LJ           6.21424        -3.32888         5.09907
LJ           5.22511        -0.64248        -2.70487
LJ          -1.17303        -3.14654        -5.09232
LJ          -4.53902        -4.97793        -4.58351
LJ          0.381955         6.39949         6.10195
LJ          -4.23557       -0.851769         2.31625
LJ           4.12863        -3.47174        -3.06107
LJ          -5.82174        -4.23777        0.584781
LJ          -5.43939        -4.89396         -1.4839
LJ           1.37622        -6.33802      0.00452668
LJ          -3.22419         5.12268        -6.10354
LJ           4.81013        -3.26042         4.40505
LJ          -4.93399        -1.37495        -1.68147
LJ           1.00773        -3.00174         1.13584
LJ           5.26719        -6.42706          2.8723
LJ           1.17638         3.34891         3.42848
LJ           3.92655        -1.40238        -2.88109
LJ           3.19587         5.57629         4.31647
LJ         -0.629015         -1.0708         1.06558
LJ           4.11269          4.0435         -2.2175
LJ          0.970301         6.33683         1.06969
LJ          -5.49323        -2.72407         1.40984
LJ          -5.39407         6.25877        -4.94885
LJ            1.6755         3.83322        -2.21355
