108
#Comment!
LJ           2.20502         5.88289         6.39218
LJ          0.314367        -2.63468         6.20292
LJ           -3.8267        -2.48515         -4.2497
LJ          0.609538        -3.71012         -4.9216
LJ           5.95006        -3.08115        -5.97582
LJ            5.9382        -2.06819         4.56403
LJ           5.75753        -4.57147        -2.06411
LJ          -5.28787         5.17772        -1.78841
LJ          -3.79068         4.55618         4.85432
LJ           3.68998        -5.48127         5.84542
LJ           5.10534        -5.61141         6.37895
LJ          -3.66114         5.17181        -3.51832
LJ           1.51739        -1.09037        -5.15922
LJ          0.808337       -0.923773        -6.27215
LJ           1.72247         1.13509        -2.37865
LJ           1.87902        -3.86588         -1.5676
LJ           2.98412        0.835029         5.93487
LJ           5.24051        -3.37668         5.93195
LJ           1.41683         -3.5673        -2.77606
LJ           2.06849        -6.37335         4.18858
LJ          -1.22905        -3.27027         6.10406
LJ           1.93447         4.96355         3.02978
LJ          -1.42277       -0.982005          -4.588
LJ          -3.81171        -1.54648          -2.357
LJ           0.31977         6.04635           5.739
LJ            1.3013         2.42486        -5.93442
LJ          0.309968        -4.51761        -4.43677
LJ           1.53737         1.13278         6.27453
LJ           6.21062         1.24672         5.16443
LJ           5.53217         2.00137        -2.07037
LJ          -6.27773          3.7052         -3.4236
LJ           6.24268         2.84019        -1.62465
LJ          -2.99602         2.18375         4.62042
LJ         -0.494698         2.26557        -5.14652
LJ           -3.8867         6.01661         4.88094
LJ          -1.52295       -0.154779         -2.6958
LJ           2.56295         4.81073        -1.90881
LJ          -1.56453        -5.45853        -3.46276
LJ           2.36832        -4.14674       -0.294639
LJ            0.7312        -5.63403        0.350619
LJ           5.80544        -6.12832        -1.67917
LJ           4.78435        -5.47803        -4.70059
LJ          -3.62221          4.8322        0.171644
LJ           2.92778         5.58476         3.17973
LJ          -5.39005         5.89295        -5.77342
LJ           5.08926        -5.07728           4.279
LJ          -5.10988         4.40887       -0.998173
LJ          -4.09318         6.23682        0.445193
LJ           1.76989        -2.28672        -3.24947
LJ            2.3886         2.46436         6.33542
LJ          -1.71927         5.21164         1.37498
LJ         -0.162164        -1.22463       -0.449021
LJ          -1.00676        -2.95469        0.176655
LJ            5.7236         1.52198       -0.128636
LJ           5.08907       -0.893609       -0.495951
LJ           4.72495         2.93227        -1.52923
LJ           1.62701         -3.8777          5.8888
LJ          -4.40036        0.556242        -2.69685
LJ           4.85919          3.9455        0.739814
LJ          -1.41217        -5.41018       -0.783044
LJ          -3.75602         4.34207        -1.66683
LJ          -5.21367         1.47156         2.51389
LJ          -2.58251        -6.07849        -1.83222
LJ          0.956604         1.60768        -3.53265
LJ           4.53459         5.56391        -2.45158
LJ          -4.56531         4.97682         1.39975
LJ           5.73787         4.61759         3.78969
LJ           5.16471         1.40755         0.71001
LJ           5.28389         5.43944         5.63792
LJ           1.65536       -0.495847       -0.974502
LJ           5.50726         5.17674        -2.15275
LJ         -0.369113         4.12981        -2.11164
LJ           1.07253        -6.06668         3.45378
LJ           4.41117        -3.58203        -1.37821
LJ          -1.13476        -5.65962         3.66924
LJ           2.83622         3.51674           4.334
LJ           2.83569        -5.33899          3.2769
LJ           4.66351        -4.73666         2.95931
LJ          -1.28436        -3.94036          1.7832
LJ           4.34687        -2.79109         3.42819
LJ          -2.41412         5.83926         3.39368
LJ          -3.88009        -5.65106         2.08214
LJ          -1.98388        -4.08957         4.62791
LJ          -4.05738        -6.32674        -5.71186
LJ          -2.44763         5.77007        -3.34695
LJ         -0.861321        0.396801         1.54389
LJ            1.9574         4.13449         5.54494
LJ         -0.411712        -1.44939         4.10773
LJ          -3.15672         2.39347         3.05267
LJ           5.61406       -0.865294         5.23549
LJ           6.04501         2.34368         1.90164
LJ          -6.24566        -4.27471         3.87747
LJ          -2.12341        -2.37658         1.65524
LJ          -4.21365         1.17629         2.55297
LJ          -3.70283         1.11747         3.88098
LJ           3.95611         2.37128         5.75987
LJ          -3.15642         2.68008          5.9316
LJ          0.968946         5.78032        0.967091
LJ          -2.92242         6.34542         5.26388
LJ           1.41611        -2.07811          4.2431
LJ           1.16004        -1.54516         5.90533
LJ          -2.59827         1.85299       0.0193077
LJ           5.64261         2.41942         5.66246
LJ           5.40286         0.49484         4.71346
LJ          -3.04681      -0.0363414         2.45022
LJ           1.35752         3.07166          2.7713
LJ           -2.9573         4.69264          5.7807
LJ          -3.16708      0.00423495         3.66799
