108
#Comment!
LJ           2.32743         4.45693        -3.39542
LJ           5.02495         4.94739          6.4076
LJ          -2.40034        0.740353         5.61538
LJ           6.08418         5.29107         4.44404
LJ          -3.71166       -0.285219         2.77767
LJ          -1.71174        -5.21726        -4.79141
LJ          -4.89429       -0.824626        -2.98696
LJ           6.21763         3.77858          1.4066
LJ          -3.41616          3.8374        0.392758
LJ           5.99652        -4.08216         0.49966
LJ         -0.316329       -0.593132        -3.27702
LJ           3.96427         -5.1704         1.69522
LJ           5.92545        -6.37979        -4.78211
LJ          0.983907        -3.53768         3.15261
LJ           4.63478        -5.22279         5.06656
LJ          -4.97735         4.57484         6.17798
LJ           1.75175        0.119366        -1.34337
LJ          -1.78474        -4.24661        0.438945
LJ           5.64358         4.76199         5.62306
LJ          -3.09431        -2.52025         1.74296
LJ         -0.453806         -1.9371         6.29358
LJ          -4.84395         6.36624        -5.54036
LJ          -1.18559        -3.32768        -1.69491
LJ          -6.31592        -6.40117        0.335155
LJ           -5.6185        -1.31269       -0.781383
LJ           3.56389        -5.70122        -2.53693
LJ           2.18145         5.89736         5.73359
LJ           4.97334        0.615987         1.85991
LJ           1.58881        -5.92272         3.90285
LJ           2.82998         2.69867         5.77788
LJ           -2.7471         2.52802        -3.99781
LJ         -0.650043         2.84717         2.49203
LJ          0.145234         4.25087         5.46833
LJ            5.9963        -2.60551        0.252425
LJ           3.55607         3.20041        -4.96564
LJ          -4.07791        -5.68743         3.11083
LJ          -5.36243         4.05403         4.68883
LJ          -3.36262       -0.198442        -4.51409
LJ          -1.16842        0.378021         6.15791
LJ           -4.3819         1.44059        -1.07842
LJ           2.79061         5.60095       -0.420339
LJ           0.39649         3.03974         4.78837
LJ          -5.02912         3.63905        -2.73223
LJ           3.68115         4.60635         -4.6346
LJ          -1.72438        -2.24162       0.0216536
LJ          -4.90413        0.532883         1.98735
LJ           5.82003         6.28855       -0.490827
LJ          -5.88991         1.81219        -1.33866
LJ           5.75373         6.01797         3.49906
LJ          0.768344         4.00104        -5.59627
LJ           2.33992        -2.10814         0.37906
LJ           4.38271        -3.46436         4.80606
LJ           2.86629         -1.7598        -2.68803
LJ           4.33466         1.79457        -1.49844
LJ          -3.02492       -0.325091        -2.08197
LJ           2.61977       -0.251942        -1.65914
LJ           4.69616        -3.16332        -4.68536
LJ           2.29078        -3.22111        -3.42568
LJ           3.47651         -1.2535        -4.98417
LJ           -4.5542         6.26747          4.1456
LJ           -4.0689         4.37411         3.30314
LJ           -6.4456         5.14392        -2.39745
LJ           -1.3209        -5.00231       -0.155973
LJ          -5.29212        -4.38234        -1.84868
LJ         0.0938519         5.14679        -5.06564
LJ           -6.0313        -5.64737        -2.01714
LJ           4.03676        -2.21245        -1.44964
LJ          -3.36172         3.07445        -3.27245
LJ          -3.57945        -1.38731        -5.74001
LJ            4.6396         4.35188        -4.00552
LJ          -1.99118         1.68581        -3.60791
LJ           5.34345         4.19606         1.68336
LJ         -0.809764          4.9503        -4.35277
LJ          -5.05177        -3.71985         2.81411
LJ           3.13683        -3.50975        -2.05536
LJ          -3.89643         4.49032        -1.93247
LJ              1.77         2.07775            2.19
LJ          0.927461        -3.27544       -0.163241
LJ          -6.22309        0.443123       -0.945607
LJ           3.09343        -3.07518         5.49232
LJ           -3.7284         6.33023        -5.72587
LJ           1.61907        -2.32539         5.73445
LJ         -0.170237        -5.78909        0.236289
LJ           2.58782         3.65135         4.36632
LJ           -2.8224        -4.21004        -2.38622
LJ          -3.30002         0.92195        -6.32865
LJ          -0.54863         2.09749        -1.63613
LJ          -4.79929          5.9974        -1.25575
LJ           3.12501       -0.170184        0.111724
LJ          -2.47466         3.57618         1.43706
LJ           2.88066         0.44943         1.62506
LJ         -0.677379        -5.59723         3.14316
LJ          -0.83296        -4.40492        -2.26596
LJ          -2.59772       -0.413107         5.79445
LJ           5.37499         3.18561         5.95237
LJ           1.33751         4.27787        -4.58139
LJ           2.84138        0.210006         6.07939
LJ           2.55466        -0.65999         1.59577
LJ           3.35961        -4.79163         2.68755
LJ           0.34094        -5.87137         5.90307
LJ           5.26392           1.432        -2.87767
LJ          0.397056         4.91002          4.0198
LJ          -4.16433        -1.20083         1.29858
LJ          -2.47279         5.26426       -0.714645
LJ          -3.55601         4.94544         2.14064
LJ          -1.36073         -5.6871         5.52254
LJ           4.19229        -3.57336         3.50055
LJ          -5.34353        -5.84757       -0.289733
