108
#Comment!
LJ          0.785595        -2.65735         1.86302
LJ          -1.98861         6.33779        -5.91745
LJ           6.29578         2.91887        -3.92935
LJ           4.62523        -2.95705        -2.02615
LJ           4.30901       -0.964918         6.17747
LJ          -4.17783        0.968726        -1.10113
LJ           3.74401        -0.51335        -1.75098
LJ         -0.152444         5.15327         1.78547
LJ          -2.23395         1.26077         0.61583
LJ          -5.25736          5.5433         5.91916
LJ          -1.90477         1.40374         5.73801
LJ            4.8977         3.55971       -0.817894
LJ           5.57668        -3.95066        -4.71352
LJ           1.00964        -5.20071       -0.877917
LJ          -3.73398         2.69701         -4.3191
LJ            4.7803        -1.61968         4.57908
LJ          -6.07298       -0.590758        0.494448
LJ           3.16702         -1.2588         0.80671
LJ           1.18208        -4.42321       0.0904061
LJ           -3.1182       -0.213247         2.81531
LJ         -0.971449        -3.65047        -5.71775
LJ           -6.3014        -5.40722        0.752618
LJ           6.34413           2.975         6.06733
LJ           2.34846        -3.96387        -5.20119
LJ            2.7612         4.48737         5.47823
LJ           2.59136         3.49881         1.01017
LJ          -2.99498        0.507614        -4.09488
LJ          -2.81945        -5.92778        -3.53928
LJ         -0.303861        -4.61717         1.40966
LJ          -0.78728        0.492473         2.56719
LJ           5.51255       -0.815578        -4.15489
LJ           1.33643          1.1895         2.32429
LJ          -2.14486         3.01617        -2.67607
LJ          -4.78946         2.83613          6.0093
LJ          -3.06921        -4.63023         5.58824
LJ           0.29148         6.18081         2.52843
LJ      -0.000907327        -1.63897        -2.12432
LJ           -3.1755        -1.75354         5.70299
LJ          -4.23433        -6.00732        -1.91275
LJ          -4.60552         -1.8354          5.8066
LJ          0.204072         5.14995         4.16127
LJ           -2.6741         1.06222        -2.77007
LJ          0.932021        -4.12182        -2.96811
LJ           2.14969        -4.59755         2.03864
LJ          -2.54815         1.94797        -2.12145
LJ           6.04617        -6.45488          3.3082
LJ          -2.99057         1.09834         -5.1727
LJ           4.25925        -1.97539        -0.77344
LJ          -4.19384       -0.245043         1.82503
LJ          0.587153        -5.20122         4.81373
LJ           4.45163        0.593066         1.62614
LJ          -2.87301        -2.72294         2.07595
LJ          -6.02055         3.50888       -0.424673
LJ          -4.38348        -1.69006        -1.72395
LJ           5.16514         1.83805       -0.645173
LJ           3.04489      -0.0667181         6.29388
LJ          -6.00997        -6.14791        -5.55165
LJ          -1.33114        -6.36559        -1.22652
LJ            4.1534        -5.00313         -1.7886
LJ            5.6498        -5.87158         1.08578
LJ           3.66865       -0.260565        -5.18111
LJ          -1.13545        -3.74274         3.74141
LJ           4.21726        -4.09144        -1.34198
LJ          0.310167        -6.03342         1.73649
LJ          -3.45535         3.82321         3.87887
LJ           6.36613        -4.38977         6.28673
LJ           6.18718        -1.42198        -4.97661
LJ          -2.87868          5.2721         2.37579
LJ          -3.96661        -1.40746         4.60543
LJ           1.06928         4.63107         2.34951
LJ           3.89716        -1.37587        -3.42347
LJ          -1.84765        -1.73525         1.96058
LJ          -3.64513        -2.28374        0.283543
LJ          -5.89763        0.583021        -3.07939
LJ          -5.29009        -3.84753         -2.7172
LJ           3.34678         3.41538         -1.3484
LJ           2.31676        -2.23525        -4.99854
LJ          -1.84972        0.588645        -4.22354
LJ            2.4972         4.78502        -5.54212
LJ           3.50284        0.154113        0.591131
LJ           4.38219        -6.19188        0.780912
LJ          -2.16725        -4.94721         6.26958
LJ          -1.89054        -3.22822        -2.95395
LJ           3.44348         4.54251        0.360358
LJ          -2.19991         3.91495        -1.19917
LJ           4.89757        -6.00123        -5.00078
LJ          -2.24962        -3.96719        -1.63883
LJ          -1.07935        -4.28539        0.827586
LJ        -0.0183576         6.30313        -1.31718
LJ           3.01038         2.47295        0.210018
LJ           3.35746        -1.91515        -4.30582
LJ          -4.90935       -0.133408        -1.90122
LJ            2.5511        -4.48921        0.713122
LJ          -3.83915         4.34682         1.57236
LJ           6.23608        -4.73604        -2.91065
LJ            4.4786         -3.0338         1.06337
LJ           6.24842         1.91395        -4.16852
LJ           1.54295        -2.96578        -2.74803
LJ           1.20675        -6.39178         5.40927
LJ           1.24665          6.3369         -2.3403
LJ           5.82107        -5.25248        -5.35116
LJ           3.68776         3.46059         5.24139
LJ           4.03549        -1.39845         3.38969
LJ           1.13035         0.91489        -1.49152
LJ        -0.0508789           3.959        -1.51184
LJ          -5.07338        -4.52963         2.23686
LJ           6.12254        -1.20408         -3.4412
LJ           4.03355          3.3536      -0.0890969
