108
#Comment!
LJ           2.20806        -4.02499         2.19783
LJ             -1.08         4.36696        -5.78081
LJ          -4.90856         4.47653        -4.28663
LJ          0.289861       -0.328377        -5.82958
LJ          -4.83376         4.40771       0.0540491
LJ          -2.89515        0.252176        -3.27753
LJ           2.70262        0.043842        -3.72366
LJ           -3.6186         6.08855        0.577686
LJ           2.52474         3.34692        -1.15357
LJ          0.725636        0.570633        -4.65803
LJ          -1.18829         1.59827        -6.20112
LJ           4.50127         5.13044       -0.332683
LJ          0.629511         -5.6702        -3.78619
LJ           1.80724         5.84833        -2.73607
LJ           0.45477         1.17065        -5.95179
LJ           5.38474         -2.3744         6.28643
LJ            5.1414        -2.85512        -3.78873
LJ         0.0600853        -2.99019        0.607292
LJ           3.77034        -2.19734         1.11795
LJ          -1.97829       -0.779484         2.41825
LJ          -2.00834       0.0868861        -5.91556
LJ          -5.53816        -4.43831        -2.26639
LJ           5.30419         2.72713         2.90305
LJ           3.28515        -3.27176         4.49101
LJ            5.0846         2.33472        -4.39793
LJ           5.62536         5.90247        0.624956
LJ           5.89973        -2.25353           5.372
LJ         -0.465496        -4.79534        -5.88484
LJ          -3.74593        -5.25639         3.13985
LJ           1.45511         2.81732         4.60911
LJ            2.2938       -0.341658         -2.7623
LJ           1.75538         1.83265         1.92881
LJ          -1.66403         4.60185        -2.58644
LJ          -2.02405         6.02722         4.79079
LJ          -1.39694         6.02003          1.7278
LJ          0.359383        -6.12963        -6.35643
LJ          -1.52325         2.19158       -0.112146
LJ          -3.00929        -1.15222        -6.27735
LJ          -4.29499        -4.18403         2.40332
LJ          -4.23108       -0.739405        -5.53266
LJ          -3.22309        -3.60077         6.44525
LJ          -2.02252         1.56145        0.687845
LJ         -0.267397       -0.484197         -3.7287
LJ           6.43453        -5.48491         4.69949
LJ        -0.0872929         3.71468        -4.54047
LJ          -5.88036          5.8343         1.62822
LJ        -0.0236122        -2.40082        -5.56608
LJ          -5.18692        -5.40503       -0.526839
LJ          0.596724        -4.56468         4.63764
LJ         -0.250295         1.67421         1.99493
LJ            3.2678       -0.737079         1.80524
LJ          -4.40418        -3.86963         1.13781
LJ            4.9727         1.48339         5.79628
LJ           6.11211        -4.01288        0.551482
LJ          -6.44114        0.499677       -0.620049
LJ           3.59863       -0.240314        -5.02767
LJ           6.05604        -6.04368        -4.88159
LJ          0.731546         -4.0708        -1.81837
LJ           4.07436         4.93722        -2.98248
LJ           6.24026         4.88117         4.02297
LJ           5.47785         2.29178        -3.45294
LJ           1.80957         -6.1672         1.88703
LJ           0.97072        -4.56163        -3.36066
LJ          -1.50762        -5.60374       -0.810724
LJ          -1.61622         4.42454         4.56295
LJ           -2.1113        -4.32741        -4.16307
LJ           4.76106        -3.68092        -6.24133
LJ          -1.01854         2.67777         2.04503
LJ          -2.05578        -2.01084         2.44908
LJ            0.1035         5.87372         5.84079
LJ           2.29805         1.04137        -4.21409
LJ          -2.99138        -3.63062         2.09221
LJ           4.72387         1.97473         2.83821
LJ           -6.2275         4.05758        -4.86218
LJ          -3.55942        -1.25866        -3.34676
LJ         -0.401043         3.56281        -2.44698
LJ          -1.93508        -4.96808          4.5254
LJ          -1.13674        -0.29505        -3.14146
LJ           2.92971         1.49924        -6.37213
LJ        -0.0393043        -1.37903        -1.97928
LJ           6.10826        -5.70495       -0.983888
LJ         0.0252817        -5.18066        -4.91404
LJ          -2.66105        -4.85507        -1.02359
LJ           2.31662         1.98978       -0.744889
LJ            5.2848        0.628677         3.49813
LJ          -5.77667         4.82949        -6.29099
LJ          -2.29225        -3.20171        -1.44306
LJ          -2.70937        -4.07083         3.60813
LJ           1.48603         3.80166       0.0909759
LJ            3.8643         1.50521         1.67553
LJ           4.46477       -0.814035        -4.56973
LJ          -2.88461         2.38442        -2.28158
LJ          -1.13597        -2.78107         3.88218
LJ           5.93474         3.17093         4.12876
LJ           5.29896        -1.96236      -0.0677063
LJ          -5.02486        -3.93397         4.40743
LJ           2.91454         4.05197        -4.56884
LJ           1.08732       -0.455801        -2.41081
LJ          -3.20787        -6.28514         -4.6529
LJ          0.266538         4.59449        -2.58376
LJ           6.13515         4.79857         6.00415
LJ           3.30714         4.00884        -5.97164
LJ           2.22586        -2.10118         1.41885
LJ          0.805327        -2.26906      -0.0794433
LJ           -4.8653         3.48776        -5.07428
LJ          -4.18852         -6.3274         4.15383
LJ            5.8235         2.46091       -0.335149
LJ           5.47268         4.05177        0.352907
