108
#Comment!
LJ         -0.460324       -0.912004       -0.615206
LJ           4.52721        -1.95384       -0.847988
LJ          -5.46517          2.9084       -0.620145
LJ          -2.33872         4.89216       -0.736767
LJ          -3.39498         5.10032         2.58371
LJ         -0.111813        -1.00287         1.89146
LJ          -2.75014        -3.71506        -2.09331
LJ           -5.4895        -6.05296         1.46366
LJ           1.88556         6.30835        0.204596
LJ           3.89528        -4.33635        -4.87386
LJ           3.31745        -5.92851        -2.63874
LJ           4.76927        -3.37791        -1.04911
LJ         -0.245016        -2.07124         5.76864
LJ           2.37801        -4.41869       -0.152041
LJ          -3.77579          3.5699        -5.85724
LJ           5.30805         3.21093         4.74142
LJ           5.53923       -0.907271         -3.2045
LJ          -5.33603        0.353437        0.963241
LJ           2.26217         3.13922        -4.27776
LJ          -3.23148        -4.73745         5.35606
LJ          -3.48447        -3.88265        -4.50157
LJ           1.25569        -5.45074         5.10992
LJ           1.39248        -1.39761        -6.21548
LJ          -1.84929         6.33157         5.74402
LJ          -4.40779         4.04951         6.10778
LJ          -6.09708        -1.29494        0.807847
LJ          -2.82198        -5.16897        -1.22689
LJ          -5.26661        -5.16558        -1.29176
LJ           -2.9572       -0.632735         3.20672
LJ        -0.0842824         2.79016        -3.00296
LJ          -4.34461         1.11492         -1.5949
LJ          0.583709        -3.35946        -1.32592
LJ          -6.30574       -0.609174         2.42925
LJ          -5.52341        0.611957         6.03321
LJ          -3.24992        -2.58192        -2.84355
LJ           4.46718       -0.317472         6.31483
LJ           6.00199       -0.181271        -4.08429
LJ           4.07879         4.93625        -3.82073
LJ          -3.06503          2.2821         1.25252
LJ          -5.23743         -2.3489         4.90902
LJ           2.79982        -4.86967        0.745689
LJ          -5.87324        -5.53999        -2.38158
LJ          -4.56446        0.106495         5.73641
LJ          -3.51424         -5.0672        -2.77439
LJ           3.51488         1.12933        -6.25031
LJ          -3.01733         2.57919        -4.01817
LJ           5.32989        -4.90515         2.56764
LJ          -4.64702        0.457352         2.83295
LJ          -1.24527         4.30406        -2.81669
LJ           3.38742        -1.79631        -6.34714
LJ          0.176585        -1.34255        -2.91087
LJ          -4.03268        -5.65782        -1.46217
LJ          -3.48035        0.475801         3.42983
LJ          -3.37554         3.26688     0.000816822
LJ          -2.47636          3.1438         1.96485
LJ            4.5721         5.80844          1.4815
LJ          -5.99278         1.09148         -5.9887
LJ          -5.12829         4.08788        -3.08596
LJ          0.126315         1.63511        0.548934
LJ          -6.40642         5.33024        -5.83947
LJ         -0.719312        -3.46612        -1.54596
LJ           -5.0021         3.49821        -5.99304
LJ           1.98996          -5.661       -0.472516
LJ           5.80401         2.44368        -2.87688
LJ           4.99928         3.62125     -0.00940346
LJ          -2.91675        -5.48626          6.3558
LJ           5.93998        -6.08636          6.2274
LJ          -1.92991        -4.99918         5.75193
LJ           -4.6073       -0.258156        -1.08997
LJ          -5.26602         6.27541         3.76676
LJ          -6.28001        -1.35755        -5.23876
LJ          -6.16478        -4.67187        -5.40531
LJ          0.472976         -2.6216         5.26194
LJ           1.64322        -1.74609         4.78285
LJ           -1.1473        -6.12746         6.14528
LJ          -6.11065         5.35365         2.73105
LJ          -1.09093         4.56812         3.39215
LJ          -5.68128         4.24661        -4.55494
LJ          -0.43457         5.63201         1.90358
LJ            3.4834        -2.40441         5.50289
LJ         -0.769278        -5.17268         6.35017
LJ           5.28661         3.00027         1.97887
LJ           4.59072        -1.10175         4.75952
LJ           6.42151        0.547841         5.86505
LJ           2.98689        -4.11065        -4.97108
LJ           3.08941         5.08414       -0.959439
LJ          -1.90339         1.31323         3.72731
LJ          0.710704        -1.65573         3.91858
LJ          -5.01323         5.09522        -3.73784
LJ           3.60923         5.97839        -5.80485
LJ           3.79127         5.52816        -2.10781
LJ           4.06594        -2.59585        -1.53992
LJ          -5.55662        -4.16161         -2.6737
LJ           3.22459        -1.16545         1.37777
LJ           4.20707        -3.66038         6.21665
LJ          0.183214         1.22952         -1.5118
LJ           6.18014         6.35805         4.63426
LJ          -2.95026         2.88336        -5.43036
LJ           4.99017        -2.08518        0.448224
LJ           6.39331         3.93792         5.49502
LJ          0.759799        0.172117       -0.309976
LJ           0.41754        -4.82585        -1.48746
LJ          -4.17126         2.73155         5.93741
LJ           5.06925        -1.62828        -4.69383
LJ           3.67713       -0.175208         1.86827
LJ           2.95516        0.845526        0.442883
LJ           3.42808       -0.162941          -4.907
LJ          -1.95673       0.0858144         4.88708
