108
#Comment!
LJ          -2.35621         5.68509         5.73674
LJ           4.71304        -3.28234         6.00107
LJ          -2.07997        -4.53986        -5.31973
LJ           4.75569        -5.93048        -5.11407
LJ            2.1287        -4.69871        -6.15241
LJ          -3.56393        -4.09966        -6.37498
LJ           1.43335        -5.00817        -2.88185
LJ          -4.10155        -6.07255        -4.72744
LJ           5.61109        -6.29657         5.46519
LJ          0.245564        -5.03284        -5.30496
LJ           6.36673        -5.30392        -4.75104
LJ          0.653669         6.08777        -3.63115
LJ          -3.02897        -1.67793        -5.12176
LJ           4.47046        0.266074        -6.19555
LJ          -2.66215        0.826912        -3.62674
LJ           4.46597        -1.65432         -4.8832
LJ           1.41368        -1.15963         -6.2133
LJ          -3.51403        -1.30879        -6.39089
LJ           1.28522        -0.50437        -5.40894
LJ          0.797047        -3.98108        -6.19219
LJ          -5.50638        -2.61949         6.14196
LJ           1.71527        0.907698        -6.44774
LJ          -5.78157        0.367537        -5.97738
LJ         -0.232897        -2.58288        -3.58307
LJ          -1.91025         4.60261        -6.36075
LJ           5.37283         3.87681        -6.39619
LJ          -1.46575         4.40348        -4.03417
LJ           5.09075         2.75306        -4.15323
LJ           2.09734         1.78846         5.66456
LJ          -4.81908         3.65626        -5.65348
LJ           1.40885         4.57364         -3.7842
LJ          -4.13588         3.85664        -3.98982
LJ           6.20117         2.50299        -6.13219
LJ          0.465606         3.73827          5.9093
LJ           6.25279         4.66353        -4.73063
LJ          0.391764         3.30741        -3.96638
LJ          -1.76653         5.91944        -1.86925
LJ            3.3376        -3.95474        -3.07548
LJ          -1.70287        -4.25876       -0.655104
LJ           4.44723         6.23867        0.826458
LJ           1.29497        -6.32481        -1.54242
LJ          -4.11345        -5.06363        -3.10234
LJ          -2.89213        -6.13742        0.497846
LJ          -4.62821         6.00862        0.402256
LJ           6.06913         5.84291        -2.35588
LJ           4.62738        -4.36976        -5.09139
LJ           6.38121        -6.20362     -0.00951998
LJ          0.938237        -5.77048        0.155217
LJ          -2.86137        -1.52993        -2.62634
LJ           4.83299         1.27511        -1.94702
LJ          -2.82553        0.130351       -0.431017
LJ           4.30092        -1.85635       -0.458133
LJ          -2.16018       -0.629189       -0.882596
LJ          -3.10268         1.01686        -2.11234
LJ           1.81722       -0.321828        -1.04819
LJ          0.900715       -0.997557       -0.364161
LJ           3.11778        -3.96099         1.26315
LJ        -0.0239075        0.390084        -2.39723
LJ            4.5842         1.30361       -0.561987
LJ           1.02131        -3.58924        0.278801
LJ          -2.81305         2.90772        -1.71477
LJ            5.7588          3.3692       -0.513105
LJ          -2.65154         4.07344        0.816476
LJ           5.02567         2.26323        -1.21291
LJ           2.29528         3.02052        -2.00679
LJ          -4.56642         5.27845        -1.81949
LJ           1.93481          4.0579        0.925576
LJ          -3.56424         1.74057        0.251694
LJ           4.64589         3.33284        -3.01852
LJ       -0.00928979         3.35875        -1.53903
LJ           5.93415         4.17712       0.0449614
LJ           1.06299         2.40656       -0.804282
LJ          -2.61607        -6.28769         1.50781
LJ            4.4428        -4.66088         1.91096
LJ          -2.60711         -5.3544         4.35535
LJ           4.86877        -6.31688          3.9709
LJ           1.99615        -5.52549         2.42605
LJ          -3.75216        -4.66867         2.47552
LJ          0.758684        -2.99102          3.3496
LJ          -4.49308        -5.92447         4.69337
LJ           6.14087         5.89197         2.75929
LJ           0.10031        -4.55632          2.1801
LJ           -6.3733        -4.16672         4.47484
LJ            0.1806        -6.29253         5.93489
LJ          -4.08295        -3.81161        0.120604
LJ           3.52996       -0.386847         2.05636
LJ          -2.54092         1.62843         4.16358
LJ           4.24373        -2.51785         3.76047
LJ          -3.55351       -0.750808         1.77469
LJ           1.80127        -1.18818          2.6302
LJ            2.5356        0.852546         3.42776
LJ          -2.83117        -2.67368         4.01332
LJ           6.34768        -2.39279         1.62802
LJ         0.0163206        0.692132         2.90631
LJ           6.43662         0.23609         5.55424
LJ           2.20788        -1.69342         5.01901
LJ          -3.77397         1.24423          3.7625
LJ           4.17811         4.39784         2.86569
LJ          -3.33098         4.21349         3.86849
LJ           5.18115          0.9772         4.02911
LJ          0.702354        0.832963         1.95952
LJ          -3.75522         4.23725         1.92154
LJ           2.03988          3.9775         3.86044
LJ          -3.89932         1.93536         5.14458
LJ            5.4742        0.377412         2.56178
LJ        -0.0140362         3.90258         1.65784
LJ           5.31364         4.48329         5.00624
LJ          -0.13812          1.1725         3.76671
