108
#Comment!
LJ           2.16247        -3.98523         2.19385
LJ          -1.11397         4.42118         -5.7798
LJ            -4.968          4.4682        -4.23644
LJ          0.432567       -0.402786        -5.71725
LJ          -4.96719         4.22675        0.260902
LJ          -2.98034        0.134769        -3.21247
LJ           2.78538       0.0152664        -3.62436
LJ          -3.56551         6.13414        0.615975
LJ           2.33218          3.2744        -1.15901
LJ          0.464824        0.649884        -4.60595
LJ          -1.23447         1.59313        -6.26081
LJ           4.50321         5.09108       -0.369265
LJ          0.788159        -5.57477        -3.76816
LJ           1.79198         5.92605        -2.65933
LJ          0.366035         1.22665        -5.92482
LJ           5.31303        -2.29225         6.32446
LJ           5.26198        -2.88092        -3.61033
LJ          0.165355        -2.96683         0.62678
LJ           3.67655        -2.27362         1.06348
LJ          -2.01643       -0.729588          2.4263
LJ          -2.02166       -0.113485        -5.89375
LJ          -5.59455        -4.38655        -2.22384
LJ           5.30541         2.71931         3.00431
LJ           3.25468        -3.29869         4.60143
LJ           5.04828         2.42731        -4.50816
LJ           5.63816          5.8628        0.731619
LJ           6.03979        -2.14338         5.49397
LJ         -0.567652        -4.72692         -5.8317
LJ          -3.56217        -5.25404         3.08329
LJ           1.37672         2.73761         4.54007
LJ           2.32783       -0.439081        -2.81922
LJ           1.79408         1.82168         1.91292
LJ          -1.69058         4.54836        -2.44419
LJ           -1.9886         5.91862         4.82506
LJ          -1.45495         6.10828         1.85382
LJ          0.338733        -6.23033         6.37029
LJ          -1.43409         2.05508       -0.186898
LJ          -3.02042        -1.16933        -6.28516
LJ          -4.24486        -4.34803          2.2597
LJ          -4.19905       -0.795718        -5.60871
LJ          -3.10216        -3.76441         6.34922
LJ          -2.06675         1.54117        0.561553
LJ         -0.251346       -0.296097        -3.77602
LJ            6.2863        -5.45423         4.61005
LJ         -0.118259         3.46239        -4.41363
LJ          -5.97588         5.84754         1.63666
LJ         -0.108073        -2.28018        -5.55292
LJ          -5.29335        -5.27462       -0.517527
LJ          0.420512        -4.45034         4.56769
LJ         -0.215867         1.43732         2.09699
LJ           3.29413       -0.690181          1.7869
LJ          -4.37417        -3.78857         1.14735
LJ           5.03709         1.57939         6.00581
LJ           6.17479        -3.92617        0.576033
LJ           6.44899         0.52098       -0.591402
LJ           3.56289       -0.211982         -5.0859
LJ           6.08655         -6.0412        -4.88996
LJ          0.654216         -4.1463        -1.79223
LJ           4.07849         5.03938        -2.94245
LJ           6.17611          4.9316         3.88877
LJ           5.40374         2.22221        -3.51155
LJ           1.71168        -6.09592          1.9645
LJ           1.06833        -4.50289        -3.33303
LJ          -1.43791        -5.61834       -0.720564
LJ          -1.66906         4.42906         4.54102
LJ          -2.26702        -4.32569        -4.24668
LJ           4.78406        -3.61281        -6.12882
LJ          -1.08724         2.76629         1.91897
LJ          -2.02038        -2.07207         2.59243
LJ        0.00959616         5.88924         5.78922
LJ           2.34663         1.05055        -4.32323
LJ          -2.92866        -3.57131          2.0617
LJ            4.7551         1.75894         2.75889
LJ          -6.21542          3.9018         -4.8058
LJ          -3.57143        -1.22855        -3.30279
LJ         -0.276837         3.53356        -2.39351
LJ          -1.76411        -4.85543         4.61191
LJ          -1.16834       -0.265215        -3.14546
LJ           2.88752         1.51775        -6.22796
LJ          0.163566         -1.2986        -1.93741
LJ            6.0361        -5.72521       -0.929293
LJ        -0.0183312        -5.19974        -4.97547
LJ          -2.64807        -4.82965        -1.10957
LJ           2.36783         2.04259        -0.70769
LJ           5.50447        0.718949         3.34371
LJ          -5.85415         4.89178        -6.23807
LJ          -2.28629        -3.19075        -1.43425
LJ          -2.67065        -4.05785         3.51149
LJ           1.42946         3.89544       0.0587454
LJ           3.77005         1.54601         1.62776
LJ           4.48311       -0.895057        -4.65444
LJ          -2.97635          2.3147        -2.27856
LJ          -1.15666        -2.77299         3.73688
LJ           6.07337         3.22386         4.06028
LJ           5.29897        -2.05599       -0.165228
LJ          -5.11097        -3.85841         4.21592
LJ           3.01236         3.96223        -4.68163
LJ           1.17803        -0.60896        -2.42559
LJ          -3.05678        -6.28915         -4.7486
LJ          0.303838         4.67664        -2.59139
LJ           6.12181         4.90466         6.03143
LJ           3.29474         3.96877        -5.91348
LJ           2.38842        -2.03125         1.46934
LJ          0.803563        -2.14838       -0.137633
LJ          -4.67332         3.48609        -4.96917
LJ          -4.22446        -6.27076          4.0946
LJ           5.82816         2.35665       -0.470463
LJ           5.43388         4.01214        0.361922
