108
#Comment!
LJ          -4.64298       -0.416384       -0.318429
LJ          0.591128         -4.4043         0.78146
LJ           3.48311        -4.71011         2.46055
LJ           3.91369        -4.80724       -0.982066
LJ          -2.26915        -4.17301         4.15376
LJ            1.4079         2.83878         4.80937
LJ           4.31214         2.76898         5.32487
LJ          -6.32322        0.316984         2.54971
LJ          -2.92643         -1.8211        0.160673
LJ           3.48063         6.17785        -3.14141
LJ         -0.374854        -1.40996        -3.30351
LJ         0.0446798        -3.86766        -4.95462
LJ          -4.01145         -1.9064         -1.6403
LJ          -4.45818        -2.57576          5.0376
LJ           -3.7621         4.96025        -6.43199
LJ           0.21217        -5.57963         5.35599
LJ           5.02635        -3.93633        -4.45984
LJ           5.85782         3.27572         5.61542
LJ          -5.94083         0.49985       -0.323653
LJ         -0.917127        -5.60321        0.221725
LJ           2.76071        -4.32288         5.14699
LJ          -4.30995         3.38216        -1.46989
LJ          -5.59871        -2.05166        -1.42483
LJ           4.27361         1.87005        -5.65581
LJ        -0.0566765       -0.244621         6.22733
LJ          -5.28667        0.608739          4.1518
LJ          -1.62183        -1.10397          -2.602
LJ          -3.84887        0.572609         4.77241
LJ          0.233571        -3.41262      -0.0374766
LJ          -1.81056        -3.20603        -2.16044
LJ           1.29575         2.53295         5.89567
LJ          -6.04167        0.754654         -6.3119
LJ           4.71103        -2.88348        -3.24379
LJ          -5.91391        -2.82462       -0.842658
LJ           4.92355          6.0539         4.53167
LJ          -5.79212       -0.948824         4.46295
LJ           3.23603        0.522166         4.78693
LJ          -1.49039        -2.81172         3.96554
LJ          -5.03738         5.14658         1.18185
LJ         -0.768224         5.71938         2.93465
LJ          -1.58745         4.47381        -4.58744
LJ           3.51597         2.10071       -0.325375
LJ         -0.296276        -4.07897        -2.35673
LJ          -5.08837          4.7511         3.05021
LJ          0.095717        -1.20776        0.908364
LJ         -0.115338         1.45505        -2.87319
LJ          -4.69186         -5.4832        -6.22012
LJ          -3.17011       -0.492536        -5.39458
LJ           2.35676         -5.6082       -0.359794
LJ          0.233694        -6.10171          3.7671
LJ           1.22944         3.13685        -3.83296
LJ          -5.92419         -3.9229         6.10509
LJ          -2.27635          4.3398          3.9943
LJ           4.87521         4.22097         3.57392
LJ          -3.58798        -1.84944          2.9629
LJ          0.849408         -4.7012         5.43619
LJ           -5.3682         5.23455         3.93149
LJ          0.650476         2.23697        -1.83606
LJ         -0.773659        -2.31104        -4.37095
LJ           3.80291         5.33221         3.95077
LJ          -3.59798         2.67566         1.28219
LJ           0.80633         0.61895        -4.20381
LJ          -4.76224        0.153237        -2.54769
LJ           3.18111         4.32833         3.92811
LJ          -1.27758         1.42481        -1.24645
LJ          -3.81813         1.23592        -3.71929
LJ          -2.04677        -1.06659        -3.60164
LJ           1.03879        -6.32854        0.364668
LJ          -3.85898        -3.52296          -2.506
LJ           -6.0678        -2.70397        -5.44062
LJ            4.5518        -1.98963         1.75549
LJ          -6.38632        -0.34405        -1.30284
LJ           1.94991        -4.87092        0.120324
LJ           -4.9854        -4.19355          6.3932
LJ           -3.7247        -2.41401         6.35518
LJ           0.45723        0.748572          3.4939
LJ          -4.65151         4.57742        -5.80615
LJ           5.54644         -4.1403        -3.11134
LJ          -3.39543        -6.39766        0.332006
LJ          -3.72448        -4.94569        -5.64534
LJ           -1.2191         1.91812        -4.99555
LJ           -6.1323         4.56969         4.41672
LJ          -4.95663        -4.50072       -0.815683
LJ          -4.35827         3.79466         4.75797
LJ          0.591794        -2.47189        -1.16563
LJ          -4.99411         2.38257         4.21363
LJ           1.90907         -3.7655        0.838733
LJ           -2.6997        -5.25261         2.97343
LJ           2.18632        -4.94503         -1.6987
LJ           3.63417        -2.03268        -5.53593
LJ           3.37356        -2.13153        0.973459
LJ          0.657105        -5.17279        -4.35481
LJ           2.83532         -5.2947         3.26228
LJ          -1.61341         6.46185        -6.02206
LJ          -3.91635        -1.13406         2.35703
LJ          -4.54755         4.79361        -1.53021
LJ          -2.23382        -3.22805       -0.599462
LJ           1.83156        -5.59043        -3.71554
LJ          -1.73862        -0.15997        -2.88428
LJ           -4.9284         4.74428       -0.553553
LJ          -2.20605        -5.62794         6.01729
LJ          0.743782         6.44216         5.69922
LJ         -0.295318        -2.98672         3.80002
LJ           6.45637        0.690053         5.49289
LJ          -4.03574         -5.0859        -3.17794
LJ           1.83582         5.25331        -3.27046
LJ          -4.96602        -5.75342       -0.656245
LJ          -4.07767         6.10042         -3.6147
