108
#Comment!
LJ           2.22876         1.29886        -5.41463
LJ          -5.54176        -5.39349        -3.96325
LJ           1.41765       -0.611555        -6.28161
LJ          -3.69686         5.48715         5.41757
LJ          -4.04308        -5.36326       -0.139439
LJ          -2.87134         1.49856         -5.9914
LJ         -0.500943        0.115949        -3.32381
LJ           5.81214         4.84739         -3.4309
LJ          -1.61566       -0.228799        -5.46184
LJ           5.94791        -6.02732        -1.17843
LJ          -1.00042         6.14461        -2.08904
LJ           3.29695        -1.77483         3.11096
LJ           2.88582        -6.22205        -3.22311
LJ          -2.93013        -1.11345        -5.34185
LJ          0.987973        -4.88893        0.748829
LJ           -5.9997         1.37555        -5.90229
LJ          -1.60009         4.75383        -3.07557
LJ          -2.37108        -3.98089        0.106311
LJ          -4.39052        -3.69004          3.3653
LJ          -1.50803        -2.82456         1.66809
LJ           1.48923        0.277205         5.97583
LJ          -4.17533        -4.05645         4.86586
LJ          0.541905       -0.685918        -2.08082
LJ         -0.400734        0.921931         3.01699
LJ          -5.64758        -1.15665       -0.911731
LJ           2.98275        -2.55566        -2.12942
LJ          0.722616         2.13825        -5.46304
LJ          -3.98584         3.12241        -1.15596
LJ         -0.112007        -2.40816           4.434
LJ           3.80382        -2.03263        -6.05204
LJ          -5.04638         2.63761        -3.69647
LJ          -2.71095         3.07066           2.483
LJ          -0.87248        -5.01596         2.93437
LJ           2.06584         1.49267        -3.35817
LJ           1.55943        -1.46515        -3.90229
LJ           3.73508       -0.444751          1.2541
LJ          -5.07562         1.83222        -4.86047
LJ          -4.69711        -1.16681        -3.59262
LJ          -1.57528         4.60735        -6.32552
LJ          -3.91706         1.44765          2.4492
LJ           -1.7639        -1.81013           4.134
LJ           2.16348       -0.867357         1.85842
LJ           5.17146         -2.3682        -2.78815
LJ           6.22439         6.42399         6.22196
LJ          -1.07619        -1.72114       -0.946165
LJ           4.07535         -6.1246         4.12009
LJ          -4.25552        -5.94824        -0.93582
LJ           2.41698        -2.86889       0.0929148
LJ          -4.51059        -5.80668         4.38528
LJ           1.27474         5.07384         5.78081
LJ          0.635056         4.59341        -2.76211
LJ          -1.83335        -1.21724        -4.12026
LJ           2.04113        -2.32475        -4.46178
LJ            3.7907        -3.68475        -3.55018
LJ          0.473451         1.13152        -4.64502
LJ           6.11369        -2.83075        -1.21405
LJ           6.10342        -1.67097         6.36337
LJ           2.43414        -5.34423        -4.00005
LJ          0.347213        -4.41657        -6.43703
LJ          -4.45137         1.43681         3.75758
LJ           -3.2218         2.67164        -3.46885
LJ          -5.15888         5.25002        -4.42826
LJ          -3.22036        -3.85431       -0.581054
LJ           6.19887         5.58675        -4.09902
LJ          -2.14292         4.89777       -0.621204
LJ          -3.65219        -5.51277        -2.63715
LJ           2.42271       -0.514878         4.88716
LJ          -3.10499        0.627514        -4.14566
LJ          -3.40525        -1.09563         3.14459
LJ          -2.68101         1.28201        -1.50349
LJ          -5.74687         3.28461        -4.41254
LJ            3.1018       -0.361295       -0.647386
LJ          -2.69896         3.33198        -1.73013
LJ           3.30553        -3.07962         1.59881
LJ          -2.43503       -0.640326          4.8187
LJ          -5.85663         4.71257        -3.26478
LJ          -3.89893        -1.59381         1.16586
LJ            3.8436        -3.40965         4.51479
LJ          -4.39771         1.19032        -5.37168
LJ           2.81586        -4.03327         4.86426
LJ           -2.3127         5.80595        -3.78229
LJ           3.89996        0.517772         3.74965
LJ           3.09583        -6.41663        -2.14162
LJ            1.7333         2.68676        -3.99982
LJ           -3.1797        -5.55584           2.267
LJ          0.665896        -1.33476         2.90595
LJ           1.40784         6.36712      -0.0649413
LJ          -5.82493        -4.64259       -0.866241
LJ            2.4178         1.22841        0.313541
LJ           3.90084          3.5358        -1.19884
LJ           1.51417        0.132367         4.68989
LJ           -2.8274         -1.7826        -1.81081
LJ          -1.65997         4.72658        -5.39183
LJ          -5.69731        -1.64656        -3.28372
LJ          -2.95296        -6.18758        -5.96648
LJ           5.44812         4.55235        -5.93197
LJ           3.52621        -2.07257         5.52509
LJ           4.10026       -0.377449           3.067
LJ           2.90315        -5.79282         6.24483
LJ           2.42461         -3.2483         2.23191
LJ          0.794367         5.00232       -0.152171
LJ          -1.12097        0.288015         4.20792
LJ           5.74006         -1.4861        -1.39304
LJ          -2.46506         -5.8437       -0.487225
LJ          -1.16673        -3.54544        -5.01759
LJ           1.89446        -4.87635         6.23922
LJ           5.25761        -0.84251         3.68625
LJ            -6.003        -6.18191       -0.694229
