108
#Comment!
LJ           4.11096        -3.98293        -4.03136
LJ         -0.777656        -3.80221         5.73213
LJ           5.18006         1.83107       -0.228042
LJ            -6.354         1.94763        -2.37545
LJ          -5.77159       0.0877381       -0.667988
LJ         -0.417724         5.09769         5.72033
LJ           -5.2557         3.60564        -2.82863
LJ           4.07249        -5.14071        -2.09069
LJ          -4.26193        0.893626         4.52082
LJ           5.01959         2.73271        0.270429
LJ         -0.256734       0.0659369        -3.19439
LJ           2.43618       -0.525129         1.93723
LJ          -1.20368         4.03232        -4.10323
LJ          -3.32871         4.91808         5.48604
LJ          -1.78557        -4.07861        -2.98948
LJ           2.91317          5.4643         4.43274
LJ          -3.67408         1.31488       -0.710501
LJ          0.137555       -0.016709         5.94096
LJ          -4.98555        -2.85227        -4.14873
LJ           -2.3437         5.17399        0.410305
LJ          0.704942        0.354398         1.03431
LJ          -1.05461         6.23776        -2.31936
LJ          -6.31487         5.43666         1.39846
LJ          -6.33711         4.06722         -1.7072
LJ          -6.08798        -6.29155        -5.71177
LJ          -3.00029         2.76419        -3.66837
LJ          0.622209         2.67836       -0.423266
LJ         -0.661174        0.817318         1.23601
LJ          -1.32417        -5.56247         3.25217
LJ           -1.7118       -0.175946       -0.344853
LJ          -6.23716         5.41133         2.89687
LJ           1.78863        -6.10377         3.43733
LJ          -5.21125        -1.89255          -6.294
LJ           3.72741         1.79512         6.06999
LJ           1.16044         4.94285         4.33604
LJ            4.6064        -5.91565        0.632753
LJ          -1.28051        -4.24562        -5.68408
LJ           5.29845         3.46299         4.96942
LJ          -4.44952        -2.21612         2.95586
LJ            3.7267        -4.97857         2.40355
LJ          -5.01486       -0.713714          -6.081
LJ           4.35869         1.72752         1.08937
LJ          -1.53951         2.51873         3.68645
LJ           4.88246       -0.581128        -2.56824
LJ          -3.98851       -0.937776          5.2198
LJ            6.2334        0.545013       -0.332339
LJ           2.94089        -5.82265         2.13322
LJ          -2.70091       -0.514097         2.11329
LJ          -4.29956        -4.04235         5.21151
LJ          -3.40879         4.04527        -1.92821
LJ           -4.3296        0.773011         2.04004
LJ          -1.25519         6.09298         4.30418
LJ          -2.67871        -3.40967        -4.22219
LJ          -2.98779         2.95858        0.436889
LJ          -5.02162        -1.46291         5.24569
LJ           3.02216      -0.0548928       -0.462988
LJ          -2.14981         4.10396        -5.26416
LJ          -3.78812         -2.6459         -5.3654
LJ          -5.28964         4.56917         2.89378
LJ          0.659901       -0.560552        -3.56962
LJ           -2.2484          2.8148         2.87335
LJ            4.2019         3.49966         2.82557
LJ          -2.14976         5.52872       -0.882032
LJ          -4.17592         4.62512         4.66931
LJ           1.77735         3.75328         2.33869
LJ           4.34846         4.64628         3.21422
LJ           4.63857         4.63766         6.27105
LJ           3.30751         4.74042         6.16235
LJ           1.78792         -5.4144        0.845835
LJ           -1.1079         2.55824        -1.62468
LJ          -1.09425        -6.19009        -4.24033
LJ          -3.87736          3.3127        -3.22883
LJ         -0.910033        -3.39732        -2.89244
LJ         -0.605016         4.82952      -0.0303339
LJ          -2.04675         2.79365        -3.39459
LJ          -2.90631        0.564766        -5.82328
LJ          -5.98824        -3.87807         2.35216
LJ            5.5349        -6.38148        -2.43362
LJ          -1.54264        -1.38523         5.30319
LJ           5.57623         -2.7779        -2.22273
LJ          -0.97806       0.0622668        -2.49774
LJ          -1.23075         5.34688        -5.52289
LJ          -2.91889         2.19276        -1.97292
LJ          0.800206         -6.3167         2.04061
LJ           2.80764         1.06771         -5.3755
LJ           0.58695        -5.67631        0.617864
LJ          -5.10928        -4.84038         5.09604
LJ           -4.4511        -3.03155         1.06455
LJ          0.178904       -0.910683        -4.53511
LJ           2.80858        -2.35639        -5.80892
LJ           1.12054         2.42653         3.42787
LJ           2.27223         -3.6364         1.48807
LJ         -0.694566         3.16075        -4.42229
LJ          -4.17549         3.05467         5.37052
LJ          -5.92585        -2.25793        -3.65065
LJ           1.61438        -5.09832       -0.763013
LJ          -0.58918         2.09777       -0.230539
LJ           3.13112        0.991134        -6.35579
LJ          -1.84623        -2.57844         1.02703
LJ          -5.78105        -4.59578        0.384305
LJ           4.30087       -0.350942         4.60305
LJ           3.28573          1.3258         1.17712
LJ           3.48051        0.154462         5.33097
LJ          -3.42657         5.98395         5.38623
LJ         -0.669508        -4.96801        -5.50971
LJ           4.85659        -2.27958        -5.19191
LJ           3.37614        -3.90638        -4.91909
LJ          0.959812        -4.95619         2.45319
