108
#Comment!
LJ           -2.1822         1.26188        -1.28921
LJ           1.13677        0.780473       -0.346435
LJ          -1.02146         2.60409         1.61317
LJ           1.13018        -1.72898        -4.44317
LJ          0.708764       -0.912341         4.14254
LJ           6.42817        0.259359         4.49329
LJ            2.7093         3.63632        0.969868
LJ           3.88893         4.72497         1.71304
LJ         -0.280646      -0.0664566        -4.64465
LJ          -5.13712        -5.17894         5.02383
LJ          -3.94535        -4.08122         -6.1906
LJ          0.677777         6.01275        0.268588
LJ         -0.916985        -6.40365       -0.359103
LJ           5.88654        -2.48682         2.31894
LJ          -3.34236         5.62594        -2.97853
LJ              1.94        0.631666         1.48846
LJ          0.856396        -3.42998         -2.1491
LJ           6.28135         6.21526        -5.81123
LJ           3.91068         2.06488       -0.529024
LJ          -1.29218        -5.15991       -0.116854
LJ          -1.38429        -1.56869        -2.34606
LJ           -1.5676       -0.729551        -4.22571
LJ          -6.11081       -0.556712        -3.82191
LJ           3.66542         2.25142         6.03894
LJ          -6.27643         4.95248         5.29332
LJ           5.75827         3.09542         1.66888
LJ           1.38011       -0.861501         3.13427
LJ          -5.74304        -3.64047        -3.64861
LJ           4.77923         4.26522        0.156153
LJ          -4.12985         2.73255        -2.36041
LJ           4.53675        -0.10421         3.04395
LJ         -0.958216         1.57437         3.73421
LJ          -5.67371        -2.02425         -2.9094
LJ            4.9653          2.4812         2.19866
LJ           5.84199         4.16574         2.75948
LJ          -4.49079         1.20915        -6.09323
LJ           5.53493        0.125429         3.67378
LJ          -2.27303        -2.88597        -4.63116
LJ          -4.78552        -4.64185        0.812013
LJ         -0.797748         6.25224         1.82366
LJ          -1.08287         3.57287        -2.27679
LJ         -0.771136         4.68062        0.311123
LJ           3.00889         5.64152         1.61209
LJ          -3.61706        -6.21372       -0.507905
LJ           1.80359       -0.575342        -5.87943
LJ           2.14983         3.11191        -3.44853
LJ          -1.52719        -3.79739         2.40629
LJ           3.28583        0.482589         5.81316
LJ          -4.90842         4.51266         -5.4452
LJ          -2.60212         6.13311        -2.15519
LJ           6.40333         5.68582         2.58897
LJ          -3.25496        -3.95858        -4.07613
LJ           -2.2489        -3.70442         -5.2731
LJ          -5.72863         4.21457        -4.18283
LJ          -5.74158        -6.03284        -4.01861
LJ          -1.02784        0.811137         1.87238
LJ          -2.29889         3.41803        0.904253
LJ          -1.26391         0.94917        -2.45019
LJ           3.30279         -4.5566         2.60622
LJ           2.35189        -3.50399         4.21915
LJ          -2.29429         2.13665       -0.170983
LJ            1.1167         -5.1125        -5.99583
LJ           3.52227         -4.9383         -4.3179
LJ           3.34811          4.0364         3.07549
LJ         -0.437743         2.37429        -3.49356
LJ           3.44164        -1.53907         1.61473
LJ          0.193776         3.62217        0.884832
LJ          -4.13458         2.17854         3.70455
LJ           1.52914       -0.400322         5.47435
LJ          -1.58274        -3.49356        -6.44461
LJ          -1.42558         5.20079         3.65105
LJ          -5.87333          0.7068        -3.88898
LJ           5.20707         -6.0549         5.62699
LJ          -3.99331        -3.07386        -4.36652
LJ          -3.87501         1.73447         6.01795
LJ           4.55073         4.73319         2.52368
LJ            -2.568         5.60708         2.12593
LJ          -4.76649        -2.05434        -2.15523
LJ          -1.13032        0.256501         4.68742
LJ          0.550027        -2.85521        -1.31057
LJ          0.201884         2.78196         3.00053
LJ         -0.677285         6.09733         3.04331
LJ           1.76912         2.08302        -5.51806
LJ          -4.35704        -4.63054         1.93355
LJ           5.77264         1.18541        -3.83695
LJ          -3.93467          1.3455         2.17007
LJ           2.07947        -3.83132        -5.15381
LJ          -3.68415        -4.74884       -0.520764
LJ          -1.80137         2.37912        -2.90692
LJ         -0.200715        -2.52631        -4.20944
LJ           3.20599         3.76315        -1.05276
LJ          -3.41881          5.2305         5.65205
LJ          -2.41221         1.14744         2.64494
LJ          -0.79427         3.78074        -3.25606
LJ          -1.30306         2.94246         3.06647
LJ          -5.25489         5.35994       -0.769441
LJ           3.72627         3.96445       -0.125805
LJ          0.420066          5.6736         6.25224
LJ          -4.89263         2.03398        -3.17256
LJ           5.64606         4.24521        -2.02034
LJ            2.3367         4.52193        -5.19526
LJ          -2.01524         -3.8619        -3.73636
LJ           2.89697        -1.96718          3.4792
LJ           6.34846         2.46711        0.740734
LJ         -0.749149       -0.418164        -3.37928
LJ           2.83607          4.4713         -3.8067
LJ           2.99217         2.88991         -6.4019
LJ          -4.98125        -3.21744        -3.03766
