108
#Comment!
LJ           4.20546        -2.98276        -2.87409
LJ          -0.93996        -3.69747         4.48749
LJ           4.91189         3.59671       -0.511395
LJ            5.7605         1.48736      -0.0560394
LJ          -5.19931        -1.39095       0.0570733
LJ          -1.05822         4.71942         5.69778
LJ          -5.75318         3.79087        -3.47935
LJ           4.78645        -1.77253        -1.18295
LJ          -2.68283        0.931448         2.89665
LJ           2.60335         3.91885         1.40898
LJ           0.09889       -0.536701          -1.225
LJ           1.81219        -1.53655         2.58588
LJ          0.878611         5.01577        -3.06662
LJ          -3.51528        -6.34612          5.4628
LJ          -3.60766        -4.05287        -2.62573
LJ           1.89296         4.88577         4.56095
LJ            -4.057       -0.502481        -1.60552
LJ          0.722033         1.88281          5.8162
LJ          -2.90628        -2.02489        -2.42387
LJ          -3.16296         4.52621       -0.633789
LJ          0.225892         1.80747         1.35486
LJ          -2.23395         5.94474        -1.09994
LJ           -5.5702         3.77908       0.0292285
LJ           6.21076         3.40939        -3.11813
LJ          -6.04705          5.6817         5.60217
LJ          -2.79766         2.62781        -5.43234
LJ          -1.25922        0.739941        -1.69239
LJ          -2.30031         1.15685        -2.12116
LJ         -0.729009        -5.21071         3.32157
LJ          -2.16657       -0.359375       -0.283905
LJ          -3.87097         5.80353         4.06487
LJ           3.37053        -4.73808         1.90323
LJ          -5.07312        -2.80195         -6.2009
LJ           4.13191        0.241482         4.49669
LJ           3.06833        -6.11895         4.25237
LJ           5.66763        -5.04353        -0.24529
LJ          -0.95268        -3.11655        -5.31748
LJ          -5.49722           4.042          4.8459
LJ          -4.44004         -0.9901         3.46081
LJ           3.29674        -2.76985         3.44331
LJ          -4.52981        0.922599         4.74899
LJ          -6.12513        0.895089          0.9496
LJ          -2.32857         2.07946         6.00991
LJ           3.63511        -1.01884        -3.22347
LJ          -4.08411        -1.72476          4.7057
LJ          -5.53402        0.976866       -0.318399
LJ           4.10394         5.43732         1.17801
LJ          -3.35218       -0.963226        0.668302
LJ          -5.92567        -4.32139        -6.31211
LJ          -4.55873         4.84342       -0.342998
LJ          -2.14835         1.52037         1.45138
LJ          -2.83777        -5.93768         4.43071
LJ          -1.81094        -2.11231         -3.2763
LJ          -4.23319         1.72906          1.3189
LJ          -5.18593       -0.716385         4.73876
LJ           1.99064         1.34226        -1.55011
LJ          0.238418         4.41291        -5.76674
LJ          -2.80062        -1.76637        -4.69097
LJ          -4.65026         4.96757         3.62964
LJ           2.75527        -1.06432        -3.68161
LJ          -2.40883         4.21383         2.69617
LJ           2.53218         3.05757         2.40554
LJ          -2.06947         4.78765       -0.212279
LJ          -2.42986         3.35096         4.49741
LJ          0.932454         3.22041         0.92911
LJ            2.8252         3.67369         4.06182
LJ           5.26556         3.84401        -6.34225
LJ           3.26045         4.82891         4.06947
LJ           2.82258        -5.83337          1.4466
LJ          -1.69164          2.0932        -1.74192
LJ          0.319698        -5.28049        -5.70928
LJ          -3.91348          2.4926        -2.09133
LJ         -0.898396        -3.07258        -2.20604
LJ          -2.47852         5.50749         2.13094
LJ          -2.08546         2.86173        -4.61022
LJ          -2.32245        0.167046         6.38786
LJ          -5.20973        -4.24083        0.708016
LJ           5.10539        -5.73669        -2.74584
LJ          -3.15799        -1.79759         6.32907
LJ           5.14258        -3.45472        -3.44344
LJ          -1.57099       -0.730549        -1.26493
LJ          -2.49606         5.19134        -5.37555
LJ          -3.34242         1.23903        -2.21206
LJ          0.412448         5.44252         3.12534
LJ           2.27205         2.76648        -4.22631
LJ          -1.87603         6.35006          1.2528
LJ          -5.48677         -5.3824        -6.39845
LJ          -4.32305        -3.07142         1.77043
LJ          -1.67504         1.36428        -4.17879
LJ           5.51227        -2.17482        -6.14677
LJ         -0.235342         2.26692          3.7394
LJ           2.20009        -3.88556        0.879801
LJ          0.197684          3.5834        -5.06339
LJ          -2.78999         3.69803        -5.71661
LJ          -5.91419        -2.00017        -2.45368
LJ           3.53015        -5.58531       -0.842509
LJ           -1.3211         1.47551       -0.698884
LJ           2.78052        -1.56577        -5.51767
LJ          -1.51822        -4.00173          2.9018
LJ           5.01118        -5.56237         1.32907
LJ           4.91591         0.34654         3.40502
LJ           2.33225         1.54626        -0.36371
LJ           4.08859        -1.05976         4.54439
LJ          -4.66296         -5.2049         5.54684
LJ          -1.84839         5.71232         5.85783
LJ           3.60992        -2.45468        -3.55061
LJ           5.36326        -5.55424         6.29847
LJ           2.21937        -5.07703          3.4324
