108
#Comment!
LJ          -3.42308         1.04802        -1.81167
LJ           1.21895         1.78807       -0.457252
LJ          -2.14321         4.79628         1.91492
LJ          0.918077        -1.91745        -5.41724
LJ          0.945873       -0.342327         4.47165
LJ          -5.91524       -0.156584         3.98808
LJ            2.3723         4.30248        0.891378
LJ           4.44679         4.26014         1.69878
LJ          0.576973       0.0770461        -3.96377
LJ          -5.67734        -4.85288        -6.05919
LJ          -5.24694        -4.91613        -4.15087
LJ            1.4904         4.80354         1.36555
LJ          0.315839        -5.17481       -0.526961
LJ           5.28338         -2.4409         1.66196
LJ          -3.28219         6.01834        -1.75489
LJ           2.95172         2.19697         0.85403
LJ        0.00841015         -3.3029        -1.85614
LJ           6.33257        -6.01225        -5.34478
LJ            6.2836         3.49923        -1.10902
LJ           -1.2661         -2.9978        0.321452
LJ          -2.49335        -2.12747        0.021818
LJ          0.864925        -1.30351         -3.4478
LJ          -5.43377      -0.0204194        -3.57486
LJ           4.15058         2.30177         5.77615
LJ           5.26343         3.19366         5.14407
LJ           5.13308         3.57514         1.14631
LJ           3.11583      -0.0355526         3.07333
LJ          -5.74455        -4.07504         -2.7217
LJ           2.45321         4.77931       -0.750983
LJ          -5.06124         3.90198        -3.41273
LJ           5.85456       -0.866816         2.44316
LJ          0.705498         1.22963         3.38735
LJ          -5.18883        -2.68652        -2.79956
LJ             5.225         2.53043         1.26218
LJ            6.1135         3.41458         1.74078
LJ          -4.88935         1.62705        -6.37108
LJ           6.05616        -2.53942         4.41041
LJ          -3.45788        -2.86667        -3.50942
LJ            -4.551        -4.05851        0.903336
LJ           -1.1424         5.46783         2.63532
LJ          -1.50905         4.58111        -2.07661
LJ           1.10085         5.38125       -0.333872
LJ           3.21654        -4.76426        0.708084
LJ          -4.93031        -6.04001        -1.32205
LJ           2.01366       -0.502703          5.6565
LJ           1.96549         4.53333        -3.52448
LJ          -1.86067        -3.47675         1.04144
LJ           4.94537          1.7499        -6.43085
LJ          -3.58951         3.57178        -6.09652
LJ          -3.74924         5.51471       -0.204235
LJ          -4.72463          5.8728         1.80278
LJ          -3.80884        -3.81327         -3.8295
LJ           -2.0621        -2.96988        -5.45712
LJ          -4.79174         3.57814        -6.28377
LJ            5.8536          5.6342        -1.86752
LJ          -2.19477         1.33312         1.28559
LJ          -1.50324         1.66826       -0.668945
LJ          -1.41245       -0.357191        -2.28968
LJ             4.022        -5.41942         1.99012
LJ           2.79272        -2.80196         3.80726
LJ          -4.48846         3.06263        0.706257
LJ           2.59929        -5.02544        -5.96073
LJ          0.452859         6.26856        -4.34088
LJ             3.285         3.57415         1.90921
LJ          0.693781        0.556066        -5.18495
LJ            2.1561         -2.1551         3.23905
LJ           0.28753         1.10571        0.982415
LJ          -5.35824         1.50837         4.86714
LJ         -0.154586       -0.319057        -5.50846
LJ          -3.96986        -3.68459         -6.0529
LJ          0.498819         4.68735         3.64319
LJ            6.1018         1.22118        -3.86587
LJ           4.85356        -4.82184        -6.16348
LJ          -3.40038        -2.89125        -4.72792
LJ          -4.28339         2.24362         5.20837
LJ           4.23899         4.42365         3.21921
LJ          -1.85134        -6.21296         1.54249
LJ            -4.205        -1.98404        -2.58968
LJ         -0.364846       -0.455502          6.2508
LJ         -0.448482        -3.31092       -0.822973
LJ         -0.219894         2.42949         4.47448
LJ          -1.38525         5.80545          3.7386
LJ           3.50616        0.945581         5.85407
LJ          -4.23909        -6.31556        0.210933
LJ           4.65476          1.9476        -5.53115
LJ          -3.34808         0.81707         1.69256
LJ           1.74118        -3.99807        -3.78315
LJ          -3.69364        -5.10064        -1.53489
LJ            1.1595         3.95328        -3.08066
LJ          -1.60937        -2.91432        -4.11641
LJ            3.0248         5.22616        -1.57922
LJ          -4.59618         3.77592          5.7217
LJ          -3.33272         2.23144         2.12218
LJ         -0.187829           4.863         -4.5923
LJ         0.0288773         4.12877         2.76898
LJ          -5.61496         5.44716       -0.170795
LJ           2.39398         2.00417       -0.344227
LJ         0.0209267          5.3748         5.52652
LJ          -5.69838          2.7475        -3.02688
LJ           4.77616         4.54469        -2.65314
LJ           3.54403         4.95651        -5.73753
LJ          -1.48859        -4.03405        -1.21688
LJ           4.53755       -0.259241         2.43208
LJ          -6.37015         1.27447         1.31296
LJ          0.300548        -1.01086        -2.20884
LJ           3.41684         4.60722        -4.09384
LJ           1.57688         1.87864         5.52789
LJ          -5.40566        -3.87439        -1.74853
