108
#Comment!
LJ           2.75426        -6.18064       -0.280307
LJ             1.846          3.8028        -5.61172
LJ          -3.74801         3.18084         6.11937
LJ           -4.5373         3.00391         4.19335
LJ          -2.72271        -3.28448         6.39299
LJ         -0.918334         3.71671        -4.96782
LJ           4.40653       -0.995617        -2.20434
LJ          -5.58564         4.03176         1.88159
LJ          -4.05889         5.45014       -0.684801
LJ           5.73121        -1.64817         2.77224
LJ          0.656615         1.49403        -4.18206
LJ           4.72231        -6.46077         1.07711
LJ          -3.62875        -5.65498        -4.80578
LJ          0.379148         -4.9268       -0.377509
LJ           3.10521        -2.36478          6.1736
LJ          -6.27745         -6.2217         5.61817
LJ          0.847079        -1.66973         2.70396
LJ         -0.912326        -3.64028        0.253478
LJ           4.63142         1.61815         4.27071
LJ         -0.505272        -1.55339         2.14641
LJ          -1.28489        -6.07622         6.24953
LJ           -4.1038         5.66053        -3.88171
LJ          -3.16156        -5.47036        0.392455
LJ           5.39188        -3.67886         1.45541
LJ          -6.26014       -0.171595        -1.99938
LJ            4.8216        -6.42848        -2.47847
LJ            2.7685        -5.29302         4.07765
LJ           2.76616         -2.0231         4.12742
LJ           3.45727         6.37044         4.79683
LJ           2.31894          4.3639         5.55324
LJ          -1.22022         1.16312        -3.09437
LJ          0.249258          2.3817         2.27558
LJ         -0.230058         4.17459        -6.39433
LJ          -4.06536        -3.84952         2.07266
LJ          0.884966         2.79601         -2.8456
LJ           4.16253        -6.40037       -0.666469
LJ          -4.54846         5.67169         3.03532
LJ          -3.18107       -0.447062        -5.43427
LJ          -4.10056        0.193294         6.04808
LJ          -4.45116        0.863428        -3.00329
LJ           5.48682         2.20568        -3.09584
LJ         -0.122562         3.40449         4.32517
LJ          -1.95566        -6.04149        -2.37715
LJ         -0.300915        -6.23516        -5.13602
LJ         -0.831054        -4.20537         3.31246
LJ          -3.55614         4.57776        0.594481
LJ           2.85641        -6.22414        -3.40549
LJ          -3.40535          4.1914        -2.07045
LJ           4.97153         5.71566         4.81184
LJ           1.34902         4.53541        -3.47632
LJ           2.97791        -1.68069         1.35679
LJ          -5.28286        -5.82762          2.9918
LJ           4.20532       -0.671152       -0.770302
LJ           4.26815         4.89344       -0.457731
LJ           -5.2208       -0.189202        -1.67128
LJ           2.88413       -0.207541        -3.23851
LJ           5.19462        -5.21119        -4.51129
LJ           2.43471        -2.62536        -2.90725
LJ           3.63832         1.26248        -4.32925
LJ          -4.96015         5.15863          5.2769
LJ          -4.71686         4.50189       -0.101275
LJ            5.7141         5.00521       -0.792105
LJ          -3.27192         6.45633       -0.683693
LJ          -3.79854         -4.3064        -1.74663
LJ         0.0890177         4.21379         5.53255
LJ           3.71815        -5.47502        -1.78996
LJ           4.30191        -3.46641         2.28873
LJ           -2.3123         3.93014        -4.40302
LJ          -3.24128        -1.22303        -2.60402
LJ           2.90342         5.74782        -4.71678
LJ         -0.342783         1.85287        -3.05922
LJ           6.36263        -6.40374         2.73716
LJ           1.11363         4.48057         5.97279
LJ          -5.05704        -5.39869         4.97633
LJ          -4.01483        -2.61336        -4.13337
LJ          -3.39089         4.87727        -3.38896
LJ           5.29051         4.30079         2.92463
LJ          -0.32222        -2.50992        -2.51575
LJ           4.97838         1.00093         1.64759
LJ          -6.33692        -2.88489        -5.06976
LJ          -4.27043        -5.30428        -3.25302
LJ          0.655733        -3.25453        -5.97365
LJ          -1.82494        -6.01209         1.32244
LJ            1.9962         2.67945         1.36557
LJ          -2.44398        -2.66758         -4.2808
LJ          -4.66888         1.61415        -6.02244
LJ          -1.53212        -1.18223        -1.53395
LJ          -4.72653        -6.08159        -4.70838
LJ           2.87523        0.445688        0.613727
LJ          -5.49832         1.58232         2.99068
LJ           3.81829        0.806025        -1.01509
LJ          -1.20956         5.51472        -5.66648
LJ         -0.630517        -3.13579        -3.88533
LJ          0.327296        0.660544         4.95741
LJ           5.81485         1.71872         2.83038
LJ          -1.95385         5.58984        -4.08095
LJ           2.77354           2.101        -5.46774
LJ           1.17733         1.06346       -0.611402
LJ           5.38276        -5.08351       -0.524124
LJ          -1.12907         4.83603        -4.66964
LJ          -5.39237        0.787338        -5.72603
LJ           1.52666         5.81863         4.09587
LJ          -2.45232        -3.31159        0.759223
LJ          -2.61516         5.32914        0.350946
LJ           6.36872         5.26221         -2.7893
LJ          -2.61179        -6.20006         4.99865
LJ           4.68299        -6.24418         2.80608
LJ          -6.06295         5.33226        0.191417
