108
#Comment!
LJ          -6.20347        -1.07509       -0.438793
LJ         0.0806219        -3.20286         1.40829
LJ           5.33115        -5.57499         2.23684
LJ           4.51146         4.80896        0.191955
LJ          -3.42811        -4.57728         2.86518
LJ         -0.550532         3.85765         5.21958
LJ           5.52123          3.3452        -5.81573
LJ          -5.89495          3.3002         2.18971
LJ          -1.99807        -1.49506         -1.8245
LJ          -4.34867          5.3878         6.00937
LJ         -0.208331         -1.4514         5.52088
LJ          0.612178        -3.45201          5.3519
LJ           6.32283        -4.83389        -1.52118
LJ          -3.99004        -2.81395         5.52135
LJ          -4.86569          -5.712        -3.20594
LJ         -0.409135         6.21414         5.56784
LJ          -5.62537        -3.70525        -3.72687
LJ            3.4345         3.79403         5.10814
LJ            2.6242       -0.250803       -0.651182
LJ          -1.59872          5.5719       -0.507686
LJ          -5.72898         6.20735         4.39944
LJ          -4.46731         3.61972        0.275098
LJ          -3.63903       -0.583525        -1.70701
LJ           5.03742         2.14753        -5.00862
LJ           3.18313         3.43825         6.43396
LJ           -3.8884        0.798463         5.09187
LJ            3.2695        -1.05559        -2.88946
LJ          -3.64839         2.24071         5.20085
LJ           1.19153        -3.80044         2.18764
LJ          -1.80029        -2.82488        -1.71789
LJ        -0.0486087         3.64392         6.26605
LJ           6.33678        -1.60702        -3.05292
LJ           5.16941        -4.08447        -3.06867
LJ           4.71751         -2.1908         2.01571
LJ            5.6136        -3.85068         4.50742
LJ           -6.4008        -1.84891         2.60372
LJ           1.68902       -0.871269         5.91897
LJ          -2.69494        -4.24346         4.29762
LJ          -4.93898         3.17381         1.32141
LJ         -0.488258       0.0409777         3.53678
LJ          -3.30258         6.21582       -0.644722
LJ         0.0436104        0.687588        0.198481
LJ          -1.38076        -1.61575        -3.87999
LJ           6.02494         2.25331        0.829717
LJ          -2.35403        -2.93559         3.88915
LJ           -2.3058         1.97042        -1.82727
LJ           5.66231         5.48303        -4.36248
LJ          -4.33437       -0.583991        -3.32215
LJ           4.04529        -5.93319        -2.42921
LJ           3.71215         6.17875         2.89275
LJ          0.238029         2.33431       -0.934063
LJ          -6.36859        -5.01789         3.58808
LJ          -1.63366         2.50506         1.15381
LJ             5.873       -0.617528         3.01668
LJ          -4.25043        -1.17962         4.03721
LJ           2.29711         3.89702        -5.42378
LJ           4.97369         5.17302           4.599
LJ          -0.03622        0.712978          -2.169
LJ          -2.74125        -4.30016        -4.91487
LJ           2.88168        -4.80053         5.33143
LJ           1.81493         3.16221         1.87168
LJ           1.73208         5.25289        -2.39031
LJ          -4.15129         2.60361       -0.663616
LJ           1.01431         3.38497         4.20369
LJ         -0.861907         1.61071        -1.13677
LJ          -1.15372         1.77765        -5.73384
LJ          -5.24072         2.06872         6.01065
LJ           1.78502        -6.16424       -0.951511
LJ           -0.7981        -4.54612        -6.17225
LJ           -3.9005         -1.0725        -4.79701
LJ           3.94049        -2.81125         2.84643
LJ          -4.58263        -1.12386        -1.21121
LJ          -1.41059        -3.70052        -1.60949
LJ          -3.65127        -5.00775         4.15879
LJ          -3.64619        -5.98731         5.92346
LJ         -0.986824      -0.0534676         4.84883
LJ          -4.42472        -6.28677        -4.20762
LJ           4.32045        -4.34922        -3.93478
LJ          -3.24836        -4.21511        -1.62017
LJ          0.651993        -4.82824          -5.377
LJ          -1.77048         1.00442         4.15745
LJ          -5.01394          4.1992         6.42869
LJ          -5.59249        -1.54488        -1.19604
LJ           5.92463         4.10586         3.63512
LJ          0.502309        -5.52415        -1.22234
LJ          -5.20428         2.72429         4.14415
LJ           4.22812        -4.87709        -2.66473
LJ          -4.09076        -3.61079         2.49259
LJ            6.1884         5.88856        -2.96798
LJ           5.50975        -1.95056        -6.21319
LJ          0.320265        -1.53012          1.1949
LJ           1.25269        -4.41664        -2.38714
LJ           2.88699         5.66889         5.83443
LJ            -1.733         6.38142         2.48973
LJ          -5.52417        -1.32632        0.516043
LJ          -4.33334          5.9314       -0.815747
LJ          -3.06426        -2.33136        -1.12783
LJ           2.23103        -6.13656        -1.83286
LJ          -1.42769         4.13759        -5.60951
LJ           -6.2006         4.25343         1.09957
LJ          -4.66989        -3.04111          4.3864
LJ           1.40464         3.90099        -6.18354
LJ         -0.998095       -0.744792         3.70886
LJ          -6.00955         -1.5481         5.58295
LJ          -3.66256       -0.792033         1.06276
LJ           1.47631         6.11615         -3.0583
LJ          -4.18846       -0.390652         1.94048
LJ          -5.10217        -4.10014        -4.55972
