108
#Comment!
LJ           4.53454        -5.25445         5.43125
LJ           1.99486         -1.1054         5.77653
LJ           1.24479         1.28705       0.0877675
LJ           -3.4493         3.31822         4.29083
LJ           6.33657         2.18973        -1.07939
LJ         -0.249133        -6.30484         5.03297
LJ          -4.47913         5.61868       -0.668118
LJ           2.12192       -0.945555        -3.82429
LJ           4.92173       -0.380773         -3.6266
LJ          -1.16107        0.147141        -2.31898
LJ            1.4136         3.44622        -3.31999
LJ           5.01394          3.6356         1.22583
LJ         0.0573654         4.90432        -4.36533
LJ          -1.51312        0.324016         -5.2826
LJ           1.14475         6.06018          -2.951
LJ          -5.64376         6.16168         2.41625
LJ          -2.08167         4.34383         2.07278
LJ          -1.40319        -5.96241         5.29188
LJ           4.68719         6.43995         6.00141
LJ          0.892329        -4.63696         1.76558
LJ          -2.99731        -2.25693         3.79613
LJ           1.47669        -6.36617        -6.29041
LJ           2.45146        -4.52003         3.98742
LJ          -1.41432          3.1141         1.79821
LJ          -4.95678        -4.43147        -2.03602
LJ          -4.37866      -0.0395148        -2.46662
LJ           2.56912        -6.19991         3.10836
LJ           2.71122        -1.96107        -5.19494
LJ          -2.20255        -4.68499         2.49872
LJ         -0.146472         2.01839       -0.708766
LJ           3.73523         3.66569        -3.73202
LJ          -2.87521         5.05256        -5.74264
LJ           5.08028        -4.41145         3.90894
LJ          -5.30845        -4.74563        -5.89109
LJ          -3.84363         1.03034         5.34197
LJ           4.15935        -6.29593         4.39038
LJ          -5.14575         4.98346         2.29183
LJ           3.78363         1.07451          5.9406
LJ          -4.76239         -5.5689        0.154586
LJ           3.32693         2.48759        -1.10248
LJ          -6.33742      -0.0927421         1.03358
LJ            4.7378        -4.14941        -2.07541
LJ           3.51202         2.57079         -5.1608
LJ          -5.87067         2.89894       -0.378632
LJ           -6.3093      -0.0122994        -3.62033
LJ          -2.43989        -2.71485        0.443321
LJ         -0.242167       -0.580604         1.95405
LJ          -2.42682        0.530686        -5.98462
LJ          -2.78674        -3.49919        0.900373
LJ           -6.0344         5.82106        -4.17548
LJ           2.10412        -1.34404          3.6205
LJ           2.48213         1.41365         -6.2984
LJ           4.82869        -3.21181        -5.17624
LJ         -0.208461         5.68931        -1.57206
LJ          -3.40225        -3.86721        -4.24802
LJ           1.57825        -2.04889       -0.424848
LJ            2.8794         2.71587         3.11814
LJ           6.00369        -4.58381        -5.88954
LJ          -4.49406         4.98994         5.48394
LJ          -2.97143        -3.23062        -2.94748
LJ          -6.20596        -5.30923         3.02147
LJ          -5.58393         4.23368        -0.14853
LJ          -4.07933        -5.91744        -2.71017
LJ            4.9255         4.64345         5.36655
LJ           1.61486         3.86815         2.55001
LJ           1.96768        -6.35647         1.99828
LJ            1.5793         5.36812         5.32726
LJ           2.01919        -3.94095       -0.585175
LJ          -1.04319        -1.22997         1.57865
LJ           3.17585         4.75534       -0.632562
LJ           -4.0428         5.66795         -2.3796
LJ          -4.83738         6.24985        -1.45887
LJ          0.135203        -2.48388        -5.30233
LJ           4.05696         1.83033        -6.10239
LJ         -0.330078         3.28871        -3.11573
LJ          -5.10676         1.69693        -2.98573
LJ           5.55616       -0.938541         4.69241
LJ          -6.31273         5.31148        -1.75217
LJ            4.3546       -0.561056          4.2792
LJ           5.16399        -3.32149        -2.29637
LJ          -1.18829         4.00803        -3.51951
LJ           1.74703         5.53728        -6.35162
LJ          -3.96498          1.2592        -1.14528
LJ           3.60237        0.205376         2.46474
LJ           2.87281        -2.14998         -4.0932
LJ          -0.31193         5.64654       -0.417603
LJ          -1.73372        -3.49425        0.460852
LJ           -4.2274        -3.63181       -0.834545
LJ          -3.76639        -1.97322         4.89144
LJ            2.9788         5.98533          -3.856
LJ           4.05803         5.62322         2.99195
LJ           1.80597        -4.17082         1.45992
LJ          -3.97933         3.58174        -2.33293
LJ           5.00312         2.70076         6.24661
LJ          -5.92893        -4.13426         6.08582
LJ          -3.91803        -2.18254       -0.989238
LJ            2.9755          3.6866        0.321879
LJ          -1.69889         3.78325        -5.91185
LJ          -2.98011         2.09431        -4.29653
LJ         -0.230812       -0.979294        -1.25485
LJ           2.65337        -2.53283         5.57232
LJ           1.18353         -2.7913         6.23879
LJ           6.15683        0.479741        -6.10152
LJ         -0.628485        0.988981         3.84589
LJ          -6.37336        -3.14975        0.150264
LJ          -3.30615        -5.17701         4.12969
LJ          -1.74337       -0.373746        0.374394
LJ          -2.16561        -5.29355        -1.01166
