108
#Comment!
LJ          -1.01375       -0.917989         1.26647
LJ          -3.07176         -4.1071        -5.67237
LJ           5.26199         2.79154        -3.34659
LJ          -1.68301        -5.75863          1.4472
LJ           2.28239         5.61485       -0.776657
LJ           5.38726         2.38418        0.787536
LJ          0.849711         2.52742         1.21773
LJ           5.11061         1.57616         3.18283
LJ           6.17187          1.6715         5.80392
LJ            2.0262        -2.89569         4.77972
LJ          -3.17008          1.3966         4.52217
LJ            6.1241         5.51578        -2.84696
LJ          -2.40884        -6.01501         5.33553
LJ           -1.8878         5.77866        -3.37701
LJ           3.40275         2.97775        -3.00777
LJ          -5.81268        -1.44206         2.96976
LJ          -5.26693         4.42438         3.07236
LJ          -6.24501       -0.117757         1.11661
LJ          0.360745        -5.43798        -3.39805
LJ          -5.64454        -2.73799         3.36989
LJ          0.953494        -5.11902         6.12016
LJ          -5.17826         5.58356         5.98107
LJ          -6.18565         4.06731        -3.82522
LJ           2.88635         6.23905        -2.79209
LJ           3.69706         5.75975         3.38611
LJ         -0.697883         1.48395        -1.40748
LJ          -3.19909         4.03018         6.11724
LJ          -6.10695         3.20114      -0.0955751
LJ           1.65305         -4.6912         1.27939
LJ          -2.87962         1.01795       -0.758318
LJ          -3.94201      -0.0955466          5.8858
LJ        -0.0535344        0.246484         3.20568
LJ          -2.44906         3.53268         5.41062
LJ           3.37579       -0.836154         -5.1563
LJ          -6.45068      -0.0411458        -4.39632
LJ         -0.950576         3.32322         1.91262
LJ          -1.96139        -4.46484        -4.84101
LJ          -5.32381        -1.85263         4.29129
LJ          -4.19684         6.15414         5.88665
LJ          -4.19248        -3.71804         6.32459
LJ          0.141377         1.64017       0.0939549
LJ          -4.40062         1.38952        -1.26741
LJ           3.77402          5.4115        -5.65083
LJ           1.12095        -3.31321         4.89649
LJ           6.09017          2.1043        -1.83076
LJ            4.3523         6.36332         3.77654
LJ          -5.68178         2.18228        -1.38518
LJ          0.221128        -2.22626       -0.813249
LJ           4.74755        -6.07252       -0.978569
LJ           1.31615        -1.01655        -5.31201
LJ          -5.43853         2.01787         5.88885
LJ          -1.67747        -3.75044         2.23688
LJ          -6.09554        -6.27484        -5.88865
LJ         -0.813528         1.43076         5.18439
LJ           3.01592        0.960574       -0.858314
LJ           1.21304        0.683197         3.87855
LJ          -6.16166        -6.17006         5.54921
LJ          -1.51401         3.59977        -2.13104
LJ           2.44098        -3.21516        -4.73694
LJ           4.45104        -5.29303         1.73615
LJ           2.31604        -5.30907        -5.29058
LJ          -5.40852        -1.16056         5.28996
LJ           6.16413         -4.6628         4.98289
LJ           2.65336        -4.74397        0.769658
LJ           -3.4502         1.71584          3.6685
LJ            1.5949        -4.71433         3.05757
LJ          -3.34844        0.449661        -6.08855
LJ          -5.03395        -4.78316        -5.71954
LJ          -4.72659        0.720173         4.63719
LJ           0.98636        0.655813        -1.39201
LJ          -4.15092        -2.43609         1.59923
LJ          -1.12771        -1.59358         3.81203
LJ           1.26057      -0.0825674        -2.13562
LJ            6.3478        -2.80838        -1.48835
LJ            4.6882         4.27128        -3.50243
LJ          -5.17248         4.30285        -2.29529
LJ           0.92526        0.841599         -2.8659
LJ           5.11422         1.00871         4.26075
LJ           2.65109        -3.43023        -5.64879
LJ           5.25567         3.28832         1.71018
LJ           4.51423           -4.88         3.10705
LJ          -3.63827         -4.8457         4.72083
LJ         -0.821551        -1.75694         -3.4135
LJ          -5.14938         5.93887         2.42808
LJ           4.73499        -4.79932         6.22883
LJ           5.22898         -1.5286        -3.58648
LJ          -2.44886        -3.86461        -3.67524
LJ          -3.87743        -4.60897        -3.33525
LJ         0.0988007        -5.74152        -4.74852
LJ          -5.77296        0.444286         2.33214
LJ           3.74736        -3.05931        -3.04126
LJ          -5.35291        -3.67681       -0.139449
LJ          -4.85526        -4.72663        -1.94992
LJ          0.176843         6.21271       -0.147978
LJ          -4.21713         6.14322        -5.28933
LJ           4.12719        -3.55254         2.92604
LJ          -4.92761       -0.706427        -2.34916
LJ           1.27637        -3.23041      -0.0619308
LJ            5.2189         6.35959         2.66512
LJ           1.22492          4.3068          2.4115
LJ           4.57968        -2.28204        -3.00635
LJ           3.27777         5.09329         4.54695
LJ       -0.00598607        -1.29951         1.86341
LJ           3.19604         4.23255         -2.2502
LJ           1.21515           5.529         0.71566
LJ          -5.91803        -2.66766        0.457407
LJ          -5.01433        -6.05644        -5.25626
LJ           2.39125         3.06632        -2.09658
