108
#Comment!
LJ      -0.000426303         5.93614         5.34629
LJ           2.34097        -2.93071         6.11243
LJ           -2.4112        -3.69388        -4.83624
LJ           2.50398        -4.81732        -4.95687
LJ           4.28134        -4.32324        -5.50315
LJ          -5.74827        -3.92261         6.06006
LJ           3.76614        -5.07883        -2.25826
LJ          -4.96389         6.13849        -3.48714
LJ           -5.3259         5.91877         4.80983
LJ          0.738888        -5.83331        -6.22577
LJ          -6.23992        -5.09238        -6.10369
LJ          -1.75472         5.64452         -3.5444
LJ         -0.644819        -1.37399        -5.14162
LJ           2.23849     -0.00506682        -5.81387
LJ          -0.18749        0.812281        -2.84611
LJ           2.85753        -2.42844         -3.9573
LJ           3.04152       -0.686377         6.38888
LJ          -5.85749        -2.12726         6.37746
LJ           1.22891        -2.26211        -4.01243
LJ            1.6024        -6.02054         4.63741
LJ          -3.15363        -2.98263         6.09613
LJ           1.63912         2.89842         4.42574
LJ          -3.02837        0.599275        -6.41308
LJ          -2.23545         -2.2132        -3.01196
LJ        -0.0260802         6.39225         -6.3303
LJ           3.14812         3.34031        -6.22534
LJ         -0.176218          6.0216        -4.31971
LJ             2.937         1.81408        -5.50065
LJ           4.13036         1.56195         5.51111
LJ           -6.2077         2.78308        -3.84388
LJ           3.96941         4.11962        -3.69684
LJ          -5.90493         3.74747        -3.01766
LJ          -4.71506         2.33613         5.79044
LJ          -1.57591          3.3397         5.98885
LJ          -4.92457         5.16312        -5.91246
LJ         -0.929946         1.96735         -3.4577
LJ          0.561608         5.35027        -1.85328
LJ          0.646062        -4.60137        -3.27596
LJ          0.485371        -4.11721       -0.685062
LJ           2.09292        -6.24695         1.03973
LJ            3.7237        -6.01332         -1.7304
LJ          -6.40517        -5.34826        -4.07132
LJ          -3.49247         5.79456      -0.0141414
LJ           5.37324          5.5865         1.63935
LJ          -5.97283        -6.45316        -3.99345
LJ           4.93349        -4.75768         5.82017
LJ          -4.55725         6.22128       -0.804823
LJ          -1.74358        -5.96971        0.483494
LJ         -0.388788        -1.64783        -2.80239
LJ           3.80431         1.90288        -4.22183
LJ          -2.05468         2.73561        0.572544
LJ           1.88748        -1.65215       -0.395806
LJ          -1.59789        -1.80705       -0.271118
LJ          -5.22463         1.27125         -1.2237
LJ           3.71434        -0.62665       -0.831424
LJ           2.82307         1.19623       -0.906885
LJ           2.36143        -3.61511         3.83123
LJ          -2.44213         0.41811        -2.39948
LJ           4.73265         3.21832        0.887474
LJ         -0.393109        -4.47891        0.752206
LJ          -2.53227         3.48644        -1.70227
LJ          -6.40495         2.42546          1.2482
LJ          -2.73178          4.6106      0.00607172
LJ           2.82889         1.97323        -2.49901
LJ           3.96007         4.44897        -2.60533
LJ          -5.19115         5.32121       -0.292285
LJ           4.21688           3.858         1.71478
LJ          -5.84651          1.3624        0.461733
LJ           4.73637         4.39257        -4.99434
LJ          0.163728         1.56855        -1.41134
LJ          -5.96635         4.39524       -0.707198
LJ          0.238677         3.26952        -1.50215
LJ        -0.0907575        -6.39451         1.85811
LJ             3.896        -4.28666        0.530315
LJ         -0.421094        -6.10167         4.44861
LJ           2.46394          6.3934         4.15788
LJ           2.93676        -5.60431         3.12185
LJ          -6.17236         -4.7899         2.53571
LJ         -0.347454        -3.99009         1.59818
LJ          -6.39317        -4.47591         4.18077
LJ          -4.42364          5.8455         3.04794
LJ          -2.10421        -5.07333         2.21573
LJ          -3.94408        -4.14799         4.57696
LJ          -2.15411        -6.21817        -6.21163
LJ          -3.88665         -6.0762        -1.35716
LJ           1.15692      -0.0353813         1.81261
LJ         -0.124125         2.89818         4.89315
LJ           1.77416        -2.40518         3.76338
LJ          -3.53682         1.21061         2.50385
LJ           4.09243       -0.984926         3.79008
LJ           4.47994         1.56205         2.74692
LJ          -5.18581        -3.50564         3.86886
LJ            -4.205        -2.38065         1.63277
LJ          -1.97426        0.810646         2.45961
LJ           -4.6991        0.600114         5.00969
LJ           3.33336        0.299611         5.75104
LJ          -2.74039          1.2803         5.87416
LJ             2.171         5.17922         2.33712
LJ           -2.2238         4.59945         5.26576
LJ           3.02692       -0.352062         4.02145
LJ          0.868485        -0.36677         4.14926
LJ          -3.43801         3.88322        0.226417
LJ           4.13712         3.31096         4.52728
LJ          -6.02852         1.10214         4.79399
LJ          -5.17105       0.0221727         2.46642
LJ         0.0863202         3.71869          2.0266
LJ          -5.18609         4.44081         5.45527
LJ          -2.28344        0.744378         4.31067
