108
#Comment!
LJ          -6.15376       -0.974617       -0.393399
LJ          0.162653        -3.18374         1.28344
LJ           5.39171        -5.44738         2.48481
LJ           4.48466         5.04142        0.120449
LJ          -3.40163        -4.66456         3.10545
LJ         -0.362124         3.89293         5.23099
LJ           5.43233         3.30066        -5.93537
LJ          -5.84834         3.17479         2.41981
LJ          -2.22086        -1.74401        -2.00078
LJ          -4.72927         5.48927         6.27576
LJ         -0.210019        -1.44151         5.80876
LJ          0.575912        -3.48031         5.53578
LJ          -6.40804        -4.65481        -1.56477
LJ          -4.00115        -2.71172         5.44824
LJ          -4.77049        -5.81362        -3.39675
LJ         -0.419846         6.29515         5.54129
LJ          -5.78172        -3.71491        -3.80957
LJ           3.61863         3.78143         5.10577
LJ           2.93348       -0.200877       -0.633579
LJ          -1.54091         5.68114       -0.442316
LJ           -6.0635         6.38732         4.35696
LJ          -4.49696          3.6027        0.261252
LJ           -3.6986       -0.673235        -1.71949
LJ           4.97442         2.09955        -5.02594
LJ           2.81473         3.37305        -6.32195
LJ          -3.99387        0.703875         5.03599
LJ           2.89755        -1.10178        -2.90466
LJ          -3.73934         2.19394         5.01098
LJ           1.24447        -3.78045         2.08731
LJ          -1.78375        -2.88581        -1.78377
LJ         0.0149804         3.51321         6.28075
LJ          -6.43473        -1.42827        -3.26718
LJ           4.94797        -4.06721        -2.89967
LJ           4.77075        -2.32492         1.93414
LJ           5.59306        -4.12308         4.71144
LJ          -6.35823        -1.79288         2.73683
LJ           1.80365       -0.771337         5.83679
LJ          -2.55501        -4.11247         4.30495
LJ          -4.86362         3.34453         1.19907
LJ         -0.479948         0.46663         3.47159
LJ          -3.03847        -6.44971       -0.836588
LJ          0.226912        0.791892       0.0647064
LJ          -1.29606        -1.79398        -3.76909
LJ           6.14436         2.40981         1.02267
LJ          -2.17259        -2.68351         3.73148
LJ          -2.12561         1.99205        -1.95102
LJ           5.71653         5.68055        -4.67938
LJ          -4.39129       -0.561187        -3.46211
LJ            3.9221        -6.00679        -2.21889
LJ           3.48643         6.23097         2.97603
LJ           0.27761         2.34321        -1.13978
LJ           6.42604        -4.97875         3.56782
LJ          -1.69932         2.64172         1.36165
LJ           5.79433       -0.265207         3.05594
LJ          -4.20846        -1.27385         4.04361
LJ           2.32822         3.97581        -5.75103
LJ           5.14874         5.18907         4.54474
LJ         0.0665618         0.84515        -2.03021
LJ          -2.74482        -4.12136        -4.70077
LJ           2.87985        -4.99697         5.16091
LJ           1.43286         3.12588           1.816
LJ           1.66085         5.02277         -2.6058
LJ          -4.19178         2.41873       -0.810525
LJ           1.17973          3.4473         4.17035
LJ         -0.881405         1.56947        -1.09021
LJ          -1.34918         1.73096        -5.58581
LJ          -5.09321         2.01264          5.9191
LJ           1.72391        -6.11777       -0.808798
LJ          -1.00397        -4.47172         -5.9096
LJ          -4.05014        -1.21782        -4.87623
LJ           4.11798        -2.68454         2.62619
LJ          -4.78492        -1.02385        -1.23939
LJ          -1.34575        -3.97414        -1.56463
LJ          -3.72749        -4.97444         4.13809
LJ          -3.66483        -5.71801         5.99837
LJ         -0.929847      -0.0793548         4.70613
LJ          -4.44758         6.42525        -4.35474
LJ           4.39523        -4.35745        -3.94671
LJ          -3.18775        -4.48587        -1.49726
LJ          0.405281        -4.90478        -5.45356
LJ          -1.75026         1.09405         4.43322
LJ          -5.09811         4.19058         6.30026
LJ           -5.5938        -1.78027         -1.1457
LJ           6.16899         3.96914         3.58013
LJ          0.307799        -5.27135        -1.21034
LJ          -5.14278         2.54731           4.523
LJ           3.98624        -4.79432        -2.51762
LJ          -4.02479        -3.69323         2.47132
LJ           5.91543          6.0326         -2.8843
LJ           5.37108        -1.95713        -6.16285
LJ          0.445286        -1.81535         1.13775
LJ            1.2101        -4.46359        -2.53638
LJ           3.01774         5.77453         5.74215
LJ          -1.70426         6.43029         2.85701
LJ          -5.43443         -1.3026         0.68274
LJ          -4.35567         5.83371        -0.87893
LJ          -2.86124        -2.45368        -1.08024
LJ           2.39422        -5.85354        -1.97397
LJ           -1.4513         3.84769        -5.41013
LJ           -6.1361         4.30372         0.97011
LJ          -4.48576        -3.21764         4.49512
LJ           1.33941         4.05135        -6.32039
LJ         -0.883344       -0.972556         3.71347
LJ          -6.05042        -1.38605         5.57919
LJ          -3.70787        -1.08674        0.824857
LJ           1.52067         5.93389        -3.01472
LJ          -4.13457       -0.854498         1.73088
LJ          -4.76619        -3.99321        -4.31025
