108
#Comment!
LJ           3.84067         4.68592         -5.1653
LJ          -2.86406        -2.28505         6.37466
LJ           6.31144       0.0167702        -2.70646
LJ          -3.26118        -1.10947          6.3431
LJ          -2.50468        -4.41535         5.84075
LJ           3.63557         2.27774         3.21693
LJ          -3.60072        -4.87115        -1.08069
LJ           5.62163           4.092          1.4263
LJ          0.170911         3.21215         5.12589
LJ           2.90244        -3.12828         1.35794
LJ          -6.44152          6.1953        -3.66425
LJ          -6.24558         4.79928        -2.75751
LJ           5.44175       -0.525077        -5.82276
LJ           1.20352        0.952688         6.15829
LJ           5.21758         2.24085         -2.8094
LJ          0.404761        -6.39051         3.47957
LJ            1.7575         4.84043         4.42044
LJ           2.21131        -6.11486         4.68702
LJ           1.59874        -4.89867       -0.350714
LJ           2.29756        -3.36899         6.39041
LJ           1.57612        -5.24564         4.86042
LJ           -1.0945        -5.74016       -0.445457
LJ           1.66673        -4.03989       -0.873361
LJ           6.07484       -0.218533        -1.46081
LJ           2.09343         5.49657         3.74008
LJ          -2.12972       0.0517538        -6.02168
LJ          0.221626        -2.76419        -3.25007
LJ         0.0260179         1.63468         4.87137
LJ          -3.25569        -1.23123         3.52588
LJ           2.96722        0.444326        0.279789
LJ          -1.20574         3.34401        -2.32751
LJ           3.12343         1.15462         1.14368
LJ        -0.0673538         3.23897         2.84285
LJ            3.1672         3.31526        -3.42601
LJ          -1.45658        -5.32194        0.479556
LJ           -2.4821        -4.29922        -1.25699
LJ           6.01081         3.43519        -1.47848
LJ          -5.24481         6.00555        -2.75337
LJ           5.50661        -4.66369       -0.720185
LJ         -0.201452         -4.9301        -1.82938
LJ          -3.27001        -6.02161        -2.66238
LJ           2.69219         5.16611        -5.45983
LJ          -4.73507         3.98013          1.4992
LJ            3.8322         3.78415          5.0685
LJ          -4.20475          5.3392         4.31404
LJ           5.45411        -4.78843         2.36399
LJ          -5.86424        0.838077        -1.29644
LJ          -5.64262        -5.81163         -1.6672
LJ           6.31248        -4.66867         -3.8196
LJ         -0.342267         2.11189         1.56583
LJ          -1.79115        -2.76322         2.90569
LJ           -4.4326        -1.32528        -1.18838
LJ          0.049746         -4.6419          1.9681
LJ           3.47585         2.40161         1.06829
LJ           -5.1657        -1.30397        0.014145
LJ          -3.19767         5.40931        -2.63265
LJ         -0.536793        -3.94594        -2.24164
LJ           4.89753        0.662756        -3.18807
LJ           5.58156          5.0169        0.196069
LJ          -4.27587         5.88515        -4.62889
LJ          -6.12147          5.6577        -2.20824
LJ           3.17829         1.11825         4.66549
LJ          -1.98603        -2.63661         -5.7064
LJ          -2.37292        -1.92486        -2.62139
LJ           1.80551        -3.54702        -3.30425
LJ          -5.16549         0.63197         5.02434
LJ          -4.87249        -5.93557        -4.48445
LJ           1.25333         1.76629         2.74972
LJ           5.62967        -5.97828         2.12136
LJ           4.01019        -3.98195        0.563399
LJ           -6.0565        -6.27314        -2.78575
LJ          -1.55643         5.85057        -3.30503
LJ           2.45205        -4.94253        -4.20968
LJ           5.11575        -2.73159         -5.2361
LJ          -4.59158        -5.82113         1.75318
LJ           3.08601        -1.90604         5.42107
LJ           1.27983        -5.74992          2.4056
LJ           3.65243        -4.05003         5.83924
LJ          -2.54511         -3.3358         1.95122
LJ         -0.345837       0.0485865         2.13064
LJ           1.12792        -6.45573         4.28456
LJ            -6.153         5.32093       -0.153535
LJ         0.0164664         5.73417        -6.45838
LJ           4.95233         5.44018         -4.7468
LJ         0.0950565         4.07951        -5.79653
LJ          -4.24302         1.54802        0.795053
LJ            6.1602        -6.00591         5.98244
LJ          -4.08303        0.704171         5.19108
LJ          -1.39017         4.75304         4.28836
LJ           5.30812         1.74231         5.07968
LJ          -3.66653         3.84517        0.082425
LJ          -6.45741        -5.49756         3.27362
LJ           1.73146         -3.7877         1.21173
LJ          -3.48568        -1.79057         2.34839
LJ          -2.60961         1.94778         4.03527
LJ           5.55489          5.8541        -5.97193
LJ          -5.19701         4.64925         4.15358
LJ         -0.683946        -5.71891        -2.35282
LJ          -4.44833         -3.5814         5.38488
LJ          0.424476        -1.81823         4.95515
LJ           1.45538        -5.00223        -4.95627
LJ         -0.530293        -1.10177        0.646036
LJ          -5.04935         1.34537        -5.21417
LJ           3.86069          2.8983         4.65783
LJ          0.564402         1.15542           2.507
LJ           2.44628         1.02445         3.09764
LJ         0.0733293         4.35579         5.34959
LJ          -3.45356        -1.87338        0.725296
