108
#Comment!
LJ           3.58712         1.64577        -4.28298
LJ          -2.97242         -4.4931          -1.678
LJ           4.18526        -1.31552        -5.97928
LJ          -1.61865         3.32862         5.63644
LJ             6.153        -3.53056         1.98503
LJ          -4.19343         6.01464         4.94034
LJ           1.56061         3.33298        -1.47871
LJ           4.58909         4.67364        -5.74183
LJ         -0.219375        -4.85604         1.65186
LJ          -6.32709        -5.82275         -1.1904
LJ          -1.10954        0.515232       -0.216637
LJ           3.02872       -0.667142         2.93425
LJ           4.01972        -4.94951        -2.12465
LJ           -6.0955        -1.10687         -2.0223
LJ          -2.03713        -3.64988        -1.55337
LJ           6.32205        0.907357        -2.90044
LJ          -3.94012         4.63075       -0.698924
LJ          -2.54537        -4.07994      -0.0770855
LJ          -1.95064        -3.09409         1.09152
LJ          0.310254        -5.76054          1.0756
LJ           2.41002        -1.46448        -6.07699
LJ          -3.00046        -1.22862         2.76679
LJ          -1.79567        0.223066        -2.03317
LJ        -0.0909116       -0.953385         0.50069
LJ          -5.11307         1.48638        -1.86516
LJ           3.96739         1.10269          -1.811
LJ           -1.3184         2.24824          4.4436
LJ          -4.90799          4.6874        -1.11555
LJ          -1.93911        -1.54841        -6.22241
LJ           2.75731        -5.35277        -5.88229
LJ           6.31576         0.54784        -5.98632
LJ          -5.10782          1.5348         3.02474
LJ          -1.23381        -1.88163         1.20603
LJ            5.3284         1.00258        -4.07473
LJ          -1.43461        -5.74338        -2.79352
LJ          -4.21017         3.33295       -0.414244
LJ          -5.05421         1.66589        -3.00371
LJ            5.3119        -2.03796        -4.70691
LJ          -1.56325        -4.48928         3.17337
LJ          -3.34363         2.34606         4.69052
LJ          -5.40165         0.95551         -6.3653
LJ           4.73993       -0.744681        -2.64289
LJ           4.30777         5.95008        -2.81466
LJ           6.44875        -5.94804        -5.39195
LJ          0.981352        -2.35599        0.849222
LJ          0.390576         2.09807         5.76737
LJ          -2.96042        -5.87066        -2.21353
LJ          -1.13165        -6.19449         1.60003
LJ          -2.11062        -1.97047         5.41042
LJ           2.87303         5.41545         4.68619
LJ          -1.10497         3.24143       -0.985576
LJ           5.80971        -2.63905        -5.80494
LJ           1.39349        -2.04916        -5.40465
LJ           0.68936         3.62974        -5.40899
LJ           4.50671        0.345143        -4.00461
LJ           -6.1662        -4.73664        -2.11975
LJ          -3.63417        -1.57935         5.03696
LJ          0.989182        -4.30102        -4.28385
LJ          -2.70913           5.849         4.65461
LJ          -5.54499        -0.95704         3.02232
LJ          -1.28872         3.37326        0.167446
LJ           6.36335         4.51346        -5.44425
LJ          -3.02709         2.89471        -1.46526
LJ          -3.10808         4.86054         5.96341
LJ          -4.95749         4.87387         1.52817
LJ          -3.06493        -5.14823        -4.10197
LJ           1.07677          1.1818        0.445652
LJ          0.363135       -0.313005        -4.64675
LJ          -3.11027       -0.865305        0.666422
LJ           1.15396         0.10382       -0.471775
LJ           6.04455           4.942        -4.39429
LJ             3.305        -5.84599        -1.46176
LJ         -0.721877        0.585641        -3.72709
LJ           4.43681         -2.9579        -3.12536
LJ          -3.59631         1.75178        -4.00974
LJ           5.67309         4.96175         5.71017
LJ             5.056         -4.8484        0.665164
LJ           5.52434        -3.59477        -4.08712
LJ           6.09987         4.61127         3.29072
LJ           2.83716         -5.0022         5.01257
LJ           -1.4873        -2.36602        -3.86843
LJ          -4.74938         2.34472         3.85731
LJ          -6.19601        -6.11784        0.177563
LJ          -2.14986        0.404606         3.80108
LJ           -1.1392          5.8579         4.20116
LJ          -1.77014        -1.58284         1.97172
LJ           1.47788        -4.09528         2.16881
LJ            5.0257        -5.19959        -1.89603
LJ           2.61091         2.28317       -0.201802
LJ          -5.69155         5.84644        -3.53254
LJ           3.59827        -2.36702         6.02294
LJ          -5.66518        0.439773        -2.15207
LJ          -4.03165         2.58127        -3.33853
LJ           4.63215        -3.39693       -0.293504
LJ           1.93718        -3.51399         6.21835
LJ          -5.91488         5.07159         5.27108
LJ           3.71855        -2.37797        -5.58651
LJ          -5.85925         2.04521         3.66694
LJ           3.51124        -6.01577        -5.57495
LJ           1.86269        -4.28262         4.79105
LJ          -2.73208          5.9412         2.09965
LJ          -2.84947        -1.40188         4.06856
LJ           4.99741        -4.23642         -3.1986
LJ          -3.41063        -2.61279         1.10029
LJ          0.941541        -1.09014       -0.417689
LJ           3.95692        -4.60557        -6.03386
LJ          -6.35479         1.71083         2.60242
LJ          -5.34523        -6.38741       -0.921763
