108
#Comment!
LJ          -5.44337        0.924297        -2.28061
LJ          0.195722         3.26921       -0.354167
LJ           -2.9744        -5.15307         2.76702
LJ          0.187324         -1.7765         6.42434
LJ           1.40276       -0.441065         4.47934
LJ           -5.3294       -0.759593         3.18648
LJ           2.64668         4.37151        0.321895
LJ           4.13894         4.63926         2.89075
LJ           1.63417       0.0219478        -4.07412
LJ          -4.54409        -5.13588        -3.44676
LJ           5.45513        -4.67605        -1.67857
LJ           2.37766         3.29686         2.82204
LJ           1.89127        -3.83852       -0.841936
LJ           4.54399         -2.2373        0.901013
LJ          -2.38674        -6.19912        -1.19105
LJ           4.83264         2.47441         0.21775
LJ         -0.809568        -3.19647        -2.01455
LJ          -5.87661        -5.38602        -4.05781
LJ          -3.63014         5.47281        -1.84512
LJ          -1.07633        0.336687        0.206604
LJ          -5.23619        -2.23176         3.00082
LJ            3.8796        -1.21145        -1.89642
LJ          -4.65082        0.960298        -3.10624
LJ            4.0785         1.61866        -5.30497
LJ           5.46387         2.15731         3.23113
LJ           6.02451         3.88115        0.154425
LJ           5.73094        0.893323         2.87057
LJ          -5.47759        -4.72639        -1.73355
LJ           4.92903         3.55844        -2.53596
LJ           6.30059         4.66513        -4.33581
LJ          -5.77391        -1.78624         1.84133
LJ           2.82613         1.02396         3.20848
LJ          -4.35607        -4.19383        -1.62496
LJ           5.54921         1.51998      -0.0696231
LJ          -6.12934         2.56224      -0.0509402
LJ          -5.31709         2.68534         5.87446
LJ            -6.179        -5.82213         5.27008
LJ          -4.96191        -2.66388        -3.60565
LJ          -4.17276         -3.4058         1.03378
LJ          -2.23434         4.45698         3.49191
LJ         -0.294732          4.4697        -2.62519
LJ          -1.92355        -4.96254       0.0763495
LJ           2.78315        -1.36039        -1.28035
LJ          -5.94595        -5.88266        -2.57458
LJ           2.38033       -0.472299         3.94873
LJ           5.07555        -5.49063        -4.86764
LJ          -2.38504        -3.38995       -0.565058
LJ          -6.13654         3.34882         4.87161
LJ          -2.83464         2.29421         5.69204
LJ            -5.673          5.2569         2.08893
LJ          -3.76031         4.55723         1.98567
LJ          -4.76089        -3.82672        -4.43867
LJ         -0.651899        -2.28207        -5.84554
LJ          -3.74895         1.70909        -6.07054
LJ           4.21826          3.7276        0.967062
LJ          -3.49932         2.78418        0.314317
LJ         -0.580451       -0.731257        -2.63476
LJ         -0.994686        -2.31312        -2.43195
LJ           5.29234        -6.27397         1.89362
LJ           3.69882        -2.10323         3.45434
LJ           5.44089         4.05874         1.65484
LJ           3.54382        -6.00415        -6.03352
LJ          -3.69284         5.12036        -3.67183
LJ           2.99992         4.23832         2.18638
LJ            2.3857         -2.3877         6.07281
LJ          0.285426        -2.46243         5.38075
LJ          0.397735        -2.12862        0.987643
LJ           5.77232          0.6442         6.21404
LJ          -1.50364       -0.230097        -3.71334
LJ           6.43634        -2.70139        -5.14593
LJ           2.79831         4.58373         4.14141
LJ            4.9588         1.74439        -3.83082
LJ            2.7311         -2.1065        -4.76225
LJ          -4.59793        -2.71487        -4.83518
LJ          -4.11562         2.38457         5.24595
LJ           3.29234         3.91335         3.13667
LJ         -0.297819        -5.79491         1.06462
LJ          -4.65254        -1.89431        -2.42799
LJ          0.232924        -1.53821        -3.76614
LJ          0.716015        -3.78177        0.894018
LJ         -0.707866         1.66134         6.05719
LJ          -2.04739         5.01701           4.421
LJ           5.01089        -1.20972         4.13232
LJ          -4.62392        -5.63843        -1.20504
LJ           2.84121         3.22254        -6.13316
LJ          -2.71681        0.268338          1.6618
LJ           1.27944        -4.25066        -1.98881
LJ          -4.48838        -6.25243        -2.32939
LJ           1.84477         3.88319        -1.88785
LJ          -2.75456        -3.62386        -4.31394
LJ           3.13038        -5.91101        -2.85812
LJ          -5.75647         3.00603          2.5252
LJ          -4.64224          2.8586        0.955493
LJ            0.8844         5.46209         5.70452
LJ          0.790502         6.05343         2.59629
LJ          -5.49017         5.58347         0.83391
LJ           1.74842       -0.155176        -2.18589
LJ         -0.584252         4.97682         4.46904
LJ          -6.45114         4.38034        -3.26433
LJ           3.94473         5.35931        -2.99908
LJ           5.04266         5.65434         5.84485
LJ          -2.30477        -4.37215         2.22144
LJ           5.90081         1.98578         1.25886
LJ            -5.538       -0.261657         2.15219
LJ           1.57986        -2.14007        -1.10693
LJ           3.62992         5.39173        -4.49733
LJ         -0.499652         1.51158         4.63667
LJ          -5.79435         -4.4111       -0.670256
