108
#Comment!
LJ          0.698636        -2.55224         1.83112
LJ          -2.04217        -6.42844        -5.93832
LJ           6.19025         2.86956        -3.92486
LJ           4.91868        -3.19961        -1.73948
LJ           4.05442        -1.33021        -6.35323
LJ          -4.32058         1.08293        -1.03787
LJ           3.65242       -0.502898         -1.5069
LJ           0.16571         5.03871          1.8931
LJ          -2.48736         1.15348         0.92264
LJ          -5.60205         5.85701          5.6919
LJ          -1.94317         1.39172         5.70227
LJ           4.85998         3.42437       -0.771729
LJ           5.94549        -3.92068        -4.87497
LJ          0.890476        -5.31426        -0.99084
LJ          -4.04322         2.78975        -4.20705
LJ           4.76166         -1.5803         4.37776
LJ          -6.04851       -0.321796        0.664646
LJ           3.36022        -1.09165        0.820404
LJ           1.10491        -4.37393        0.324759
LJ          -3.23914       -0.242339          2.8062
LJ         -0.863648        -3.72604        -5.77625
LJ          -6.29934        -5.53838         1.01518
LJ            6.4283         2.99168         6.26907
LJ           2.27176        -3.97594        -4.98439
LJ           2.58001         4.51311          5.2373
LJ           2.32595         3.33824        0.889526
LJ          -3.09578        0.622584         -3.9158
LJ          -2.96336        -6.20049        -3.32644
LJ         -0.188793        -4.59581         1.40003
LJ         -0.928127        0.341579         2.43049
LJ           5.66603       -0.735957        -4.33919
LJ           1.25929         1.13959         2.37229
LJ          -2.13828         3.06039        -2.95629
LJ          -5.05405         2.64533         6.09967
LJ          -3.17475        -4.48521         5.85223
LJ          0.220494         6.00143         2.36844
LJ         0.0561547         -1.8764        -2.26335
LJ          -3.29024        -1.79725         5.59994
LJ          -4.28498        -6.04084          -2.192
LJ          -4.57149         -1.8689         5.69382
LJ           0.37715         4.99673         4.08833
LJ          -2.81498         1.02155        -2.86766
LJ           1.08726        -4.54222        -2.90444
LJ           1.86395        -4.53185         1.81412
LJ          -2.79987         1.92951        -2.07051
LJ           5.97493        -6.41902         3.40563
LJ          -3.19222         1.32387        -5.11745
LJ           4.02753        -1.80249       -0.805311
LJ          -4.42535         0.14387         1.68732
LJ          0.624369        -5.67819         4.97983
LJ           4.68775        0.724889         1.80106
LJ          -2.80126        -2.73653          2.1045
LJ          -5.91789         3.58495       0.0374141
LJ          -4.18939        -1.54375        -2.09327
LJ           5.06833         1.95263       -0.675551
LJ           2.97229        -0.11926         6.08052
LJ          -6.00039        -6.13145        -5.61482
LJ          -1.40967         6.39293         -1.1849
LJ           4.15196        -4.96525        -1.78664
LJ           5.58639        -5.69968        0.933999
LJ           3.63371       -0.472047        -5.17274
LJ          -1.31767        -3.56139         3.82736
LJ           4.45531        -3.93147        -1.07605
LJ          0.454333        -6.01756         1.79332
LJ          -3.58545         3.77654          3.8597
LJ           6.06563         -4.4167         6.14481
LJ           6.38309        -1.36143        -5.04961
LJ          -3.00419         5.44247         2.63307
LJ          -4.08562        -1.37526          4.7554
LJ           1.28081         4.49202         2.01156
LJ           3.99454         -1.4968        -3.29364
LJ          -1.78766        -1.59406         1.99925
LJ          -3.15253         -2.3728        0.202413
LJ          -5.90648        0.388933        -2.95058
LJ          -5.42755        -4.05838        -2.68094
LJ           3.57367         3.50882        -1.46349
LJ           2.58044        -2.09922        -4.77853
LJ          -1.45747        0.619074        -4.47823
LJ           2.50954         5.04958        -5.57386
LJ           3.54117         0.15186        0.597431
LJ           4.34156        -6.21939         0.93383
LJ          -2.32321        -4.92063         6.16407
LJ          -1.84725        -3.11483        -2.99961
LJ           3.59406          4.6773         0.51892
LJ          -1.85111         4.13068        -1.51924
LJ           4.83162         -5.7915        -4.99252
LJ          -2.23582        -4.03212        -1.73207
LJ         -0.980163        -4.27726        0.611896
LJ         -0.137536        -6.43301         -1.4427
LJ           3.07617         2.45616         0.32977
LJ            3.2944         -1.9394        -4.18727
LJ          -4.94257       -0.311989         -1.8163
LJ           2.89901        -4.57175        0.502231
LJ          -3.62443         4.42907         1.40902
LJ           6.34454        -4.90068        -3.08727
LJ           4.18811        -3.10055         0.98836
LJ          -6.41831         1.76916        -4.14338
LJ            1.4775        -3.00652        -2.76239
LJ           1.46724        -6.38851         5.20662
LJ            1.2929         6.45183        -2.27989
LJ           5.77782        -5.12063        -5.16005
LJ           3.70459         3.52304         5.21394
LJ           4.00868        -1.41484         3.55887
LJ           1.19905         1.11756        -1.57346
LJ          0.228114         3.97492         -1.2578
LJ          -5.13129        -4.41433         2.10785
LJ           6.21686        -1.50658        -3.54758
LJ           3.87894          3.3132       -0.253094
