108
#Comment!
LJ           5.46023        -1.78313        -1.47262
LJ         -0.668784          -3.339           2.804
LJ           4.64427         5.93435       -0.195668
LJ           4.89277         2.47401         1.04797
LJ          -4.10036        -3.24006         1.09082
LJ          -1.75959         3.87356         5.84184
LJ          -6.43055         3.82625        -4.53721
LJ           5.94932         2.81207       0.0765661
LJ          -0.61078         0.53416        0.123252
LJ         -0.900572         4.71717         3.63305
LJ        -0.0988537        -1.18431         2.44663
LJ          0.999859         -3.0324          3.5807
LJ           4.30162         6.26545        -1.15898
LJ          -4.11242        -4.03419         6.00489
LJ          -5.51368        -4.76409        -1.88736
LJ          0.488862         5.21054         5.42965
LJ          -4.53138         -2.9753        -2.74559
LJ           1.86412          3.9911         5.68125
LJ         -0.207051       -0.999461        -1.00034
LJ          -2.31201         4.62894        -1.03238
LJ          -2.73102         4.26134         3.54463
LJ          -4.29493          4.6342        0.825941
LJ          -4.10217          1.1189        -1.74782
LJ           5.67324         2.61352        -5.00894
LJ           -6.4165         4.46437         4.11589
LJ          -2.75801         2.10148         5.65948
LJ          -5.81965        -0.64043        -2.66607
LJ           -2.8688         2.40563        -5.80516
LJ          0.540037         -4.0898         3.04525
LJ          -2.73648       -0.390776       -0.682447
LJ          -1.41772         5.40248         5.46368
LJ           4.85106        -3.24292        -0.76397
LJ          -5.69882        -4.07097        -5.31424
LJ           4.31942       -0.973873         3.14894
LJ           4.96965        -3.71266            3.78
LJ          -6.20625        -3.49238        0.260801
LJ          0.461379        -1.91073        -6.21103
LJ          -3.26919         6.13254         4.46846
LJ          -4.85621         1.25423         2.34632
LJ           1.77464       -0.938256         3.72541
LJ          -3.64085         3.72198         1.89553
LJ          -2.44299        0.243697        0.705589
LJ          -2.08941        0.133083        -5.14451
LJ           4.86082        0.725589        -1.09319
LJ          -3.90583        -2.68018         5.17921
LJ          -4.03334         1.74917       -0.459093
LJ           5.49947         3.66214       -0.861036
LJ          -3.87359        -1.10316        -1.73896
LJ           5.09891        -5.49142        -4.42921
LJ           6.10195          5.6539         1.80077
LJ         -0.250367         1.95473        0.409371
LJ          -4.96442        -5.43492         3.83015
LJ          -1.41877        0.778147        -1.20387
LJ           -6.0494        -0.59494          2.2766
LJ           -4.6217        -0.52009          4.0528
LJ           1.55924         2.92524        -3.19297
LJ           2.98329         4.79005         5.55453
LJ          -1.21821       -0.524211        -3.40415
LJ          -2.69656         -6.1583         5.78085
LJ           2.86849        -2.82107         -5.8339
LJ           5.74308          3.5412         2.34625
LJ          0.961289         3.40351       0.0605637
LJ          -3.21232         3.58783      -0.0795976
LJ         -0.788791         2.81231         4.70615
LJ         -0.167263         2.24349       -0.675829
LJ          0.826629          2.3278         5.62233
LJ           6.21378         2.71324        -5.95867
LJ           2.36471         5.87774         1.22733
LJ           1.40424        -5.28044         4.08481
LJ          -2.60831        0.503585         -3.5304
LJ            2.3027        -3.94646         4.92348
LJ          -4.15316        0.108121       -0.899293
LJ            -1.199        -3.11407        -1.75181
LJ          -4.25497         6.27312         3.96926
LJ          -2.66279         3.82167          6.2524
LJ           -1.5697      -0.0413957         5.51428
LJ          -4.41914        -4.54775        -1.97186
LJ           4.43903        -4.68611        -3.20406
LJ           -4.0575        -2.58107        -4.05471
LJ           3.09605        -4.04108        -4.66169
LJ          -1.71014       -0.242254         1.40204
LJ          -4.02952         4.45195        -5.30838
LJ          -4.84023         0.38331        -1.92369
LJ           3.62949         5.49565         3.86753
LJ           1.41858         5.22451        -2.49198
LJ          -5.21499         4.47481         2.60438
LJ           6.29143         -5.2319        -4.29091
LJ          -4.35321        -3.25508         2.61111
LJ          -4.32739         4.28498          -4.119
LJ          -5.77653        -1.84414         6.01207
LJ         -0.469205        0.826993         2.52657
LJ           1.67146        -4.12528       -0.834351
LJ           1.59292         4.40713        -6.17729
LJ          -2.08654         5.71477        -1.35696
LJ          -5.72785        -1.66913       -0.729543
LJ           6.37147        -6.30451       -0.826515
LJ          -2.42192        -1.34658         -1.1739
LJ           2.58842         -4.8911        -3.77488
LJ          -1.80517         6.43432         5.49832
LJ           5.09296         5.74747        0.992109
LJ          -6.41407        -1.02023         3.44411
LJ           2.43688         2.53516        -3.88604
LJ          -4.97156        -1.53262          4.8422
LJ          -5.68248        -3.30643         5.61483
LJ          -3.25484         2.30032         3.39165
LJ           1.73508        -4.63673        -2.97437
LJ          -4.78923         4.28238          3.9701
LJ           4.69254        -5.27759         5.76482
