108
#Comment!
LJ           4.29567        -5.10165         5.72622
LJ           1.95139        -1.26251         6.37856
LJ           1.63373         1.26323        0.100934
LJ          -3.72809         3.22086         4.85014
LJ           6.24932         2.10679         -1.2313
LJ          0.128939         6.39234         5.17849
LJ          -4.50902         5.16933       -0.745278
LJ            2.3826        -0.79582        -4.33489
LJ           5.17061       -0.243611        -3.99234
LJ          -1.85503         0.34609        -2.05042
LJ           1.10143         3.39178        -3.38638
LJ           4.78193         3.21631         1.27155
LJ       -0.00727567          4.5153        -4.19506
LJ          -1.71755        0.721673        -5.48341
LJ          0.703034         6.08971        -2.53975
LJ          -6.29127         6.19429         2.94083
LJ          -2.14781         4.54244         1.67346
LJ           -1.3175        -5.41716         5.35506
LJ           4.90552        -6.16524          5.7079
LJ          0.646839         -4.9646         1.59825
LJ          -2.72251        -2.22042         3.42782
LJ           1.17481        -6.27007        -5.84603
LJ           2.88939        -5.12806         3.78515
LJ          -1.92106         3.51935         1.21958
LJ          -5.14139        -4.13968        -1.82005
LJ          -4.17041       0.0840157        -2.45081
LJ           2.71527        -6.01172         3.35379
LJ           2.43002        -1.32102        -5.55725
LJ          -2.11874        -4.77417         2.56508
LJ         -0.268909         1.54269       -0.700531
LJ           4.16202         3.86619        -3.24031
LJ           -2.2677         4.74894        -6.06479
LJ           5.34849        -4.38371         4.22651
LJ          -5.64208        -5.35101        -5.88953
LJ          -3.51243         1.33753         5.19082
LJ           3.75571         6.37141         4.04016
LJ          -4.74404         5.32358         2.69655
LJ           3.76331         1.44216         5.68923
LJ          -4.75471        -5.29287          0.4325
LJ           3.76001         2.84812       -0.655663
LJ          -5.96641        0.188172        0.209364
LJ           4.68061         -4.7497        -1.78883
LJ           2.84651         2.58712        -4.42499
LJ          -5.83857         2.56496       -0.409212
LJ          -6.40276        0.025263        -4.49936
LJ          -3.05011        -2.48157        0.321062
LJ         -0.161876        -1.11691         2.00704
LJ          -2.11362        0.718346         6.32567
LJ          -2.91024        -3.73169         1.27352
LJ          -5.69679         5.55063        -4.07773
LJ            2.6751        -1.20675         3.50257
LJ            2.1384          1.8163         6.33773
LJ           5.27711        -3.19365        -5.01674
LJ         -0.251683         5.57398        -1.69393
LJ           -3.5113         -3.6581        -4.60189
LJ           2.09394        -2.17198       -0.502637
LJ           3.38297         2.74183          3.6523
LJ           6.19647        -4.54623        -5.78694
LJ          -4.77468         5.01018         5.06885
LJ          -2.64164         -2.9723        -3.10916
LJ          -5.82139        -4.64963         3.16996
LJ          -5.83305         4.17898        0.288356
LJ          -3.73755        -6.16002        -2.25013
LJ           4.85188          4.7848         4.93368
LJ           1.84271         4.06626          2.7772
LJ           2.52286         6.32388         2.02903
LJ           1.58929         5.55658         5.54805
LJ           2.19462        -4.43698        -1.17063
LJ          -1.94061        -1.34839         1.49448
LJ           2.81191         4.57863        -0.68821
LJ          -3.78762         5.62945        -2.21628
LJ          -5.09765         6.07246        -1.68012
LJ         0.0584934        -2.60817        -5.08844
LJ           3.69267         2.15426        -5.60168
LJ         -0.429713         3.25947        -2.89681
LJ          -4.91915          1.5869        -3.33333
LJ           5.62751        -1.35105         4.68279
LJ          -6.30258         5.39092        -1.78551
LJ           3.73712       -0.497728         4.34007
LJ           5.48548        -3.40257         -2.2023
LJ           -1.2063         3.64003          -3.551
LJ           1.75931         5.54372        -6.36396
LJ          -3.90977         1.47622        -1.15908
LJ            3.4864       -0.402764         2.25983
LJ           2.82524        -1.71336        -4.29044
LJ         -0.206239         5.90808       -0.418858
LJ          -1.86657        -3.29705         1.00381
LJ          -4.61076        -3.80067         -1.1013
LJ          -3.29818        -1.93134         5.28427
LJ           2.83304          6.0554         -4.4668
LJ           4.07878         5.30955         3.16904
LJ            1.8274         -4.0444          1.3705
LJ          -3.96132         3.26283        -2.48181
LJ           5.30733         2.79746         5.85094
LJ          -5.89046        -3.73605         6.26367
LJ          -3.40437         -2.5286        -1.04068
LJ           2.65231         3.57546        0.284566
LJ          -1.46316         3.92537        -6.05493
LJ          -2.81813         1.66068        -3.87281
LJ         -0.684876        -1.30175         -1.1832
LJ           2.86668        -2.36229         5.68638
LJ           1.48897        -2.48727         5.90195
LJ           5.99166        0.331379        -5.99535
LJ          -0.90681         1.29533         4.22117
LJ           5.83599        -3.17585       -0.215797
LJ          -3.81446         -4.7288         4.19465
LJ          -1.28709        -0.32141      -0.0258882
LJ          -2.18035         -5.6568       -0.703893
