108
#Comment!
LJ          -3.95787       0.0698471       -0.787301
LJ           0.63917        -3.03136        0.570044
LJ           2.41233        -2.95306         1.60882
LJ            3.0934        -2.73435        -1.88199
LJ          -1.14695        -3.28063         4.45812
LJ           2.55302         1.66939         4.45195
LJ           3.99042         2.86838         3.88725
LJ           5.40072       -0.513718         1.67624
LJ          -2.60183       -0.894381         2.97692
LJ           0.21291        -6.35106       -0.817334
LJ         -0.805521        -1.70443        0.255704
LJ         -0.166902        -4.57584        -3.33383
LJ          -2.85855        0.370298         -1.0335
LJ          -5.25051        -2.54603         4.25336
LJ          -2.92728          4.9629        -6.31104
LJ          0.315507        -3.26939         4.38374
LJ           3.62708        -3.99587        -3.84582
LJ          -6.32831         3.06741         6.21828
LJ          -2.96327        0.844175        0.145569
LJ         -0.546896        -4.34715         0.30843
LJ         -0.183953        -3.37419         6.29716
LJ          -3.87568          2.2622        -2.68765
LJ          -5.79643       -0.688053        -2.71384
LJ           3.82015         1.84336        -6.30994
LJ          -2.08012        -2.58902         5.96836
LJ          -6.02341         1.08076         3.75503
LJ          -2.29946        -2.73349         1.02971
LJ          -3.57006       -0.961876         5.94048
LJ          -1.37709        -4.53443        -0.34439
LJ          -1.90523        -2.10029        -1.59719
LJ           2.28392         1.94305         5.49574
LJ          -5.37024         1.63475         5.91678
LJ           5.50673        -2.49598        -3.85598
LJ          -6.37903        -5.18506       -0.119556
LJ           5.36444         5.35464         3.92581
LJ          -5.21638      0.00242828         5.60503
LJ           4.20393         1.53967         4.09877
LJ          -1.06224        -2.75532         3.52687
LJ          -5.09302         6.13156         1.03645
LJ          -1.22705        -3.53971         3.08534
LJ            -1.382         1.84345         5.44783
LJ           6.03197         2.94125       -0.123976
LJ          0.296299        -5.20666        -1.20973
LJ          -3.81292         5.77445         2.25264
LJ          0.849828        -1.23774         -1.5342
LJ          0.863527        0.831109         -2.9837
LJ           -2.8256        -5.00367         5.81691
LJ          -1.32656       -0.484273         6.25517
LJ           3.98757        -6.25968        -1.87013
LJ          -1.15512        -5.99746         4.96654
LJ           2.71124         3.88002        -5.65064
LJ           -5.5387        -3.83066        -5.98627
LJ          -2.51101         5.50992         5.77388
LJ           5.85001         4.95468         1.82302
LJ          -2.60128         -2.9999         2.77613
LJ         -0.083338        -2.30267         4.28563
LJ          -4.34803         5.21579         5.24284
LJ          0.608339         2.83493        -2.94985
LJ           0.73527        -2.51696        -6.35886
LJ           2.64312        -6.39286         4.90505
LJ           5.83354         2.40781        0.999662
LJ         -0.130489        -2.19106        -4.96644
LJ          -5.15434        -1.31446        -3.59421
LJ            3.8324         3.90443         3.89002
LJ          -1.73109         1.43295        -1.71237
LJ           -5.4866        0.412649        -2.38756
LJ         -0.905312         -3.2119         -2.1454
LJ         -0.366946         5.23547         1.19676
LJ          -6.37185        -2.91217         -1.2518
LJ           4.79754        -2.93034        -5.05584
LJ           6.43288        -2.77155         2.21722
LJ           6.39475        -0.72001        -1.63413
LJ           2.97377        -5.51176         1.90006
LJ          -4.63307        -3.93249         -5.3045
LJ          -3.30132        -0.64503        -5.90654
LJ             1.742         2.35015         3.40525
LJ          -4.07664          3.9181         5.76648
LJ           6.05908        -3.29628        -3.16974
LJ          -2.60939         4.43668         1.62443
LJ          -6.32989        -3.36839        -2.10838
LJ         -0.774545         2.43774        -2.53592
LJ          -4.96924         5.08654         3.16732
LJ          -3.49804         5.69643        -1.51126
LJ          -3.91361         1.76161         4.60926
LJ           2.82715        -1.54916         -1.4713
LJ          -4.75167         2.34388         3.40016
LJ           2.15171        -3.58636         3.30096
LJ          -2.40803        -5.72715          2.8518
LJ         -0.601951        -3.83845       -0.520157
LJ           2.47168        -2.10762        -5.09004
LJ           3.99119       -0.567035         0.80511
LJ         -0.314014        -4.97827        -5.65244
LJ          0.176386        -3.78089         1.10833
LJ          -1.58712         5.86013        -4.81003
LJ          -3.35476      0.00853462         2.34769
LJ          -4.64381          4.8649        -2.03217
LJ          -3.95959        -4.05204       -0.499099
LJ           1.50427        -6.15114        -4.54944
LJ          -2.28549        0.617183         -2.7473
LJ          -4.82615         5.15635       -0.907378
LJ         -0.691199         5.40476        -5.95124
LJ           1.25607        -5.88342         5.83561
LJ         -0.436805        -4.16342         4.05776
LJ            5.8702         1.90151         3.61005
LJ          -4.09884         5.49717        -6.01029
LJ           2.16108         4.97951        -3.38167
LJ           6.36364         5.73326          -2.486
LJ          -4.66363         2.91966        -4.03635
