108
#Comment!
LJ          -1.95371        -2.61817         2.00323
LJ           3.68722        -1.39999      -0.0693761
LJ          -3.92185          2.5006        -0.37722
LJ          -2.84996          4.3624        -2.83541
LJ          -3.76882         4.24072         2.16703
LJ         -0.245637        -2.93805          1.8105
LJ         -0.109253        -4.86881        -1.92516
LJ           -3.4253        -3.84458        0.840598
LJ           1.61401        -2.64785        0.490867
LJ            5.7519        -4.21941        -4.33886
LJ           3.73557         5.30028        -2.51273
LJ           4.88669         -4.5319       -0.813668
LJ          0.615972        -2.88819        -5.98488
LJ          0.965904        -5.20708        -1.72995
LJ           -5.0468         4.05989         5.91758
LJ           3.52194         2.88501         3.49681
LJ           3.23258         0.66218        -5.39303
LJ          -4.37603         1.15578         2.30528
LJ           1.23647         2.24387        -5.06895
LJ          -1.28112        -4.43521         4.40811
LJ           -3.8489        -3.24149        -5.01424
LJ          0.827114        -6.44056         4.75962
LJ          0.113201         -1.6828         5.67015
LJ           6.41412         -4.6332         6.26746
LJ          -4.36102         4.73301        -4.76957
LJ           6.45763        -1.25908       -0.565065
LJ          -1.67825        -6.07151       -0.434852
LJ           3.72471          4.7998       -0.394971
LJ          -3.26373        -1.85134          1.6766
LJ           1.01159         6.14834        -1.93655
LJ          -2.22076         1.36851        -3.65415
LJ           1.98855        -4.46988        -1.42648
LJ           3.26825        -1.61227          3.1274
LJ          -3.59857         1.36177         5.55531
LJ          -5.53009        -2.26785        -3.86424
LJ           5.08626         2.43472          3.8171
LJ          -6.05755        0.711595        -3.41967
LJ           5.40479        -5.33003        -4.86464
LJ          -5.14641         4.85848        0.492912
LJ          -2.88062        -2.70483        -5.91466
LJ           4.49228         -4.2858        -2.23617
LJ           5.86087        -5.52291        -1.06713
LJ          -3.08609        0.330118        -5.05803
LJ          -4.96472        -6.42126        -1.79042
LJ            6.3248         1.08189         5.34253
LJ          -3.14973         5.18417        -3.45062
LJ          -4.99977         -4.8424         1.28836
LJ          -4.79883         -1.0948        0.159758
LJ          -1.62388         6.06129        -2.01897
LJ            3.5855        -3.16097         -6.0295
LJ         -0.467376        0.972729        -5.87862
LJ          -5.77617        -3.79132        -1.05203
LJ          -1.00449        -1.92518         4.01898
LJ          -2.18428         3.85975        0.012694
LJ          -2.38021          5.4935        0.662987
LJ            3.3345         3.54289         1.08456
LJ          -3.55336          0.2825        -4.04787
LJ          -5.42541         5.35843        -4.98804
LJ         -0.909695         2.80057        -1.51578
LJ          -6.20954        -5.25221        -5.52669
LJ           1.07188        -1.77933      -0.0826976
LJ          -6.01579         3.80948        -5.06057
LJ           3.98837        -4.29875        -3.33315
LJ            5.7211         3.27346        -3.02409
LJ          -4.64094         3.29852        0.088135
LJ          -1.74743         -4.3212         5.44098
LJ           5.21672         4.55971         5.95049
LJ          -1.31462         3.91356         5.23637
LJ           4.57581       -0.928048        0.874283
LJ          -6.25624         5.52787         4.11052
LJ          -5.40704        -1.88523         -5.4888
LJ          -4.11754        -4.48223         -4.8483
LJ           1.59709        -2.73589         5.84201
LJ           1.83968        -1.51519         4.96612
LJ         -0.496869        -6.00253        -5.08679
LJ           6.20106         3.85093         2.44454
LJ          -4.18805         3.90624         4.77637
LJ          -6.41395         4.51875        -4.14482
LJ          0.196728         3.09641         2.72391
LJ           4.76255        -6.00714        -5.46054
LJ          0.693613        -6.35251          -4.828
LJ           3.38963         4.35749         3.81196
LJ           6.24555       -0.776244         2.23005
LJ            5.8965        -3.35616         5.17671
LJ          0.768385        -5.36713         -4.3573
LJ           1.62477         5.83593        -1.15107
LJ           -1.8388         4.12698         -6.2706
LJ           1.14004        -1.54306         4.26675
LJ           6.24629        -5.58538        -2.52743
LJ           4.73891         5.19797         4.79897
LJ           3.83394         6.35329       -0.100936
LJ           3.78389        -3.29299        -1.46769
LJ          -5.07705        -4.91065        -1.58645
LJ           2.52663         2.55536        0.273612
LJ           4.14493        -4.21961        -4.89588
LJ           2.51663        0.509978        -1.26568
LJ          -6.09607        -6.45536         3.00001
LJ          -2.72199         3.62767        -3.81266
LJ             5.646        -4.05265         2.81713
LJ           5.47216         3.74925        -5.83072
LJ           1.27048        -1.70189         6.01893
LJ         -0.674299        -4.90645        -3.00091
LJ          -5.48038          4.7908        -6.09296
LJ           3.45276        -3.16323        -2.40502
LJ          0.911624        -2.64493         1.69061
LJ           1.76585         2.98221         2.29601
LJ           5.46939       -0.689423         5.97611
LJ           -2.3398       -0.982332        -5.80221
