108
#Comment!
LJ           3.84583         4.90824        -5.38522
LJ          -2.49224        -2.32758         6.27847
LJ          -6.27328       -0.282842        -2.95839
LJ          -2.80098        -1.17834        -6.37613
LJ          -3.01735        -4.07189         5.94532
LJ           3.62235         1.71503         3.22609
LJ          -3.97426        -4.80368        -1.19791
LJ           5.91028         4.18052         1.09101
LJ         -0.256398          3.3945          5.5667
LJ           3.26166        -3.39152         1.86096
LJ           6.10835         6.27971        -4.00623
LJ          -6.37423         4.51777        -2.64158
LJ           5.01451       -0.584553        -5.74644
LJ          0.926627         0.64629         6.31073
LJ           4.82243         2.14136        -2.76114
LJ          0.580744        -6.17516         2.94551
LJ           1.90276         4.38164         4.62639
LJ           2.60622        -5.86775         4.86907
LJ           1.62291        -4.75773       -0.609328
LJ            2.2692        -3.66268         6.09612
LJ           1.27123        -4.97076         5.06631
LJ         -0.678224        -5.93845      -0.0447513
LJ           1.32736        -3.69284        -1.29097
LJ           6.39363        -0.37378        -1.50198
LJ           1.74877         5.62378         3.96762
LJ          -1.64773        0.214047        -6.02344
LJ          0.245994        -2.81208        -3.32849
LJ          0.188796         1.56026         4.98806
LJ          -3.55603       -0.905214         3.81049
LJ           3.17446        0.539255      0.00122024
LJ          -1.75129         3.35587        -2.45113
LJ           3.66525         1.23456        0.810473
LJ          -0.37797         3.14812         3.07686
LJ           2.76747         3.14887        -3.55385
LJ          -1.73969        -5.59424        0.963498
LJ          -2.37523        -3.84168        -1.41823
LJ           5.96107         3.82816        -1.86267
LJ            -4.948         6.16426        -2.96495
LJ           5.05339        -4.45309       -0.601144
LJ         -0.131933        -4.91214        -1.56572
LJ          -3.65572        -5.93506         -2.4363
LJ           2.90811          5.4029        -5.31264
LJ          -4.59733          4.1026         1.39061
LJ           3.82565         4.03102         5.07452
LJ          -4.25343          5.4559         4.61598
LJ           5.34394        -4.77119         2.41903
LJ          -5.76889         1.21412        -1.25261
LJ          -5.47605        -5.87083        -1.40278
LJ           5.78342         -4.4608        -3.75356
LJ        -0.0545792         2.21503         2.00982
LJ          -1.67399        -3.33776         2.83253
LJ          -3.93107        -1.21749        -1.06306
LJ        -0.0935204         -4.5096         1.71994
LJ            3.6247         2.46554        0.964759
LJ          -5.47019        -1.27209     -0.00510688
LJ          -3.71034         5.06268        -2.49752
LJ         -0.304995        -4.01054        -2.85149
LJ           5.27416        0.653587        -3.15147
LJ           5.42388         4.91191        0.242677
LJ          -3.84789         6.03818        -4.20787
LJ          -5.87721         5.60408        -2.03728
LJ           3.74233         1.16363         4.51233
LJ          -2.04732        -2.99631        -5.25249
LJ          -2.01653        -1.47935        -2.77272
LJ           2.12433        -3.97043        -3.20071
LJ          -5.13651          1.1182          4.6213
LJ          -5.10815        -6.19572        -5.05105
LJ           1.61123         1.73275         2.40498
LJ           5.84917        -6.13871         2.24563
LJ           3.88834        -3.75246        0.315822
LJ          -6.23561         6.45434         -2.6867
LJ          -1.42264         5.65282        -3.18106
LJ           2.31123        -5.12024         -4.7557
LJ           5.07595        -2.75842        -4.82122
LJ          -4.26917        -5.71255         1.99279
LJ            3.0625        -1.33309         5.27312
LJ            1.5238        -5.67738          2.5423
LJ           3.68546        -4.12584         5.46622
LJ          -2.51736        -3.37556         1.84802
LJ          0.172441       -0.322034         2.26287
LJ           0.82959         6.29704         4.12534
LJ          -6.14083         5.69162        0.517811
LJ         -0.106228         6.27981         6.16579
LJ            5.2995         5.62473        -5.11567
LJ         -0.240792         4.05815        -5.91408
LJ          -3.96052         1.36639        0.948746
LJ           5.84229        -6.36137         6.17427
LJ          -3.73316        0.400498         5.01966
LJ           -1.6614         4.48344         4.15382
LJ           5.44545         1.27991         5.20726
LJ          -4.01491         3.64315        0.251234
LJ           6.42073         -5.5438         3.32399
LJ           1.35518         -3.5337         1.28796
LJ          -3.50302        -1.33671         2.30728
LJ          -2.72764         1.90278         3.96799
LJ           5.13646         5.47127        -6.22986
LJ          -5.02985         4.35254         4.34729
LJ         -0.523569        -6.02279        -2.02538
LJ          -4.33814        -3.94806         5.31635
LJ          0.354513        -2.07469         4.88854
LJ           1.41948        -4.61905        -5.14006
LJ         -0.777954       -0.868314        0.499784
LJ          -5.29117         1.46716        -5.43269
LJ           4.04136          2.6503         4.68225
LJ          0.185144         1.00161         2.56602
LJ           2.60732         1.26225         3.17514
LJ          -0.19362         4.56734         5.34375
LJ          -3.42621        -1.73817         1.02078
