108
#Comment!
LJ          -2.39058       -0.168697        0.700043
LJ          -3.39747        -3.71063        -5.67275
LJ           5.17229         3.11194        -2.88391
LJ         -0.378852        -6.25077         2.12509
LJ           1.93257         4.52728        0.247574
LJ           4.44259         1.79444         1.14195
LJ         -0.113247         3.24027         1.48214
LJ           5.98822         1.73415         2.19052
LJ           5.72404         2.22029        -6.18904
LJ           2.09957        -2.73633         5.27831
LJ          -3.51018         1.12638         4.91001
LJ          -6.20684          6.1041        -3.76495
LJ          -1.76557         6.41387         4.75193
LJ          -2.51249         5.49303        -3.88021
LJ           2.64476         2.69111        -3.10711
LJ          -5.09267        -1.72643         2.92635
LJ          -4.98797         5.49699         3.41328
LJ          -5.47555        0.153496         1.38486
LJ          0.365461        -5.82312        -3.89485
LJ          -6.20922        -2.87341         3.87201
LJ           1.35978         -5.4038          5.9488
LJ          -4.90051         5.40545        -5.47897
LJ            6.4543         4.50988        -3.39476
LJ           3.21896         5.06568         -2.0963
LJ           3.68629         5.61785         2.74801
LJ          -1.11355         1.16232         -1.8068
LJ          -2.71233         4.90739          5.1674
LJ          -6.29429         2.94696       0.0183513
LJ           2.10519        -4.68566         1.28107
LJ          -3.34593         1.35879        -1.48766
LJ          -3.01432        0.125862         5.46568
LJ           -0.1372        0.108023         3.46769
LJ          -2.79965          3.6505         4.64821
LJ           2.42647        -1.59897        -4.78659
LJ            5.8031        0.826049        -3.95156
LJ          -1.06405         2.72821         1.78419
LJ          -2.81799        -4.58131        -5.39221
LJ          -5.69029        -1.57988         3.88827
LJ          -3.81688         6.20465         5.13574
LJ          -3.58084        -3.35065         6.30115
LJ          0.097395        0.913658       -0.932651
LJ          -4.86241         1.53778       -0.925909
LJ           4.18678         5.06098        -6.45688
LJ          0.597584        -3.27338          5.7303
LJ           5.73974         2.32395        -1.89116
LJ           4.62435        -6.07898         3.80835
LJ           -6.2174         1.89754       -0.148058
LJ         -0.501873        -2.56318       -0.825585
LJ           3.98801        -4.72939        -1.61644
LJ           1.02976        -2.08848        -5.06286
LJ          -5.78599         1.74793        -5.88947
LJ          -1.51894        -4.14551         2.22446
LJ           6.35666        -5.22693         -4.9532
LJ           0.17335         1.88739         4.41112
LJ           2.46584        0.756146       -0.840889
LJ          0.547251         1.05795         3.55624
LJ          -6.13985         6.23892         4.86814
LJ          -1.47361         3.00381        -2.59747
LJ           2.13765        -3.18904        -4.35584
LJ           4.72372        -5.77654         2.04295
LJ           2.19993        -5.85962        -5.87068
LJ          -6.41943        -1.33286         5.36721
LJ          -6.18107        -5.21061         6.16489
LJ           3.05914        -4.47619        0.591725
LJ          -3.09452         1.57376         2.55685
LJ           0.78869        -4.64034          2.2088
LJ          -2.91236         0.94858         6.20294
LJ          -5.41747        -4.93943        -4.78914
LJ          -4.84604         1.45192         4.63864
LJ          0.136032        0.039448        -1.75896
LJ          -3.12076        -2.74666         2.43286
LJ         -0.906534        -1.56625          4.2227
LJ            1.8956        0.694198        -2.98981
LJ           5.96811        -3.23253        -2.26758
LJ           4.05848         3.29969        -3.63767
LJ          -4.21972          4.3476        -2.57222
LJ          0.531141         1.34445        -2.12828
LJ           6.36564        0.355334         4.78555
LJ           2.89895        -2.96403        -6.40309
LJ            5.4448         4.35417         2.70322
LJ           4.47671        -4.28319         3.54698
LJ          -3.99396        -4.86751         4.56206
LJ         -0.561497        -1.54913        -3.49155
LJ          -3.72695         5.80501         2.54115
LJ           5.93747         -3.7156         5.35595
LJ           5.25963       -0.826686        -2.91637
LJ          -1.46394        -3.30244        -4.74642
LJ          -4.47755        -4.89439        -4.30786
LJ          0.301849        -6.35404        -6.33425
LJ          -4.56487       -0.532183         2.33603
LJ           4.03191        -3.39658        -3.06052
LJ          -5.70994        -4.12647        0.405992
LJ          -5.30154        -4.85649        -1.59375
LJ           1.08433        -6.40519      -0.0777493
LJ          -3.42289         5.35781        -5.90701
LJ           4.64106        -3.32429         4.05067
LJ          -4.93198        -1.21866        -1.83826
LJ            1.0705        -3.05024        0.853901
LJ           5.27944        -6.45725         2.76368
LJ           1.19026         3.57567          3.1926
LJ           4.05112         -1.6113        -2.90144
LJ           3.20639         5.45616         4.38746
LJ         -0.544215        -1.09914         1.22141
LJ           3.79095         4.26891        -2.19443
LJ           1.03453         6.12972         1.03311
LJ          -5.59626        -2.69213         1.19484
LJ          -5.28418         6.38417        -5.01202
LJ           1.87867         3.62831        -2.23164
