108
#Comment!
LJ           3.24078         3.48485        -3.32943
LJ          -4.60735        -2.20007        -6.17471
LJ            3.9741         2.65682        -1.50895
LJ          -5.49964        0.126351         5.67081
LJ         -0.609532        -4.78562         5.38036
LJ           3.79844         6.24377         3.16383
LJ          -4.47039         6.19282        0.143933
LJ           3.18358         4.04559         4.27701
LJ           1.76452         4.68127         3.07185
LJ          0.133357        -2.04693         -2.3599
LJ          -5.03606        -5.12738        -3.61181
LJ          -5.50917         3.99089        -3.33048
LJ           6.26278        0.770887         6.32229
LJ           3.03626         3.91788         5.53967
LJ          -4.99679         3.11927        -3.12183
LJ          -1.48702        -5.61515         3.52602
LJ          0.267851        -6.09863         3.90308
LJ           6.13735         4.20935         4.26349
LJ           1.14283         5.64476         2.87268
LJ           3.48006        -2.03606        -4.89832
LJ           2.28524         6.30539         3.42324
LJ          -1.59535         5.75408        -5.53655
LJ           3.48744        -4.93664        -0.22271
LJ           4.79003        0.874864       -0.504729
LJ           4.35258          6.1918         1.68754
LJ          -3.64575       -0.546901        -5.69384
LJ         -0.949641        -2.82327        -2.19256
LJ         -0.727919         2.65954         3.91192
LJ          -5.16539        -2.60544         1.87131
LJ          0.705833        0.366505         2.98326
LJ           2.83341         3.24048        -1.36838
LJ          0.612177         1.64955         2.47822
LJ           2.37491         3.56103         1.24991
LJ           5.94216         4.99574        -2.94547
LJ          0.629043        -5.72734        -1.06906
LJ          -1.73375        -2.98533      -0.0706687
LJ          -6.18828        0.799182         1.17091
LJ          -5.89795         3.32036       -0.825112
LJ          -4.52756        -5.47871       -0.509976
LJ          -1.07986         -4.4505        -3.72177
LJ          -2.25538        -4.92633         -3.5988
LJ           2.73806         3.36868        -5.11695
LJ          -5.64712         3.13104         2.19403
LJ           3.90219         4.44777         5.79023
LJ          -5.06613         4.41318         2.03658
LJ           5.90833        -4.16347          2.0589
LJ            4.4495        -1.30475        -2.20868
LJ          -5.26791        -6.19354        -1.02516
LJ           -2.3258         6.24126        -4.85782
LJ          -2.40654         1.04167        -1.04837
LJ           1.16749       -0.496916         2.01931
LJ           5.11706        -2.79706       -0.807346
LJ           1.25184        -5.00421         3.91433
LJ           2.12229         1.54554         2.13612
LJ           -3.1937        -1.04473       -0.783242
LJ         -0.416949         4.56586        -1.53857
LJ          -2.91342       -0.608474        0.349132
LJ           2.58766        0.843119        -3.17051
LJ          -5.37678         5.95914       -0.353876
LJ           5.04451         5.42223         5.44617
LJ           5.59923        -5.51941        -3.86963
LJ         -0.902943        0.435393         4.86868
LJ          -2.61901        0.239535          3.4947
LJ          -5.13114        -3.83196        -1.45311
LJ           0.18635       -0.492203        -4.50866
LJ          -6.14162        -3.34162        -4.90675
LJ          -3.30059        -6.15274       -0.445824
LJ           3.11311        0.542855         2.33052
LJ           5.92771         5.87991         1.47767
LJ           5.64386        -4.44641         3.32294
LJ           5.93779        -4.62886        -4.27385
LJ         -0.635793          -4.445         -5.5858
LJ           3.04309        -3.72009       -0.369199
LJ           5.36507        -2.54573         4.60767
LJ           5.97721         6.08452        -0.18436
LJ            2.7315        -6.06036        -6.32568
LJ          -0.17855         6.05204          1.4308
LJ            2.9924        -2.74049        -3.85441
LJ         -0.929483        -2.99954          2.9628
LJ          -3.58919         3.31451        0.893689
LJ           1.02785         4.47272         5.46738
LJ          -6.42232         2.83128        -4.98672
LJ         -0.101852         3.56622        -5.52251
LJ            2.8737          3.7458        -2.25662
LJ           3.89067         2.20375         -4.6873
LJ           6.24489         2.78928       -0.328492
LJ          -4.53945        -3.54675         4.77696
LJ          -6.14218          2.9375        -6.36641
LJ          0.243359          4.8611        -5.85641
LJ           3.89868         5.04624         4.48707
LJ          -1.20422         5.42859        -1.09205
LJ          -6.35705         -5.6177         2.51845
LJ           3.79208        -4.44839        0.864472
LJ          -4.77421        -4.25216         2.89521
LJ            -1.746         2.19393         4.64632
LJ          -4.16172         -4.3379        -3.56305
LJ          -5.39927        -5.98322         2.62526
LJ         -0.556001        -3.68343         -4.5925
LJ          -5.77031        -2.73813         5.50629
LJ          0.863711        0.309157         5.36058
LJ           2.14144         5.22246        -3.23051
LJ           1.26558        -2.73141         1.83509
LJ          -3.26792        0.404221        -3.65799
LJ            2.7379         2.21376         2.66745
LJ          0.239834       -0.585012         1.13501
LJ          0.656475       -0.723701         3.54478
LJ          0.511211         2.37644        -5.97985
LJ           -3.1604        -3.50483        -1.17265
