108
#Comment!
LJ          -4.58038         1.00196        -1.99742
LJ          0.669663         2.64929       -0.393955
LJ          -2.67368        -6.39826         2.38635
LJ          0.641284        -1.84642        -6.10058
LJ            1.0466        0.123477         4.68186
LJ          -5.55867       -0.504969         3.56605
LJ           2.60187         4.25575        0.732057
LJ           4.19156         4.47354         2.23161
LJ           1.20748       0.0770916        -4.00123
LJ          -4.89828        -4.77756        -4.65133
LJ          -6.14878        -5.31273        -2.44281
LJ           1.76741         4.09939         2.63468
LJ           1.27212        -4.43455       -0.707285
LJ           4.84736        -2.33271         1.21507
LJ          -2.37544         5.95012        -1.51336
LJ           3.93976         2.57355        0.650926
LJ         -0.459475        -3.26907        -1.97475
LJ          -6.24284        -5.69506        -4.61941
LJ          -4.89299         4.62059        -1.53432
LJ          -1.16344        -1.03979        0.249602
LJ          -4.06776        -2.16718         1.76558
LJ           2.65369        -1.25239        -2.58481
LJ          -4.98971        0.521786        -3.38955
LJ            4.2633         1.96651        -6.30271
LJ           5.19634         2.50168         4.14363
LJ           5.61007         3.81082        0.495325
LJ           4.59558        0.485029         2.97407
LJ          -5.51717        -4.26874        -2.25953
LJ           3.88508         4.24087        -1.97807
LJ          -5.92067         4.45159        -4.03257
LJ          -6.33313        -1.43118         2.07672
LJ           1.94187         1.13204         3.24639
LJ          -4.59797        -3.49482        -2.35716
LJ           5.47449         1.90675        0.596979
LJ          -6.36616          2.7292        0.635886
LJ          -5.10972         2.15253         6.06759
LJ           6.45621        -4.43814         4.90649
LJ          -4.40659        -2.79321        -3.55882
LJ          -4.34152         -3.7045        0.975345
LJ          -1.74224         4.84317         3.12897
LJ          -1.54755         5.16025              -2
LJ         -0.643553         -6.0741       -0.174186
LJ           2.97752        -2.80147       -0.423774
LJ          -5.52212        -5.80908         -1.8767
LJ           2.20596       -0.485685         4.60101
LJ           3.71966         6.33462        -4.32258
LJ           -2.2249         -3.3708         0.12627
LJ           6.06166         2.69992          5.6089
LJ          -2.97502         2.87022         6.14625
LJ          -4.81426         5.35663         1.14253
LJ           -4.0874         5.07752         2.04979
LJ          -4.33863        -3.83645        -4.18653
LJ          -1.26022        -2.58459        -5.71313
LJ          -4.20284         2.55888        -5.98935
LJ            4.8327         4.61534       -0.272922
LJ          -3.06134         2.14069        0.774158
LJ         -0.966166        0.308862        -1.79421
LJ          -1.19538        -1.48206        -2.38531
LJ           4.75714        -5.90981          1.9356
LJ           3.33355        -2.40471         3.59125
LJ           -6.1121         3.72484         1.39513
LJ           3.33883        -5.37922         -5.9769
LJ          -1.93877         5.52139        -4.01514
LJ           3.15998         3.88811         1.72103
LJ            1.4998        -1.24219        -6.17442
LJ           1.05242        -2.35404         4.46721
LJ          0.370815       -0.761889        0.999682
LJ          -6.42085        0.953316         5.62197
LJ          -1.04804       -0.212399        -4.40268
LJ          -5.53477        -3.30865        -5.50286
LJ           1.88706         4.42705         3.56542
LJ           5.43706         1.51953        -3.84323
LJ           3.42635        -3.45555        -5.39016
LJ          -3.81022        -2.87917        -4.44928
LJ          -4.34472         2.44059         5.19473
LJ           3.62423         4.19536         3.43432
LJ          -1.17437        -5.50465         1.20323
LJ          -4.34888        -1.86947        -2.52689
LJ          0.120528        -1.02513        -5.01608
LJ          0.102913        -3.63917        0.193995
LJ          -0.56335           2.031         5.43577
LJ           -1.8099         5.37386         4.15817
LJ            4.3834       -0.310015         4.86971
LJ          -4.75325        -6.03262        -1.25751
LJ           3.53635           2.743        -5.81373
LJ          -2.92484         0.50887         1.65666
LJ           1.47675        -4.14991        -2.77348
LJ          -3.96026        -5.70488         -2.1702
LJ           1.54557         3.90688        -2.39214
LJ          -2.65175        -3.22616        -4.26949
LJ           3.06325         6.31219        -2.30514
LJ          -5.22138          3.2261         3.89897
LJ          -4.01924         2.60825          1.4193
LJ          0.430703         5.29482        -6.05108
LJ          0.674786         5.18595         2.54754
LJ          -5.67976         5.57133        0.281436
LJ           1.97452        0.755098        -1.41188
LJ         -0.288832         5.14094         4.93394
LJ          -6.17526         3.58023        -3.08923
LJ           4.15697         4.80945        -2.95106
LJ           4.41436          5.3593         6.40185
LJ          -1.57795        -4.67351        0.921747
LJ           5.65512        0.985248         1.62283
LJ           -6.2151        0.457545         1.79019
LJ            1.0122        -1.66033        -1.54766
LJ           3.74317         4.92451        -4.02569
LJ          0.601168         1.09241         4.85849
LJ          -5.67165        -4.13801       -0.889176
