108
#Comment!
LJ         0.0133276        -1.81514         1.56353
LJ          -2.40193        -5.26395        -5.84034
LJ            5.6005         2.36627        -3.91765
LJ          -5.21882        -4.36681       -0.387281
LJ           3.11142        -4.14659        -3.70543
LJ          -5.33361         1.92872       -0.642022
LJ           2.67702         0.63461       0.0893832
LJ           2.78786         3.24508         2.31365
LJ          -4.42093        0.770333         3.19056
LJ           4.62848        -4.41542         4.27317
LJ          -2.24191         1.29672         5.44088
LJ           4.06404         3.70822       -0.552732
LJ          -4.59523        -4.43871        -6.05485
LJ            -0.184        -6.29418        -2.02188
LJ          -6.39872         3.33232        -3.42511
LJ           5.68751        -1.46586         3.72133
LJ          -5.88024         1.70256         2.08371
LJ           4.85054       -0.661163        0.976658
LJ           1.18381        -3.77564       -0.132459
LJ           -4.1974       -0.930314         2.75773
LJ        -0.0743893        -4.32435        -6.23208
LJ           -5.7632        -6.29554         2.96082
LJ          -5.83393         3.15812        -5.04165
LJ           1.89602        -4.22761        -3.69561
LJ           2.27033         4.89142         4.01762
LJ          0.810877         2.31445       -0.117283
LJ          -3.93364          1.5499        -4.69455
LJ          -4.43375         4.89354        -1.68167
LJ          0.553499        -4.65395         1.34142
LJ          -1.86161        0.163179         1.14094
LJ          -6.01633        -0.31358        -5.54617
LJ          0.665981        0.759702         2.72759
LJ          -2.16038         3.30879        -4.98513
LJ           5.85207         1.13458        -6.14497
LJ          -4.69869        -2.67384        -5.60624
LJ         -0.392604         4.88102         2.16666
LJ         -0.236387        -3.42729        -3.33477
LJ          -4.27481         -2.0693         4.87219
LJ          -4.35825         6.44967        -4.34367
LJ          -4.73304        -2.94037         5.93738
LJ          0.815025         3.64012         2.82457
LJ          -3.36145          1.1514        -2.17714
LJ           2.45031         -6.3237        -3.63663
LJ           1.18982        -4.15034         2.83356
LJ          -4.88493         1.91219        -1.63418
LJ           5.44764        -6.34044          3.9245
LJ          -4.69283         2.57704        -4.18233
LJ           2.39845        -1.67689       -0.824005
LJ          -6.11616         3.12453        0.598739
LJ          0.880643         3.67107         6.16065
LJ          -6.41927         1.68077         3.00488
LJ          -2.07074        -2.59573         2.30853
LJ          -5.17757         4.19834         3.54192
LJ          -2.87466       -0.214238        -4.81385
LJ           4.32654         1.62464       -0.911882
LJ           2.48355       -0.553614         4.52895
LJ          -6.03809        -5.88569        -6.08178
LJ          -1.55807         5.23499        -1.03038
LJ            3.9062        -4.32922        -2.15694
LJ           4.59411        -5.07632        0.799389
LJ           3.04865        -2.74849        -4.95949
LJ          -2.74719        -2.16188         4.44919
LJ           5.35409        -3.90845         1.65813
LJ           1.51441        -5.38123         1.40665
LJ          -4.53702         3.39907          3.6993
LJ           3.85149        -4.69573         5.11677
LJ          -5.12276       -0.987386        -5.39043
LJ          -3.98774        -6.25171          4.5482
LJ          -4.38798       -0.475564         4.81826
LJ            2.9051         3.10177      -0.0676075
LJ           5.85037        -1.87726        -1.03257
LJ          -1.69058        -1.71516         2.55294
LJ         -0.021063        -2.52569       -0.524508
LJ          -5.96574        -1.09064        -1.95721
LJ           6.20192        -5.97863        -2.84472
LJ            5.3448         4.02586        -1.80309
LJ           1.94517       -0.927888        -4.13652
LJ           1.41888         0.86465        -6.39361
LJ           2.60178        -5.86387        -5.83902
LJ           4.06038         1.10563        0.606351
LJ           4.48032        -6.21301         1.82586
LJ          -2.69749        -5.00572         5.53655
LJ          -1.50558        -2.38113        -3.20081
LJ           4.74115         5.73069         1.69417
LJ          0.799587         5.79218        -3.95162
LJ           4.76683        -3.97048        -4.78858
LJ          -2.01854        -4.44194        -2.53684
LJ          -1.44607         -4.6324        -1.32501
LJ          -1.19959        -4.94491        -2.20856
LJ           3.78624         2.61552         1.26082
LJ           3.61123         -2.1414        -3.30449
LJ          -5.04737        -1.73894        -1.31234
LJ           5.53465         -4.7461        -1.15042
LJ          -1.96255         5.09935        0.204572
LJ          -5.56888        -5.78373         -4.1488
LJ           1.99942        -3.71472        0.299606
LJ          -4.91934        0.741566        -3.72709
LJ            1.5006        -3.45564        -2.52265
LJ           3.48695         6.40366         3.69796
LJ           1.31842         6.09629       -0.347149
LJ           5.50832        -3.93699        -3.85644
LJ           3.64824         4.13985          4.9842
LJ            2.7332        -1.37642          3.9726
LJ           1.74425         2.67413        -2.16892
LJ           1.41649         4.29207      -0.0136664
LJ          -5.62465        -3.61006         1.09485
LJ          -6.05132        -3.56401        -4.73118
LJ           3.16729         2.94673        -1.43834
