108
#Comment!
LJ         -0.942731         -1.6925         0.64562
LJ           4.18025        -1.66028       -0.300896
LJ          -4.76678         2.70173       -0.564979
LJ          -2.45453         4.76837        -1.73268
LJ          -3.17471         4.51008         2.64269
LJ         -0.209184        -1.80881         1.73795
LJ          -1.24883        -4.00719        -1.57909
LJ          -4.77648        -5.09182          1.1845
LJ           1.61892        -4.78276         0.29548
LJ           4.86155        -4.42146        -4.50938
LJ           3.21686         6.33786        -2.21272
LJ           4.83245        -3.92761       -0.981944
LJ           0.13259         -2.3144         6.30277
LJ           1.67444        -4.81827         -0.8893
LJ          -4.43764         3.59633        -6.25468
LJ           4.63013         2.91159         4.28773
LJ           4.48397       -0.201779        -4.10327
LJ          -4.50744         0.91965        0.527013
LJ           1.44541         2.33422        -4.68804
LJ          -2.48518        -4.84901         4.90975
LJ          -3.57688        -3.58999        -4.60663
LJ          0.243228        -6.23377         5.08397
LJ          0.933481        -1.36219         6.25478
LJ          -4.38234        -5.77388         5.29614
LJ          -4.70929         4.48472        -5.43204
LJ          -6.17712         -1.4996        0.251681
LJ          -2.21411        -5.27589         -1.0016
LJ           5.96836         6.33564       -0.848199
LJ           -3.5266       -0.989323         2.25466
LJ          0.406558         4.26013         -2.5444
LJ          -3.77349         1.05206        -1.47532
LJ           1.24714        -3.70208       -0.903717
LJ           4.19324        -1.15766         2.39033
LJ          -4.72235         1.01149         5.78957
LJ          -4.67079        -1.62763        -3.43901
LJ           4.62705         0.92416         4.96572
LJ          -5.85807        -0.46206        -3.82441
LJ            5.0395         6.06077        -3.99089
LJ          -4.05284         3.41015         1.00438
LJ          -4.47741        -2.97533         6.16417
LJ             3.235        -5.66692       -0.892568
LJ          -6.37417        -5.40132        -1.85493
LJ          -3.88212        0.190254        -6.15016
LJ          -4.21683        -5.50581        -2.35782
LJ           4.76973         1.21823         6.27467
LJ           -3.8254         3.90892         -4.3674
LJ          -6.13182        -4.77314         1.36582
LJ          -4.31343       -0.503298         1.87032
LJ          -1.54435         5.02274        -2.42616
LJ            3.4381        -2.36454        -6.32648
LJ          0.217091        0.131725        -4.21446
LJ          -4.83372        -4.98625       -0.600198
LJ          -2.35712       -0.526688         3.74929
LJ          -2.78769         3.52342      -0.0872387
LJ          -2.57614         4.38453          1.6639
LJ           4.01722         4.82007         1.28874
LJ          -5.35286       0.0124127        -5.08501
LJ           -5.2534         4.71024        -3.82168
LJ          -0.33694         2.15561       -0.354765
LJ          -5.83907         5.31497        -6.01588
LJ         -0.495788        -3.10366        -1.11992
LJ          -5.54689         3.71487        -5.86512
LJ           2.92212        -4.97507        -1.85645
LJ           5.76183         2.80541        -2.93808
LJ           6.37642          3.4699       0.0245985
LJ          -2.30533        -4.93645         6.02674
LJ           -6.3827         5.51804         6.12645
LJ         -0.904018         6.45285         5.28173
LJ          -6.35583       -0.359797       -0.290385
LJ          -5.95283         5.56551         4.71713
LJ          -5.97574        -1.04591        -5.87345
LJ          -5.03508         -4.1331        -5.60831
LJ           1.10144        -2.71446         5.45163
LJ           1.43637        -1.74246         5.05339
LJ         -0.972867        -6.26008        -5.93318
LJ          -6.38246         4.68228         2.58989
LJ          -2.65567         4.35418         3.56053
LJ           -5.9714         4.90202        -4.93628
LJ          -0.14819         4.51274         2.26502
LJ           4.03116        -3.98959         6.25944
LJ         0.0301938         -5.5847        -5.76307
LJ           4.42761         3.65566         2.74896
LJ           5.35661       -0.960805         3.67789
LJ          -6.43496        -1.16695         6.15669
LJ            2.0295        -4.64562        -4.67569
LJ           2.92707         6.44332        -1.17836
LJ          -1.87352         2.55274         5.03619
LJ          0.964654        -1.60209         4.07938
LJ          -6.25572         6.10533        -3.61265
LJ           4.30043         5.50423         6.25343
LJ           3.99303         5.75686        -1.09629
LJ           3.89172        -2.87213        -1.55734
LJ          -5.32933        -4.65681        -2.18651
LJ           3.40061       0.0205771        0.665417
LJ           4.15051        -3.48574        -5.26064
LJ           1.21523        0.940758        -1.41396
LJ          -5.94914        -6.03746         4.56395
LJ          -2.66644         3.08799        -4.81076
LJ           4.80282        -2.53416         1.42465
LJ           6.44703         3.84195        -6.46019
LJ           1.01461       -0.870638        -3.33651
LJ        -0.0174085        -4.96713        -2.29039
LJ          -5.38368         4.68444         6.25414
LJ           4.32695        -2.72588          -4.257
LJ           3.25374        -1.24366         2.08387
LJ           2.41756         1.80641         1.27247
LJ           4.31187       -0.420974        -5.82532
LJ          -2.09821       -0.401633         5.88195
