108
#Comment!
LJ          -1.18963         5.78618         5.39794
LJ           3.50194        -3.08995         6.03235
LJ          -1.61469        -4.35649        -5.16861
LJ           3.60523        -5.42697        -4.99153
LJ           3.17222        -4.49753        -5.80363
LJ          -4.78808        -4.25458        -6.45174
LJ           2.65493        -5.09585        -2.54859
LJ           -4.9808        -6.17633        -4.45638
LJ          -6.13236        -6.34094         4.98535
LJ         -0.158391        -5.18878         -5.6371
LJ          -5.78152        -5.35365         -5.3319
LJ         -0.596796         5.93952        -3.56503
LJ          -1.80794        -1.51806        -5.14066
LJ           3.33277        0.245062         -5.9178
LJ           -1.3873         0.85708        -3.34582
LJ           3.25886        -1.66567        -5.18744
LJ           2.73075        -1.29896        -5.98285
LJ          -4.73349        -1.62124        -6.43492
LJ           1.22255        -1.41074        -4.68107
LJ           1.20605        -5.01161         5.64715
LJ          -4.27281        -2.84583         6.07583
LJ           1.59135         1.92467         5.43707
LJ          -4.49259        0.482791        -6.39969
LJ          -1.25692        -2.50513        -3.35331
LJ         -0.943673         5.59566        -6.35514
LJ           4.23111         3.62059        -6.31759
LJ         -0.568826         4.77065        -4.15875
LJ           3.94581         2.34724        -4.74782
LJ           3.21987         1.69055         5.57685
LJ          -5.66497         2.98106        -5.02339
LJ           2.60219         4.38849        -3.78896
LJ            -5.285         4.11849        -3.87883
LJ           -5.5764         2.57045        -6.39222
LJ         -0.761738         3.71264         5.81034
LJ          -5.51425         4.67663         -4.8868
LJ         -0.506063         3.02101        -3.78772
LJ         -0.575867         5.62746        -1.83203
LJ           1.93943        -4.17185        -3.24473
LJ         -0.615117        -4.14426       -0.772454
LJ           3.24332          6.4443        0.914838
LJ           2.53115        -6.22562        -1.58245
LJ          -5.29068         -5.1831        -3.49563
LJ          -3.19088         6.28008        0.229448
LJ          -6.18287         5.49686        0.781074
LJ          -6.03386         6.03069         -2.7999
LJ           4.85444        -4.54558         -6.1575
LJ          -5.45038         6.45944       -0.313349
LJ         -0.225911        -5.44132        0.370277
LJ          -1.59751        -1.50475        -2.65166
LJ            4.3574          1.5832        -3.11594
LJ          -2.37425         1.38831       0.0558414
LJ           3.06559        -1.83292       -0.394088
LJ          -1.92125        -1.16915       -0.522475
LJ          -4.19386          1.1441        -1.67513
LJ            2.8655       -0.467411       -0.991502
LJ           1.80696         0.18864       -0.620267
LJ           2.80385        -3.74958         2.57494
LJ          -1.26644        0.362291         -2.2876
LJ           4.91575         2.32315        0.245245
LJ          0.136271        -4.51135        0.502929
LJ          -1.85077         3.04608         -1.6442
LJ           5.88464          2.8119         0.35846
LJ          -1.90914         4.17972        0.803128
LJ           3.86753         2.09392        -1.85804
LJ           3.69012          3.7601        -2.84481
LJ          -5.33006         5.45556        -1.49778
LJ           3.09722         3.94618         1.30361
LJ          -4.73636          1.5448        0.367892
LJ           4.29137         3.78289        -3.57023
LJ         -0.750473         2.66552        -1.54089
LJ          -5.58929          4.5129        0.215621
LJ          0.656448         2.79205        -1.14816
LJ           -1.3122        -6.39659         1.72535
LJ           3.60053        -4.70418         1.58818
LJ          -1.45678        -5.82015         4.46693
LJ           3.65796        -6.30331         3.91849
LJ           2.92663        -5.38867         2.56359
LJ            -4.989        -4.73192         2.48493
LJ          0.210475        -3.46497         2.48386
LJ          -5.66283        -5.56476         4.59182
LJ          -5.57379         5.86012         2.90148
LJ          -1.05894        -4.79966         2.22455
LJ          -5.13676        -4.12093         4.53242
LJ          -1.00853        -6.20584         6.38888
LJ          -4.01352         -4.9717       -0.621353
LJ           2.28597       -0.282848          1.9819
LJ          -1.24877         2.22994         4.51366
LJ           3.01217        -2.57133         3.76981
LJ          -3.54921        0.248776         2.14795
LJ           3.01373        -1.04947         3.10589
LJ           3.61742         1.10956         3.21599
LJ          -4.00093        -3.05579         3.91099
LJ           -5.3661        -2.38453         1.62612
LJ         -0.998616        0.754249         2.60721
LJ          -5.45742        0.350507         5.50658
LJ           2.70519        -0.79356         5.71306
LJ          -3.06702         1.15681          4.6615
LJ           3.03242         4.62877         2.88294
LJ          -2.58949         4.22842         4.73146
LJ           4.00744        0.473975         3.90999
LJ          0.788568         0.21313         3.10989
LJ          -4.44166         4.25429        0.702807
LJ           3.22375         3.81618         3.94281
LJ          -5.01644          1.6115         4.91956
LJ          -6.28602        0.192618          2.5084
LJ         -0.768454         3.93525         1.45911
LJ          -6.37251         4.44878         5.22701
LJ          -1.45036         1.05365         4.27953
