108
#Comment!
LJ          -3.76056        0.269411       -0.846682
LJ          0.740242        -2.60619        0.376021
LJ           2.11282        -2.33214         1.57682
LJ           2.85765        -2.23284        -2.10476
LJ         -0.813591        -2.97517         4.55705
LJ           2.98859         1.39852         4.38914
LJ           3.90343         2.68513         3.52213
LJ           5.14059       -0.301739         1.46087
LJ          -2.50395       -0.720362         3.65697
LJ          -0.57781        -6.14492       -0.292517
LJ          -0.84922        -1.81964         1.15695
LJ          -0.20553        -4.78611        -2.96914
LJ          -2.56242        0.984248       -0.890997
LJ           -5.4398        -2.53219         4.06663
LJ          -2.91997         5.02561        -5.85249
LJ          0.192027         -2.9628         4.03653
LJ           3.33179        -3.96617        -3.67673
LJ          -6.34491         3.37933         6.34148
LJ          -2.26228        0.792699        0.151873
LJ         -0.771745        -4.50572        0.244861
LJ         -0.848699         -3.0181        -6.28003
LJ          -3.78702          2.0063        -3.00568
LJ          -5.94982        -0.43566        -3.00555
LJ            3.6952         1.84191         6.43914
LJ          -2.56289        -3.13675          5.9099
LJ          -6.31642         1.31294         3.69572
LJ          -2.22195        -2.91113         1.87086
LJ          -3.49545        -1.32566         6.35126
LJ          -1.79632        -5.16717       -0.203158
LJ          -2.11624        -1.59731        -1.66127
LJ           2.52773         1.81914         5.49985
LJ           -4.9826         1.44178         5.77236
LJ           5.72682        -2.31062        -3.60977
LJ           6.31731        -5.85419        0.219225
LJ           5.49903         5.24585          3.8151
LJ          -5.04869        0.290455         5.87151
LJ           4.42258         1.90077         3.93109
LJ           -1.0991        -1.87711          3.6544
LJ          -5.07476         6.35181         1.01757
LJ          -1.50229        -3.69332          2.8161
LJ          -1.33578         1.20654         4.75105
LJ          -6.28531         3.10506       0.0176719
LJ          0.438639        -5.46816       -0.791199
LJ          -3.54755         5.99725         2.04384
LJ          0.850357        -1.17003        -2.02097
LJ           1.09131        0.728107        -2.99724
LJ          -2.40273        -4.88803         5.58714
LJ         -0.905465       -0.528078          5.9311
LJ           4.37198        -6.41601        -2.24754
LJ          -1.09371        -6.03683         5.54822
LJ            3.0689         4.06041        -6.08607
LJ          -5.33684        -3.94195        -5.92467
LJ          -2.46628         5.93184          5.9852
LJ           5.89314         5.00372         1.19337
LJ          -2.35714        -3.22699         2.72753
LJ         -0.123614        -1.68351         4.22177
LJ          -4.11806         5.15175         5.36327
LJ          0.524332         2.91694        -3.22805
LJ           1.01799        -2.62317         6.09496
LJ            2.2012        -6.02173         5.18884
LJ           4.99013         2.38245        0.842305
LJ         -0.343701         -2.9131        -5.21879
LJ          -5.26639        -1.61914         -3.8012
LJ           3.98343         3.89107         3.92067
LJ          -1.87699         1.38248        -1.89855
LJ           -5.8908        0.242173        -1.94826
LJ         -0.711564        -3.73892        -1.80027
LJ         -0.709829         4.91483         1.39555
LJ           6.05137        -2.31089       -0.538761
LJ           4.17313        -2.99742        -5.23826
LJ           -6.0166        -3.37287         2.36934
LJ          -6.41942       -0.833151        -1.87082
LJ           3.13496        -5.79134         2.24277
LJ          -4.59826        -3.83203         -5.0599
LJ           -3.2026        -0.21064        -5.88765
LJ           1.96898         2.71621         3.26082
LJ          -3.87287         3.88805          5.4014
LJ           6.26223        -3.12814        -3.09783
LJ          -2.44224          3.9452         1.94678
LJ           5.95177        -3.31558        -1.84613
LJ         -0.618583          2.5445        -1.92353
LJ          -4.29996          5.2319         2.98232
LJ          -2.93576         5.28935        -1.88021
LJ          -3.95168          1.0887         4.33388
LJ           3.54744        -1.42457        -1.64222
LJ           -4.6844         2.28991         3.27402
LJ           2.25906        -3.64259         3.78524
LJ          -2.67999        -5.71009         2.48192
LJ          -1.25262         -3.2631       -0.726546
LJ            2.1891         -2.1317        -4.98226
LJ           4.08974       -0.188622        0.731431
LJ         -0.547731        -4.87802        -5.93243
LJ        -0.0291416        -3.21726         1.23459
LJ           -1.5229         5.69295        -4.63276
LJ          -3.23641        0.290514          2.3564
LJ            -4.636         4.98284        -1.97348
LJ           -4.5205        -4.51653       -0.486932
LJ           1.40902        -6.28775         -4.7521
LJ          -2.39169        0.874362         -2.6353
LJ          -5.09222         4.88659       -0.974571
LJ         -0.398337         4.97379         -5.6239
LJ           1.40745        -5.75672         5.86055
LJ         -0.347913        -4.26528         4.10176
LJ           5.83635         2.09758         3.11313
LJ          -3.99658         4.85604         6.42976
LJ           2.24097          4.9306        -3.40748
LJ            6.0279         5.39791        -2.90967
LJ          -4.78954         2.14563        -4.10261
