108
#Comment!
LJ            4.4022        -5.16014         5.58862
LJ           1.96881        -1.17997         6.09576
LJ           1.45398         1.27378       0.0954436
LJ          -3.59816         3.26613         4.58962
LJ           6.28105         2.13888        -1.16911
LJ        -0.0427143        -6.42981         5.10909
LJ          -4.49001         5.37148       -0.699189
LJ           2.25643       -0.856149        -4.09135
LJ           5.05029       -0.308342         -3.8211
LJ          -1.53272        0.254149         -2.1762
LJ            1.2503         3.41653        -3.35558
LJ           4.89022         3.41126         1.25065
LJ         0.0246059         4.69921         -4.2771
LJ          -1.65097        0.540927        -5.42996
LJ          0.911314         6.07765         -2.7333
LJ          -5.99477         6.18259         2.69723
LJ          -2.12127         4.46112         1.86285
LJ          -1.36294        -5.66782         5.32677
LJ           4.80884        -6.32626         5.84922
LJ          0.751891        -4.81768         1.67821
LJ          -2.84872        -2.23796         3.59594
LJ           1.31162        -6.30539        -6.04828
LJ           2.68502         -4.8386         3.88202
LJ           -1.6811         3.31979         1.48509
LJ          -5.05396        -4.27418        -1.91834
LJ          -4.26703       0.0243642        -2.45856
LJ           2.64669        -6.10033         3.24457
LJ           2.56123        -1.61904        -5.39991
LJ          -2.15697        -4.73369         2.53501
LJ         -0.212997         1.76457       -0.704823
LJ           3.96423         3.77367        -3.46812
LJ          -2.55596         4.89619        -5.91454
LJ           5.22398        -4.39528         4.07773
LJ           -5.4774        -5.07718        -5.88648
LJ          -3.66712         1.19435         5.26071
LJ           3.94517         -6.4334         4.20665
LJ          -4.92607         5.16001         2.50745
LJ           3.77462         1.26608         5.79828
LJ           -4.7585        -5.42129        0.304298
LJ           3.56012         2.67798       -0.865769
LJ            -6.139       0.0573519        0.592874
LJ           4.72017        -4.44577        -1.92894
LJ           3.15132         2.58298        -4.76052
LJ           -5.8456         2.72153       -0.387944
LJ          -6.35469      0.00827986        -4.09069
LJ          -2.77594        -2.59363        0.383035
LJ         -0.292322       -0.918438         1.94582
LJ          -2.22995        0.626231        -6.27413
LJ          -2.85153        -3.61527         1.09556
LJ          -5.85398         5.67631        -4.12366
LJ           2.40773        -1.27165         3.55694
LJ           2.29215         1.62897        -6.45371
LJ           5.06769        -3.20093        -5.09023
LJ         -0.234035           5.625        -1.64759
LJ           -3.4617        -3.75659        -4.44015
LJ           1.85418        -2.11409       -0.466386
LJ           3.14935         2.72908         3.40419
LJ           6.09591        -4.56522        -5.82975
LJ          -4.64452         5.00121         5.26216
LJ          -2.79345        -3.09114        -3.03172
LJ          -5.99979        -4.95471         3.10088
LJ          -5.71754         4.20836       0.0878276
LJ          -3.89302        -6.03299        -2.46907
LJ           4.88652         4.71807         5.13499
LJ           1.73579          3.9745         2.67131
LJ           2.26127         6.43504         2.00432
LJ           1.58892         5.46733         5.46397
LJ           2.11311        -4.20687        -0.89886
LJ          -1.42907        -1.24331         1.57363
LJ           2.98204          4.6676       -0.667889
LJ          -3.89806         5.63206        -2.29799
LJ           -4.9868         6.16583        -1.57725
LJ          0.093357        -2.55046        -5.18719
LJ           3.86815         2.00312        -5.83301
LJ         -0.400716         3.28052        -3.00722
LJ           -5.0074         1.63905        -3.17257
LJ           5.59751         -1.1604         4.68796
LJ           -6.3128         5.35152        -1.77107
LJ           4.02283       -0.525717         4.31195
LJ           5.32271        -3.38967        -2.23955
LJ          -1.18631         3.80085        -3.52482
LJ           1.75397         5.53223        -6.38075
LJ          -3.93482         1.37588        -1.15122
LJ           3.54073       -0.119206         2.35365
LJ           2.85394        -1.92595        -4.18752
LJ         -0.255624         5.78796       -0.404949
LJ          -1.79506        -3.39358        0.752726
LJ          -4.43698        -3.72659        -0.97987
LJ          -3.51766         -1.9501         5.10503
LJ           2.90128         6.02301        -4.18256
LJ           4.07066         5.45084         3.08229
LJ           1.82611        -4.09713         1.41009
LJ          -3.96941          3.4113        -2.41261
LJ            5.1683         2.75387         6.03389
LJ          -5.90545        -3.91293         6.17195
LJ          -3.64289        -2.36257         -1.0199
LJ           2.79993         3.62291         0.30935
LJ          -1.56724         3.85326        -5.98916
LJ          -2.89345         1.86254        -4.06994
LJ         -0.472384        -1.15317        -1.21731
LJ           2.77601        -2.44535         5.62971
LJ           1.33912        -2.63419         6.05898
LJ           6.06862        0.400464        -6.04567
LJ         -0.777286          1.1529         4.04662
LJ           6.16945         -3.1635      -0.0449889
LJ          -3.57839        -4.93737         4.16489
LJ          -1.50064       -0.343264        0.158714
LJ           -2.1732        -5.48784       -0.847019
