108
#Comment!
LJ           5.74656         1.69992         -2.1024
LJ          -4.63121         -3.2197        -5.63568
LJ          -6.09021          3.1101        -2.74967
LJ            3.9285         4.10789         4.26645
LJ           0.36809       -0.246301         4.27193
LJ            3.6728        -1.17511        0.695733
LJ          -3.21999         5.48719          1.9867
LJ          -2.22877         3.80926         2.89491
LJ           4.36467         3.81949        -1.84227
LJ          0.595106        -2.32592        -6.16063
LJ          -3.88331       -0.975664        -5.80964
LJ          -6.24673         5.14392        -3.58894
LJ           1.75192         4.28262         4.21769
LJ          -5.90904         4.56908        -5.43646
LJ         -0.606232         2.79923        -3.26431
LJ          -2.96476        -3.08951         2.73013
LJ          -2.70431        -6.03064         3.66928
LJ          -2.63717        0.701895         3.05852
LJ           0.41315         5.54857        -5.99892
LJ           4.66316        -1.92283         0.23874
LJ           1.99931        -6.21711         4.40101
LJ          -2.47109         4.82319       -0.108338
LJ           5.24529        -6.35402        -1.73365
LJ           3.37924         2.96598       0.0878092
LJ           4.29266         6.04674         1.03339
LJ          -1.36075       -0.341623        -3.62637
LJ          -1.98159        -5.08787         1.76977
LJ           2.83461         2.86379         2.53839
LJ           4.07025         -4.4765         1.04568
LJ           -3.5705         1.74409        -4.85978
LJ         -0.420947          2.3458         3.40386
LJ         -0.347648         1.30182         4.25036
LJ          -5.12049         4.79161         2.57407
LJ          -2.24042        -5.02874        -3.51004
LJ            3.1815         4.51848        -2.44098
LJ           -1.3832        0.498804         1.32519
LJ          -4.33157        -2.54749         4.65144
LJ          -6.07537        0.190568         1.72506
LJ          -2.87167        -6.09586         2.15474
LJ          -2.09633        -2.43408         5.62362
LJ         -0.756048        -1.96164         -2.7007
LJ          -6.27693         2.30859        -1.28968
LJ           6.05315         3.93636          3.0427
LJ           2.49736        -5.41663         6.36833
LJ            5.6362         2.14373       -0.793269
LJ           5.51112        -4.12957         2.92672
LJ            4.1017       -0.656812       -0.107307
LJ          -3.17729        -4.01202       -0.761096
LJ           1.64487        0.639729        -5.07561
LJ          -2.92044       -0.216981        -4.12628
LJ           4.78512        0.846759        -1.52489
LJ          0.410584        -4.83927         1.36966
LJ           3.97728        -3.12644         6.11159
LJ         -0.296345      -0.0423036         3.02393
LJ         0.0408554      -0.0417525       -0.915268
LJ          -1.14039         1.75923         1.85831
LJ          -6.39291         4.38111         2.06534
LJ         -0.673534         1.09508        -3.55742
LJ           5.33684         5.73853       -0.563602
LJ           4.72725         6.12641         3.06716
LJ           2.78744          5.3639         -6.4169
LJ          -6.04944        -1.16353         4.74153
LJ          -4.02478         4.49051        -1.98074
LJ           4.08982        -3.46225        0.240575
LJ          -1.46609           0.986        -1.70656
LJ          -2.32443        -4.40187        -1.31143
LJ          -2.06256         2.45072         3.29309
LJ           5.83391        -3.01349        -1.76368
LJ          -4.60484         3.73738         4.27248
LJ          -2.98625         -2.5484        -5.38059
LJ           1.04658        -3.90872         5.65515
LJ          0.120989        -1.30782         5.76449
LJ           2.80984       -0.671837         5.31857
LJ           5.77253        -2.98265       0.0358726
LJ           3.92514         3.45478        -3.24853
LJ         -0.708677         4.78598        -3.98561
LJ         -0.758252          3.8344       0.0433197
LJ          -1.43261        -1.53478        -5.66512
LJ           2.24971        -2.42668         4.46768
LJ          -5.93919         5.85721         -4.9136
LJ           3.96203        -1.64084         5.80937
LJ          -5.52653        -2.41756         5.59425
LJ         -0.399742       -0.247209        -4.01362
LJ          0.558637         4.54323         1.14659
LJ          -5.35447       -0.978096        -5.19678
LJ           4.09606         1.78397        -1.09853
LJ          -1.37817       -0.608586         3.99454
LJ          -5.84668        -6.39112         -6.1603
LJ            1.9223         4.64503       0.0617415
LJ          -1.22284        -4.80342         2.72719
LJ           2.26857        -4.99525        -2.30172
LJ           6.21135        -5.12714         2.14546
LJ           5.75524        -5.30101       -0.158327
LJ           4.25895        -5.90427         2.18516
LJ          -1.08502          2.4039         4.70015
LJ          -5.49028        -2.01553        -5.04825
LJ          -4.96795        -3.27022         0.22476
LJ          0.138174        -2.69025          4.6763
LJ           4.87116        -5.13302         3.64964
LJ           1.37751         3.56717         5.08398
LJ           2.95495         1.32922        -2.46224
LJ           3.91964        -5.20742         3.56932
LJ          -1.65193       -0.697974       -0.873631
LJ           2.79445         4.09721       -0.229078
LJ          0.639701        -3.84122         1.07669
LJ          -3.25636        -2.50497         4.21634
LJ          -3.42844         3.49466         5.85868
LJ         -0.601138         6.23866        -2.02289
