108
#Comment!
LJ           2.06584        -3.90036         2.18472
LJ          -1.18449         4.53571        -5.77703
LJ          -5.09815         4.42433        -4.15143
LJ          0.732273       -0.548918        -5.47081
LJ          -5.25058         3.84426         0.69957
LJ          -3.16418       -0.130145        -3.07602
LJ           3.00421       0.0180489        -3.51038
LJ           -3.4532         6.23107        0.697331
LJ           1.92275          3.1012        -1.15566
LJ         -0.090916        0.815132        -4.51493
LJ          -1.32601         1.57847        -6.38464
LJ            4.5154         5.00348       -0.440095
LJ           1.12234        -5.35641        -3.73214
LJ           1.75713         6.09009        -2.49777
LJ          0.172457         1.33389        -5.85284
LJ           5.15927        -2.12934         6.41116
LJ           5.51733        -2.93523        -3.23286
LJ           0.40033        -2.90111        0.653008
LJ            3.4598        -2.42724        0.955657
LJ          -2.09682       -0.643365         2.44611
LJ          -2.05981       -0.546598         -5.8517
LJ          -5.71415         -4.2785         -2.1307
LJ           5.33613         2.72903         3.23423
LJ           3.19029        -3.35574         4.83545
LJ           4.96098         2.62667        -4.76867
LJ           5.67268         5.77492         0.96015
LJ           6.33332        -1.91096         5.75151
LJ         -0.784143        -4.58303        -5.72054
LJ          -3.17882        -5.23185         2.96075
LJ           1.21065         2.56858         4.39378
LJ           2.33143       -0.696188        -2.85525
LJ           1.87703          1.7979          1.8788
LJ          -1.74114         4.43218        -2.14302
LJ          -1.90997         5.67691         4.89522
LJ          -1.57854         6.29554         2.12072
LJ            0.3616        -6.30609         6.03864
LJ          -1.24067         1.76963       -0.349621
LJ          -3.05037        -1.19008        -6.28735
LJ          -4.12295        -4.68706         1.94449
LJ          -4.11254       -0.920214        -5.77906
LJ          -2.84514        -4.11134         6.14552
LJ          -2.16368          1.4957        0.300193
LJ         -0.211764        0.101634        -3.87696
LJ           5.97317        -5.38908         4.42037
LJ          -0.18482         2.92903        -4.14385
LJ          -6.18803         5.87494         1.64742
LJ         -0.286393        -2.02203        -5.52493
LJ          -5.52475        -4.99818       -0.500331
LJ         0.0447484         -4.2085         4.41986
LJ         -0.146115        0.941997         2.31185
LJ           3.34622       -0.601004         1.74476
LJ          -4.30317        -3.63103         1.19325
LJ           5.17266         1.78312         6.45044
LJ           6.30828        -3.74264        0.626815
LJ           6.37052        0.569071       -0.530629
LJ           3.50064       -0.162356        -5.19414
LJ           6.15135        -6.03645        -4.90803
LJ          0.492253        -4.30768        -1.74396
LJ           4.08661         5.25548        -2.85781
LJ           6.04019         5.03295         3.60576
LJ           5.25717          2.0728        -3.60999
LJ           1.50443        -5.94368         2.12875
LJ            1.2683        -4.39208        -3.27433
LJ          -1.29983        -5.64283       -0.532779
LJ          -1.78305         4.45193         4.49784
LJ          -2.59645        -4.32331        -4.42495
LJ           4.83754        -3.45619        -5.89518
LJ           -1.2293         2.94641         1.65081
LJ          -1.94001         -2.1931         2.90141
LJ         -0.260062         5.78769         5.59079
LJ           2.45701         1.05094        -4.54679
LJ          -2.80514        -3.45364         2.00884
LJ           4.81075         1.26708         2.58958
LJ          -6.17127         3.57751        -4.68498
LJ           -3.5896        -1.14856         -3.2089
LJ       -0.00697111         3.49562        -2.28601
LJ          -1.40444        -4.61347          4.7905
LJ          -1.23547       -0.199921         -3.1551
LJ           2.79821         1.55561        -5.91879
LJ          0.600794        -1.12081        -1.85149
LJ            5.8889        -5.76644        -0.81129
LJ         -0.103085        -5.24438        -5.09687
LJ          -2.61003        -4.77613        -1.28926
LJ           2.47314         2.17834       -0.637443
LJ           5.95588        0.926019         3.00779
LJ          -6.02369         5.02076        -6.12451
LJ          -2.27475        -3.17372        -1.41455
LJ           -2.5934        -4.03771         3.29579
LJ           1.31407         4.08978      -0.0158638
LJ           3.57616         1.63322         1.53577
LJ           4.50227        -1.05224        -4.84205
LJ          -3.17018         2.16668         -2.2722
LJ          -1.21031        -2.75208         3.41985
LJ           6.35493         3.33359         3.90045
LJ           5.29819        -2.25541       -0.370425
LJ          -5.29265        -3.69973         3.80913
LJ           3.21681         3.76685        -4.87606
LJ           1.38145       -0.936492        -2.46357
LJ          -2.73612        -6.29651        -4.95121
LJ          0.372824         4.83005        -2.60405
LJ           6.09893         5.12936         6.09167
LJ           3.27215         3.88808        -5.83406
LJ           2.75475        -1.88146         1.57096
LJ          0.788394        -1.90827       -0.247286
LJ           -4.2825         3.50543        -4.73126
LJ          -4.29647        -6.14451         3.96334
LJ           5.83837         2.13523       -0.755913
LJ           5.34786         3.93487        0.376478
