108
#Comment!
LJ           5.98684         1.61732        -1.94945
LJ          -4.55234         -3.2324        -5.60026
LJ          -5.99913         3.03895        -2.80271
LJ            3.7427         4.30766            4.16
LJ          0.487345        0.107733         4.09156
LJ           3.49165       -0.950306        0.882224
LJ          -3.15285         5.44395         2.08061
LJ          -2.53512         3.66728         2.78219
LJ           4.51921         3.74147        -2.10705
LJ          0.714555        -2.35008        -6.22737
LJ          -3.87455       -0.797006        -5.93952
LJ          -6.24542         5.26264         -3.6222
LJ           1.46655         4.42393         4.13605
LJ          -5.66315         4.57681        -5.35864
LJ         -0.380125         2.77012        -3.27361
LJ          -3.03604        -2.95905         2.70581
LJ          -2.85456        -6.02541         3.63066
LJ          -2.61901        0.768076         2.93493
LJ          0.407615         5.64368        -5.86898
LJ           4.80235        -1.96151        0.510025
LJ           1.96406        -6.16544         4.50627
LJ          -2.63848          4.8623       -0.413004
LJ           5.33063         6.44265        -1.84719
LJ           3.33599         3.03865        0.030361
LJ           4.24616         5.95029         1.09098
LJ          -1.41783       -0.281959        -3.46945
LJ          -1.98268        -5.25298         2.03675
LJ           3.21414         2.81175         2.29272
LJ           3.94512        -4.51707         1.06021
LJ          -3.77567          1.8324        -4.59198
LJ         -0.608518          2.2701         3.70961
LJ         -0.316639         1.20153         4.23209
LJ          -4.85674         4.76942         2.62911
LJ          -1.95021        -4.82389        -3.58486
LJ           3.30193         4.32511        -2.49702
LJ          -1.35668        0.703443         1.39692
LJ          -4.23534        -2.74658         4.82793
LJ          -6.07522       0.0558971         1.86435
LJ          -2.77317        -6.10051         2.29108
LJ          -2.12045        -2.37736         5.67195
LJ          -0.68955        -1.79691        -2.65551
LJ          -6.17827         2.33825        -1.11407
LJ           5.91373         3.97793         3.28132
LJ           2.30452        -5.24266         6.39287
LJ            5.5307         2.01845        -0.99269
LJ           5.44797        -4.13944         3.00856
LJ           4.25308       -0.461899       -0.141746
LJ           -3.0617        -3.89152       -0.767497
LJ           1.77479          0.3159        -4.85422
LJ          -2.58416        -0.12954        -4.13538
LJ           4.93181        0.967564        -1.71175
LJ           0.14989        -4.91014         1.51406
LJ           4.10059         -3.0238         6.23236
LJ        -0.0302928       0.0175762         2.88616
LJ          0.199153      0.00801886       -0.907407
LJ          -1.33177         1.60327         2.04389
LJ          -6.35733         4.49882          2.2025
LJ         -0.843251         1.05183        -3.65006
LJ           5.10936         5.95297       -0.774291
LJ           4.73884         6.14062         2.99749
LJ           2.63471         5.25112          6.3709
LJ          -6.30585        -1.25756         4.78413
LJ          -4.10632         4.70896        -2.26267
LJ           4.01491        -3.52056        0.254425
LJ          -1.57917         1.02846        -1.45737
LJ          -2.09043        -4.44399        -1.10872
LJ          -2.11306         2.33817         3.37317
LJ           5.93175        -3.19775        -1.96428
LJ          -4.54669         3.67365         4.48039
LJ          -2.83859        -2.41637        -5.12717
LJ          0.789311        -3.86402         5.47643
LJ         0.0605437        -1.31504         5.68314
LJ           2.79216        -0.47685         5.62742
LJ           5.73979         -3.0389       -0.221896
LJ           3.81765         3.32027        -3.35917
LJ         -0.911484         4.75208        -3.89707
LJ         -0.681066         3.68028      -0.0821218
LJ          -1.70952        -1.51293        -5.87866
LJ           2.41688        -2.37992         4.55848
LJ          -6.08483         5.82233        -5.24543
LJ           4.07298        -1.96176         5.79517
LJ          -5.44902        -2.66659         5.47768
LJ         -0.320815        -0.36806        -3.94401
LJ          0.346784         4.63509         1.34404
LJ          -5.40092        -1.05747        -5.38426
LJ           4.21501         1.61497        -1.09594
LJ          -1.38569       -0.813669         4.25656
LJ          -5.70689        -6.24403        -6.11957
LJ           1.81358         4.76409        0.459608
LJ          -1.47385        -4.63173         2.59503
LJ           2.45795        -4.87371         -2.3633
LJ           6.18974        -5.14831          2.1718
LJ           5.87668          -5.275       -0.241725
LJ           4.05839        -5.86447         2.02655
LJ          -1.11017         2.50845         4.65817
LJ          -5.71231        -2.16841        -5.25607
LJ          -4.96476        -3.14391        0.100166
LJ          0.199506        -2.69609         4.41618
LJ           5.05032        -5.23301         3.49751
LJ           1.47113          3.7029         5.17732
LJ           3.00445         1.14542        -2.49831
LJ           3.81021        -5.37969         3.61815
LJ          -1.58862       -0.732642       -0.740091
LJ           2.94259         4.13138       -0.432932
LJ          0.679804        -4.01209         1.06503
LJ           -3.5236        -2.54906         4.09308
LJ          -3.64731         3.62277         5.80519
LJ         -0.450939         6.08286        -2.03418
