108
#Comment!
LJ          -4.36843       -0.242092       -0.496715
LJ          0.615283        -3.77281        0.697386
LJ           3.04366        -4.30995         1.93657
LJ           3.58025        -3.92194         -1.3675
LJ          -1.88356        -3.89741         4.33653
LJ           1.81384         2.37195         4.60178
LJ           4.19849         2.79412         4.73262
LJ           6.02988       -0.513028         2.16445
LJ           -2.7798        -1.40468          1.3084
LJ           2.10376         6.34066         -2.1414
LJ         -0.709586        -1.53004        -1.93913
LJ        -0.0766743        -4.07958        -4.21208
LJ          -3.49652       -0.983703        -1.43894
LJ          -4.79693        -2.57329         4.69771
LJ          -3.55683         4.49705          6.0413
LJ          0.345803        -4.68737         5.10431
LJ           4.37847        -4.01906        -4.25159
LJ           6.32245         2.92849         5.88585
LJ          -4.69913         0.74134      -0.0670368
LJ         -0.691334        -5.07504        0.397315
LJ           1.57654        -3.97435         5.59924
LJ          -4.11723         2.88517        -1.98235
LJ           -5.6584          -1.563         -2.0069
LJ           4.08292         1.85593        -5.92335
LJ         -0.903339        -1.25294         6.10099
LJ          -5.54451        0.770343         3.91546
LJ          -2.24124        -2.04954        -1.03464
LJ          -3.71193      -0.0600386         5.23344
LJ         -0.781533        -3.54362       -0.619374
LJ          -1.51872        -3.15219        -1.57264
LJ           1.71296         2.27387         5.70525
LJ          -5.94856         1.39451         6.23166
LJ           5.05629        -2.72946        -3.57362
LJ          -5.92624        -3.65759       -0.795769
LJ           5.04699         5.57003         4.13455
LJ          -5.57173       -0.586979         4.96662
LJ           3.64579        0.910495         4.49083
LJ           -1.1862        -2.59543         3.81859
LJ          -5.08986         5.57956         1.11468
LJ         -0.902137        -5.64272         2.83637
LJ          -1.49836         3.36012        -5.81472
LJ           4.57554         2.46058       -0.251257
LJ        -0.0996214        -4.62382        -1.97195
LJ          -4.52647         5.20349         2.74712
LJ          0.643199         -1.3082       -0.230546
LJ          0.300137         1.13212        -2.94061
LJ          -3.82166        -5.28534         6.36817
LJ          -2.37375       -0.444005        -5.91503
LJ            3.0649         -5.8867       -0.974068
LJ         -0.815681        -5.98405          3.9546
LJ           1.85819         3.44622        -4.60962
LJ          -6.05953         -3.5952        -6.20857
LJ          -2.35428         4.82534         4.73778
LJ           5.54429         4.86864         3.31049
LJ          -3.17554        -2.38219         2.90195
LJ          0.390897         -3.5567          4.9213
LJ          -4.88393         5.25899         4.47783
LJ          0.666881         2.55208        -2.27259
LJ         -0.126791        -2.39375        -5.22745
LJ           3.64879         5.65605         4.26443
LJ          -5.07396         2.56053         1.17361
LJ          0.412799       -0.549718        -4.51042
LJ          -4.92481       -0.497453        -3.03367
LJ           3.47854         4.22701         3.87699
LJ          -1.46769         1.44459         -1.4139
LJ          -4.50702        0.966806        -3.16825
LJ          -1.36678        -1.94331        -2.87434
LJ          0.445086         6.00707        0.718811
LJ          -5.11284        -3.44853        -1.69052
LJ           6.19102        -3.00199        -5.45194
LJ           5.20445        -1.83808         1.83231
LJ           6.39719       -0.445257        -1.38919
LJ           2.51352        -4.94436        0.991221
LJ          -4.68867        -4.13409        -5.79823
LJ          -3.56164        -1.69768        -6.24792
LJ           1.05624         1.40778         3.53252
LJ          -4.47508         4.27908        -6.31764
LJ           5.74272        -3.75429        -3.15794
LJ          -3.04128         5.64039        0.874944
LJ          -4.90937        -4.26234        -4.36738
LJ          -1.05211         2.14584        -3.96923
LJ          -6.29744         4.77761         3.63942
LJ          -4.40015        -5.72234        -1.01001
LJ          -3.93441         3.40562         5.18758
LJ            1.3429        -1.96805        -1.18668
LJ          -4.88827          2.3929         3.83367
LJ           1.95472        -3.50268         1.96809
LJ          -2.21334        -5.60513         3.32292
LJ           1.09225        -4.42705        -1.17485
LJ           3.14035        -2.06065        -5.34931
LJ           3.84145        -1.47294         1.03274
LJ          0.253273        -5.18297        -4.97177
LJ           1.59597        -4.78292          2.2802
LJ          -1.62186         6.21414        -5.47458
LJ          -3.69038       -0.620719         2.37933
LJ           -4.5738         4.77814        -1.91269
LJ          -2.76743        -3.21054       -0.517626
LJ           1.71842        -5.82841        -4.06595
LJ          -1.97892        0.120317        -2.82114
LJ          -4.76343         5.08215       -0.621733
LJ          -1.54061         -6.4405         6.39933
LJ          0.937067        -6.19316         5.74105
LJ         -0.399593        -3.55102         3.80182
LJ           6.17194         1.23864         4.82772
LJ          -4.06226        -6.08152        -4.36208
LJ           1.96429         5.10714        -3.33073
LJ          -5.72411        -6.40539        -1.45679
LJ          -4.32675         4.74496        -3.81065
