108
#Comment!
LJ          -2.17218         1.35322        -1.03493
LJ           1.11318        0.325374       -0.253938
LJ         -0.484033         1.57838         1.60024
LJ           1.16428        -1.62889        -3.97922
LJ          0.564019        -1.12747         4.28411
LJ           5.94863        0.387258         4.55717
LJ           2.76263         3.36337         1.35207
LJ           4.25894         3.65904          1.4801
LJ         -0.690382      -0.0736687        -5.43549
LJ          -4.28759        -5.19999          4.0765
LJ          -3.29343        -3.65626         5.84497
LJ          0.257146        -6.37757       -0.207733
LJ          -1.15069         5.18654       -0.424467
LJ           6.16003        -2.49513         2.63136
LJ          -3.35152         5.47158        -3.51344
LJ           1.47083       -0.110474         1.84996
LJ           1.25491        -3.59066        -2.49564
LJ           6.40541         5.66949        -5.78074
LJ           2.78225         1.47066       -0.243016
LJ          -1.62291        -5.41788       -0.133323
LJ          -1.51172        -1.32493        -3.30412
LJ          -2.35665       -0.247338        -4.40457
LJ          -6.39634       -0.521538        -3.92367
LJ           3.64934         2.13078         6.05113
LJ          -5.63701         5.77533         5.37103
LJ           6.10152         2.75845         1.97338
LJ          0.706827          -1.306         2.92372
LJ          -5.70026        -3.37536        -4.03355
LJ           6.08843          4.0096        0.388081
LJ          -3.74909         2.12836        -1.98028
LJ           4.09155        0.253061         3.49307
LJ          -1.71809         1.73247         3.96231
LJ          -5.72931        -1.98234        -2.96267
LJ           4.99142         2.64228         2.53886
LJ           6.06958         4.24861         2.95212
LJ          -4.43425        0.909752        -5.77671
LJ           5.27657         1.41132         3.32547
LJ          -2.08586        -2.38226        -5.58789
LJ           -4.8038        -4.95865        0.813082
LJ         -0.697985        -6.38206         1.61842
LJ          -1.13294         3.08543        -1.59048
LJ          -1.89547         4.43044        0.674228
LJ           1.77294         5.83243         1.65035
LJ          -2.93772        -6.13848       -0.158449
LJ            1.5921       -0.588963         -5.3148
LJ           2.07244         2.27974        -3.30848
LJ          -1.36896        -3.96035          3.0153
LJ           2.42846       0.0386121         5.52623
LJ          -5.62126         4.93982        -5.06471
LJ          -2.14869         6.44097        -3.04697
LJ           5.36152          5.2581         3.18819
LJ          -3.74926        -4.01854        -4.59264
LJ          -2.16812        -4.26929        -5.52939
LJ          -6.06799         4.53896         -3.3425
LJ          -5.12677        -5.45323        -5.02463
LJ         -0.590183         0.68874         2.20254
LJ          -2.65456         4.15705         1.65728
LJ         -0.781984         1.37854         -2.9025
LJ           3.01218        -4.12914         3.00653
LJ           2.16562        -3.75649         4.34923
LJ          -1.01642         2.02395       -0.216811
LJ          0.448448        -5.12887        -5.97145
LJ           4.92718         -4.1087        -4.33201
LJ           3.47739         4.31054         3.53503
LJ          -1.01936         2.71897        -2.56099
LJ            4.0842        -1.20339         1.01315
LJ         0.0486664         4.82492        0.830579
LJ          -3.59912          2.4187         3.10208
LJ           2.37763        -0.48224         4.56463
LJ         -0.530588        -3.38577        -6.29417
LJ          -2.30581         5.63104         3.42638
LJ          -5.63894        0.289415        -3.85274
LJ           4.65595         6.37803         4.95972
LJ          -4.23677        -3.18256        -4.17026
LJ          -3.51598         1.64631         6.21594
LJ           4.60366         4.85209         2.74478
LJ           -2.7543         5.07376         2.45823
LJ          -5.11088        -2.22863        -2.11047
LJ          -1.44248        0.669627         3.92255
LJ           1.55222        -2.89595        -1.30224
LJ          0.151396         2.87568         2.22151
LJ         -0.450812         6.02991         2.62707
LJ           0.93121         2.57651        -4.85125
LJ          -4.27634        -3.60044         2.37993
LJ          -6.40786         0.72241         -3.0695
LJ           -4.0242         1.70349         2.52356
LJ            2.2255        -3.80717        -5.80639
LJ          -3.75134        -4.80043      0.00884845
LJ          -3.11125         1.29345         -2.7712
LJ          0.437761        -2.29103        -4.27115
LJ            3.3685         3.06092       -0.794867
LJ          -2.88084         5.88351         5.67554
LJ          -2.01642        0.582612         2.77717
LJ           -0.9087         3.93878        -3.49714
LJ          -1.77233         2.36773         3.03435
LJ          -5.06173         5.34451        -1.05183
LJ             4.499         4.83156        -0.21233
LJ          0.608114         5.81638        -6.33928
LJ          -4.47691         1.71912        -3.16829
LJ           6.04796         4.10706        -1.71354
LJ           1.80708         4.35072         -5.0938
LJ          -1.24722        -4.14089        -4.16305
LJ            2.0663         -2.8133         3.87094
LJ           6.10205         3.09843        0.694469
LJ          -1.48889      -0.0345114        -3.82553
LJ           2.76831         4.57625        -3.67423
LJ           3.53215         3.35538        -5.75579
LJ          -4.93413        -2.46906        -3.50203
