108
#Comment!
LJ           -4.4138         5.54701         6.15461
LJ           -5.9868        -3.50733         5.95182
LJ          -4.29369        -4.41823        -5.30951
LJ          -5.97992        -6.16683        -5.17297
LJ        -0.0423729        -5.00267        -6.44365
LJ          -1.37806        -3.73797        -6.30848
LJ         -0.647539        -4.82509        -3.48921
LJ          -1.92154        -6.18377        -4.76785
LJ           3.53339        -6.23677         6.11429
LJ           2.44733        -4.94759        -5.46056
LJ            4.1412        -5.13162        -4.35141
LJ           2.84414         6.12512        -3.73612
LJ          -5.16817        -1.79123        -5.56053
LJ          -6.25993        0.288132         6.40315
LJ          -4.84699        0.778814        -3.74937
LJ          -6.34571        -1.60517        -4.41741
LJ         -0.691301        -1.42799         6.06097
LJ          -1.41581        -1.04372        -5.87122
LJ         -0.181424        0.283986        -4.70507
LJ          0.117798         -2.6985        -4.17138
LJ           5.21485        -2.36585         6.26138
LJ           3.45214        0.621266        -6.20688
LJ           5.07105        0.219119        -5.11118
LJ           1.69201        -2.68331        -3.90807
LJ          -3.82939         3.32961        -6.33154
LJ          -5.48299         4.16739         6.38206
LJ          -3.66837         4.66169        -3.98904
LJ          -5.66187         2.72211        -4.16211
LJ        -0.0485147         1.66867          6.0469
LJ          -2.91694         4.72844        -6.10784
LJ         -0.757439         4.81271        -3.76368
LJ          -1.93506         3.36708         -4.0387
LJ           4.01031         2.40973         -6.0619
LJ           2.62611         3.77231         6.05328
LJ           4.09055         4.69951         -4.8077
LJ           2.56956         3.13015        -4.03045
LJ          -3.94169         6.24408        -1.92289
LJ           5.73503        -3.83596        -2.90547
LJ          -3.74053        -4.45118       -0.480543
LJ          -6.26736         6.04035        0.602812
LJ         -0.871845        -6.36329         -1.5017
LJ           -2.0362        -4.97186          -2.533
LJ          -2.08158        -4.53031       0.0798309
LJ          -2.10605         6.38493        0.355619
LJ           3.90644         5.84482        -2.21086
LJ           4.23776        -4.26476        -2.95984
LJ           4.28956        -5.62551         0.40581
LJ           2.99831        -6.24259       -0.302397
LJ           -5.0321        -1.54125        -2.56604
LJ          -6.12166         1.03344        -1.75965
LJ          -4.99865       0.0827841       -0.330333
LJ           6.46163        -1.87491       -0.554476
LJ          -1.26878        -1.70881        -2.56416
LJ          -1.17998        0.754086        -3.08285
LJ         -0.311415       -0.319604        -1.00717
LJ         -0.393116        -2.81877       -0.130078
LJ           3.39006        -4.10461       -0.902901
LJ           2.14546        0.413909        -2.50772
LJ           3.20781       -0.196505        -0.55548
LJ           2.54842          -2.079       -0.110535
LJ          -4.95643         2.71056        -1.88023
LJ          -6.19185         3.61346        -1.46892
LJ          -4.80791         4.04459        0.698254
LJ          -6.17828         2.04942        0.349481
LJ        -0.0251938         2.52497        -1.65946
LJ          -2.42291         4.83184        -1.74303
LJ         -0.239135         4.14775        0.619075
LJ          -1.45948          2.0029      -0.0248928
LJ           3.64214         3.10523        -2.22841
LJ           2.08798         3.97428        -1.40298
LJ           3.75011         4.23847        0.212597
LJ           2.00457         1.80319        0.120841
LJ          -4.82377        -6.27167         1.85911
LJ           -6.3147        -4.54225         1.92818
LJ          -4.78595        -4.91662          4.2995
LJ          -5.86355        -6.45284         4.02262
LJ         -0.174652        -5.75722         2.48382
LJ          -1.56739         -4.6405         2.46886
LJ         -0.084611        -3.04718         3.85921
LJ           -2.3165        -6.17706         4.74915
LJ            3.9472          5.9557         2.69402
LJ           2.26645        -4.37185         2.16345
LJ           4.37855        -4.25248         4.44648
LJ           2.23352        -6.43075         5.20904
LJ          -4.91409        -2.50165         1.02132
LJ           5.74228       -0.400965         2.05471
LJ          -4.67519        0.747705         4.08354
LJ           6.41118        -2.45277         3.74613
LJ          -2.82447        -1.79239         1.51572
LJ         -0.302811        -1.50638         2.04412
LJ          0.427626        0.518247         3.61688
LJ         -0.757541        -2.02809         4.19786
LJ           4.19265        -2.40432         1.64539
LJ            2.0682       0.0500305         2.15242
LJ           4.19965       0.0724302         5.26351
LJ           3.15287        -2.26701         4.30847
LJ          -5.31715         1.62032         2.25896
LJ           6.29973         4.35769         2.53077
LJ          -5.23293         4.14299         3.71858
LJ          -5.70485         1.72554         4.11229
LJ        0.00415781         1.37276        0.871834
LJ          -1.82869           4.247           2.474
LJ         -0.127151         4.02087         4.02662
LJ          -1.74876         2.15095         4.94777
LJ           3.33325        0.765913         2.83961
LJ           2.15518         3.80998         1.99766
LJ           3.13496         4.53865         4.75146
LJ            2.0009         1.78866         4.09404
