108
#Comment!
LJ         -0.282659        -1.54476           1.457
LJ          -2.53077         -4.8998        -5.72122
LJ           5.52491          2.2867        -3.86804
LJ          -4.16255        -4.78942        0.155856
LJ           2.88589        -5.18324        -2.75338
LJ          -5.86069         2.26111       -0.221106
LJ            2.1784         1.13666         0.50249
LJ           3.73285         2.56867         2.47644
LJ          -5.16684        0.937255          3.9776
LJ           3.43831        -3.33659           4.034
LJ          -2.36121          1.2573         5.34188
LJ            4.8319         4.21481         -1.2451
LJ          -3.92224        -4.91322           6.453
LJ          -0.68375         6.34391        -2.41964
LJ           5.53728         3.38216        -3.23291
LJ           6.06111        -1.42579         3.49377
LJ          -5.72688         2.53602          2.3426
LJ           5.38989       -0.509298         1.00951
LJ          0.905886        -4.37336        -1.14133
LJ          -4.59394        -1.50907         2.85569
LJ          0.223452        -4.56158        -6.40669
LJ          -5.58587         6.34347         3.73075
LJ          -5.70372         3.27284        -4.46898
LJ           2.17771        -4.68403        -3.81512
LJ           2.62431         5.14271         3.83001
LJ          0.326504         2.06511       -0.511418
LJ          -3.76299         2.27014         -5.3003
LJ          -5.06289          4.2338        -1.06739
LJ          0.874745        -4.68872         1.33163
LJ          -2.16149        0.416107        0.580625
LJ          -5.46309         -0.1941        -6.02436
LJ          0.436683        0.612109         2.86241
LJ          -2.18287         3.39476         -5.7671
LJ           5.11206        0.551044        -5.85301
LJ          -5.14191        -1.68602        -5.25247
LJ         -0.582495         4.43896         2.10113
LJ         -0.654172        -3.90645        -3.70629
LJ          -4.73494        -2.13177         4.71519
LJ          -4.47872         6.31815        -5.14347
LJ          -4.65504        -3.30953         6.11788
LJ          0.574405         3.03514         2.01376
LJ          -3.64045         1.21631        -1.89861
LJ           2.95364         6.16943        -4.15285
LJ           1.11768        -3.91308         3.45832
LJ          -5.52004         1.91481        -1.71792
LJ           5.19714        -6.39615         3.95183
LJ           -5.1397         2.66668        -3.63891
LJ           1.78551        -1.78259       -0.788151
LJ           6.19691         4.25399        0.177384
LJ           1.00568         2.28293        -6.33269
LJ           -5.7829         1.99062         3.74046
LJ          -1.97238        -2.99097         2.26182
LJ          -5.30944         4.87903         4.71108
LJ          -2.39722        0.341106        -5.86124
LJ           3.97058         1.38975       -0.925013
LJ           2.10817       -0.165114         4.34907
LJ          -6.03765        -5.75671        -6.23091
LJ          -1.57726         4.74456        -1.22873
LJ           3.51661        -3.98154        -2.86194
LJ           4.43337         -5.0103         1.24283
LJ           2.70225        -3.78486        -4.68598
LJ          -3.40793        -1.60599         4.68935
LJ            5.6118        -4.10971         2.66043
LJ           1.80769        -5.21116         1.20701
LJ          -4.49737         2.80313         3.81491
LJ           3.16332         -4.7816         4.54622
LJ          -4.61082       -0.808545        -5.49606
LJ          -4.36149        -5.76318         5.29792
LJ           -4.4303       -0.286379         4.79482
LJ           2.29304         2.39127       -0.435035
LJ          -6.24471        -1.96623        -0.14028
LJ          -1.51903        -1.63367         2.96904
LJ          0.304978        -1.79046         -1.0147
LJ          -6.15729        -1.59848         -1.6462
LJ           5.73179         6.17247        -3.08917
LJ           5.91817         4.17948        -1.88878
LJ           1.64131       -0.393089        -3.77218
LJ           2.53192        0.958627         5.78751
LJ           2.63606        -5.08018        -5.93306
LJ           4.41039         1.69679        0.758751
LJ           4.48326        -5.80254         2.07259
LJ          -2.90064        -4.93685          5.2141
LJ          -1.31206        -2.16954        -3.26211
LJ           5.27731         5.89663         2.13242
LJ           1.86999        -6.46126        -4.86359
LJ           4.93196         -3.1818        -4.53895
LJ          -2.35305         -4.3176        -2.90124
LJ          -2.35948        -4.62945        -1.68935
LJ         -0.822921        -4.95936        -2.98103
LJ           4.55837         2.15211         1.94378
LJ           3.60966        -2.29717        -3.17653
LJ           -4.9727        -2.38697        -1.00523
LJ          -6.28784        -4.70681        -1.56078
LJ          -1.31338         5.43165      -0.0284208
LJ          -5.10891        -6.12497        -4.44981
LJ           2.75232        -3.83228        0.978003
LJ          -4.92589        0.297792        -3.32014
LJ           1.49676        -3.36904        -1.83414
LJ           4.29658         6.32957         3.10873
LJ           1.28064         5.68075        0.604453
LJ           5.30624        -3.51387        -3.52032
LJ           3.58111         4.40753         4.86561
LJ           2.41212        -1.91333         3.68755
LJ            2.0387         3.28991        -2.33317
LJ            1.3778         4.54313       0.0721495
LJ          -5.82796        -3.32734        0.666142
LJ          -5.83277        -4.38027        -5.21379
LJ           3.08501         2.88838        -1.59099
