108
#Comment!
LJ           2.96718         1.58097        -4.91186
LJ          -4.76761         -4.8379        -3.07354
LJ           2.77362       -0.672242        -6.00341
LJ          -2.53378         4.81017         5.52227
LJ          -5.00714         -4.7219        0.823187
LJ          -3.41802         3.26905         6.03735
LJ          0.354605          1.3691        -2.61828
LJ           5.09663         4.78884        -4.27107
LJ          -1.32555        -1.97631        -2.54684
LJ           6.29099        -6.15231        -1.17117
LJ         -0.930822         3.74512        -1.75439
LJ           3.22769        -1.37874         3.03607
LJ           3.15814         -5.6675        -2.80948
LJ           -4.6772       -0.793507        -4.12843
LJ         -0.495731        -4.39136       -0.555613
LJ           6.38074        0.891752        -4.77675
LJ          -2.56989         4.79789        -2.34156
LJ          -2.01359        -4.02035       -0.203288
LJ          -4.02232        -2.33579         2.84087
LJ         -0.103576        -3.28061         1.92931
LJ           1.73994        -0.62823         6.03049
LJ          -3.72631        -3.00244         4.16066
LJ         -0.190127       -0.606464        -2.08475
LJ          0.530175      0.00557235          2.7388
LJ          -5.47583      -0.0424442        -1.23979
LJ           3.36533        -1.02868         -2.1568
LJ        -0.0580548         2.06328         6.26421
LJ           -4.0367         3.58507        -1.42814
LJ         -0.848705          -2.137         5.25065
LJ           3.04652        -3.24321        -6.05145
LJ          -5.96414         2.15219        -4.38388
LJ          -3.61021         2.64324         2.46632
LJ          -1.15284        -3.80768         2.14504
LJ            3.5587         1.53573         -4.0678
LJ           0.54234        -3.27038        -3.44555
LJ           5.93311         1.14096        0.393714
LJ          -4.73342         1.29659        -3.89872
LJ          -5.62295        -1.28791         -4.0255
LJ          -1.81479         6.07227         5.16667
LJ          -3.68076         1.66968         3.56304
LJ          -3.19441         -0.7209         5.11846
LJ           3.56963        -1.51703      -0.0904826
LJ           5.11149        -3.92901        -2.50463
LJ           6.29785        -6.14716        -6.22127
LJ         -0.218105        -1.98223        -0.23441
LJ           2.75858         4.78067         4.63974
LJ          -3.61492        -5.90796        -1.82558
LJ           1.05143        -4.32047         0.58574
LJ          -3.21029        -4.64312          4.3611
LJ           1.77579         5.36571         5.46359
LJ         0.0903068          3.3881        -2.69636
LJ          -3.71874        -1.61858        -4.14378
LJ            1.8784        -2.15912        -4.90962
LJ           2.79091        -5.96685        -4.14241
LJ           1.94748        0.613647          -4.211
LJ           5.67709        -3.52968        -1.65808
LJ          -5.60246        -1.66146          5.8499
LJ           2.08758        -5.30612        -4.99389
LJ         -0.708325        -5.49249         5.88249
LJ          -4.36962       -0.465391          3.1677
LJ           -2.9971         3.10305        -1.78448
LJ          -5.34369         5.06485        -4.51159
LJ          -3.32268        -1.08177        -1.39665
LJ          -5.62019         5.19077        -5.87078
LJ          -3.24829         4.89859        0.256827
LJ          -3.44006         -5.6033        -2.86657
LJ            1.7615      -0.0102008          2.8621
LJ          -1.96221       -0.247653        -4.41043
LJ           -3.2058       -0.925018         2.02024
LJ          -1.25205        0.571718       -0.678829
LJ           -6.2034         3.73162        -4.16355
LJ           2.90036        -2.58651        -1.02907
LJ          -1.81138         2.39866        -2.08534
LJ           4.02263        -2.54201       -0.174161
LJ          -3.63211        0.904112        -5.67875
LJ           6.46273         5.04458        -4.70188
LJ          -5.59091        -2.77553        0.904219
LJ           4.56962         -3.2927         6.31488
LJ          -4.69627         1.88478         5.93195
LJ           2.74057        -4.73699         5.41541
LJ          -1.82405        -5.50644        -3.17747
LJ           5.65709         1.40996         3.91737
LJ             4.379        -6.36041        -1.13481
LJ         0.0771798         2.25137        -5.03334
LJ          -2.75895         -5.9767         3.37092
LJ        -0.0492259        -2.34339         2.53727
LJ           1.34795        -5.39722         1.20602
LJ           6.16182        -4.62763        -1.38761
LJ           2.49799         1.65197        0.113639
LJ           5.15225         4.36892        -2.15006
LJ           1.50289       -0.501633         4.59183
LJ          -3.72433       -0.843667        -2.89995
LJ          -2.56886         3.89118        -4.62475
LJ           6.29154        -2.06845        -2.00812
LJ           -1.1172        -5.04837        -6.10541
LJ           6.30102          4.8669         6.41851
LJ           3.59698        -2.25402         6.06641
LJ           4.99023        0.624188         3.41675
LJ           2.52663        -5.66447        -5.80783
LJ           1.40081        -3.23614         2.81085
LJ         -0.589909         5.35418        0.731891
LJ          -1.52085       -0.551151         3.78276
LJ           5.45517        -2.63131        -2.33033
LJ          -2.89619        -4.57297        0.166187
LJ          -0.41225        -2.14628        -3.23056
LJ           3.14971        -4.63488         6.41922
LJ           5.91049       -0.101356         3.01642
LJ          -5.65351        -6.34452       -0.740355
