108
#Comment!
LJ          -4.67987       -0.428555       -0.301045
LJ          0.594298        -4.46293         0.78182
LJ           3.56332        -4.72761         2.48453
LJ           3.94491        -4.90207       -0.940958
LJ          -2.30582        -4.19842         4.13064
LJ           1.36432         2.88483         4.84215
LJ           4.32637          2.7673         5.38757
LJ          -6.26221        0.404057         2.59136
LJ          -2.94231        -1.86605       0.0391951
LJ           3.62089         6.15916        -3.24827
LJ          -0.34083        -1.39371        -3.43533
LJ         0.0608983        -3.85354        -5.03143
LJ          -4.06869        -2.00341        -1.66002
LJ          -4.42109        -2.57499          5.0771
LJ          -3.77923         5.04568        -6.33599
LJ          0.158223        -5.59942         5.35001
LJ           5.09877        -3.92299        -4.47002
LJ           5.80695         3.31108         5.58544
LJ          -6.06544         0.46144       -0.357109
LJ         -0.938281        -5.65724         0.20354
LJ            2.8796        -4.36015         5.09846
LJ          -4.33214         3.44304        -1.41535
LJ          -5.57887        -2.07684        -1.38085
LJ           4.29381         1.87185        -5.62872
LJ         0.0320659       -0.138803         6.24094
LJ          -5.25953        0.590018         4.18201
LJ          -1.52346        -1.17916        -2.66062
LJ          -3.86776        0.639188         4.72227
LJ          0.346605        -3.40424       0.0276126
LJ          -1.84176        -3.20947        -2.21628
LJ           1.25327          2.5625         5.90412
LJ          -6.02117        0.692662        -6.20491
LJ           4.68054        -2.91314        -3.21208
LJ          -5.92106        -2.76004       -0.831498
LJ           4.91918         6.11652         4.58362
LJ          -5.81342       -0.981182         4.40891
LJ           3.19308        0.482155         4.81825
LJ          -1.52844        -2.83704         3.98221
LJ          -5.03051         5.10025         1.18774
LJ         -0.750714         5.56039         2.95137
LJ          -1.59681         4.59046        -4.45863
LJ           3.40473         2.06291       -0.333171
LJ         -0.317877        -4.01951        -2.39561
LJ          -5.12945         4.67046         3.01323
LJ         0.0386971        -1.19868          1.0264
LJ         -0.155699          1.4934        -2.86198
LJ          -4.81827        -5.52708        -6.23374
LJ          -3.25394       -0.498619        -5.34011
LJ           2.32005        -5.64654        -0.35186
LJ          0.339962        -6.11639         3.74677
LJ           1.16318         3.10463        -3.75072
LJ          -5.91917         -3.9632         6.02141
LJ          -2.26931         4.28884         3.91687
LJ            4.9028         4.08267         3.55443
LJ          -3.61745         -1.8219         2.99578
LJ          0.901073        -4.82695          5.4903
LJ          -5.44863          5.2574         3.94504
LJ          0.644448         2.19808        -1.79609
LJ         -0.840311        -2.30241        -4.27676
LJ           3.75029          5.4027         3.95773
LJ          -3.44322         2.68786         1.29352
LJ          0.846188        0.742665        -4.16996
LJ          -4.74351        0.223706        -2.49671
LJ           3.11616         4.29107         3.93215
LJ          -1.25661         1.42226        -1.23057
LJ          -3.74758         1.26037        -3.77488
LJ          -2.13878       -0.971523        -3.73273
LJ           1.10261        -6.26249        0.326444
LJ          -3.72859         -3.5307        -2.58939
LJ          -6.00673        -2.66296        -5.42609
LJ           4.54177        -2.00909         1.78412
LJ           -6.3649       -0.332479         -1.2897
LJ           1.84549         -4.7813       0.0863493
LJ          -4.99635        -4.21062         6.29951
LJ          -3.74395         -2.4895         6.31796
LJ          0.394774         0.67994         3.49048
LJ          -4.65746         4.61144        -5.76408
LJ           5.51609        -4.17156        -3.11547
LJ          -3.43421        -6.30463        0.274672
LJ          -3.56523        -4.98773        -5.70687
LJ          -1.23615          1.8943        -5.10272
LJ          -6.10534         4.55366         4.49558
LJ          -5.02129        -4.38808       -0.796348
LJ          -4.42172         3.79591         4.67253
LJ           0.50991        -2.52768        -1.15933
LJ          -5.00501         2.38078         4.25516
LJ            1.8987        -3.80741        0.713486
LJ          -2.74805        -5.21356         2.93922
LJ           2.30365        -5.00311        -1.74652
LJ           3.68627        -2.03004        -5.55527
LJ            3.2657        -2.19746        0.930573
LJ          0.702297        -5.16296        -4.28649
LJ           2.92866        -5.37078         3.39324
LJ           -1.6177        -6.43096        -6.08906
LJ          -3.95349        -1.15997         2.32801
LJ          -4.53689         4.79022        -1.50497
LJ          -2.17524        -3.22732       -0.613718
LJ           1.83682        -5.56416        -3.68137
LJ          -1.72616      -0.0282736        -2.95606
LJ          -4.95179         4.70768       -0.529492
LJ          -2.27089        -5.55022         5.98648
LJ          0.761867         6.34271         5.72117
LJ          -0.28226        -2.93239         3.80145
LJ           6.45895        0.626824          5.4919
LJ          -4.03343        -4.98133        -3.05461
LJ            1.8252         5.27207          -3.263
LJ          -4.87935        -5.66906       -0.571617
LJ          -4.05152         6.24487        -3.59342
