108
#Comment!
LJ          -5.01276         1.20368       -0.397678
LJ          -3.93084        -3.26235        -5.41037
LJ            6.3025         3.02181        -2.78525
LJ           1.79552         5.93054         3.08772
LJ           1.32541         2.83255         1.91855
LJ            2.9794        0.859934         1.74588
LJ          -1.78996         4.27344         1.97239
LJ          -5.20889         2.37978         1.88572
LJ            5.2961         2.99434        -4.61535
LJ           1.67416        -2.52427         5.95619
LJ          -3.79799        0.506948         5.84799
LJ          -6.13761         6.30304         -3.9624
LJ         -0.848586         5.50696          3.8325
LJ           -3.6588         5.01878        -4.64223
LJ           1.60331         2.47512        -3.36726
LJ          -4.06433        -1.98262         2.94672
LJ          -4.34341        -5.77403         3.89834
LJ          -4.05983        0.516452         2.02466
LJ          0.375901        -6.44413        -4.72668
LJ           6.00107        -2.31786         2.85057
LJ           1.70744        -5.72536         5.45688
LJ          -4.11345         5.20295        -3.15605
LJ           5.97475         5.31022        -2.69785
LJ           3.04322         4.17336       -0.926464
LJ            3.8246         5.53679         1.91899
LJ          -1.18568         0.43759        -2.29579
LJ          -2.13012         6.27827         3.50591
LJ            6.3494         2.47296        0.214671
LJ           2.87222        -4.66674         1.25942
LJ          -4.24201         1.92735        -2.60617
LJ          -1.82863        0.822302         4.61644
LJ        -0.0672627        0.309626         3.91504
LJ           -3.3478         4.21119         3.57729
LJ          0.620296        -2.99408        -4.24488
LJ           4.72511         2.23925        -3.20323
LJ          -1.11999         1.86894         1.55397
LJ          -3.90891        -4.49181        -6.20869
LJ          -6.08806        -1.16539         3.09186
LJ          -3.13122         6.14927         3.87342
LJ          -2.72137         -2.6707         5.92846
LJ         -0.325984      -0.0757342        -1.97106
LJ          -5.70765         1.86676       -0.282839
LJ            4.8473          4.5118         5.15372
LJ          0.586016        -3.68181          -6.375
LJ           5.42978         2.23375        -1.61534
LJ           5.06454        -5.26566         3.53482
LJ           5.66196        0.982084        0.290373
LJ          -1.64195        -3.09757       -0.821851
LJ           2.92043        -2.54001        -2.88021
LJ         -0.583489        -1.41717         -5.1523
LJ           6.27875         1.39936        -4.10451
LJ          -1.22872        -4.76348         2.19178
LJ            5.3016        -3.78525        -4.48361
LJ           1.42233         1.26608         2.98025
LJ           1.53251        0.436383       -0.852188
LJ         -0.724612          1.4439         3.20586
LJ          -6.10727         5.46206         3.70451
LJ          -1.39558         1.98245        -3.30869
LJ           3.26117        -4.99249        -2.82312
LJ           4.75119        -6.19601         2.25746
LJ           2.10707         5.91583         6.36495
LJ           5.01515        -1.73143          5.2307
LJ           -4.9104        -6.34512        -4.81827
LJ            3.4967        -4.06893         0.42835
LJ          -2.51903         1.33383        0.797076
LJ         -0.407944         -4.5443        0.723811
LJ          -2.55564         1.70235         4.89311
LJ          -6.18214        -4.79814          -3.568
LJ          -4.68552         2.49091         4.74295
LJ          -1.40043        -1.08383        -3.02889
LJ          -1.47055        -3.25577         3.76103
LJ         -0.531177        -1.47169         4.85775
LJ           2.64136         1.21477        -4.54951
LJ           5.40633        -3.57738        -2.58568
LJ           3.13224         2.49981        -3.77046
LJ          -2.71581         4.45413        -3.08578
LJ        0.00592779         2.32153        -1.17927
LJ          -4.51591       -0.741566         5.62392
LJ           3.69873        -2.21722         5.48794
LJ           5.88527         5.54396         4.61315
LJ           4.53587        -3.28101          4.3931
LJ          -4.57768        -4.82567         4.41662
LJ         -0.170288        -1.17629        -3.56408
LJ          -1.54945         5.45864         2.89767
LJ          -5.98589        -2.29221         5.85849
LJ           4.95543       0.0859871        -1.84554
LJ         -0.732972        -2.32568        -6.37312
LJ          -4.66502        -5.30843        -5.55292
LJ           0.82487         5.75958         4.02349
LJ          -2.99151        -2.31856          2.3113
LJ           4.15781        -3.85615        -2.87834
LJ          -6.28394        -4.67099         1.35636
LJ          -6.03089        -5.04627         -1.0127
LJ           2.44659        -6.05762        0.622725
LJ          -2.39934         4.13907          5.9909
LJ           5.61704        -3.06317         5.73628
LJ          -4.94389        -2.03614        -1.01458
LJ           0.72874         -2.8533          2.3368
LJ           5.47101         -6.1972         3.28183
LJ           1.39907         3.49756         4.40694
LJ           3.52232       -0.462909        -2.76852
LJ            3.1819         6.09389         3.97321
LJ         -0.989088       -0.954456        0.399766
LJ           4.16724         3.93401        -1.85168
LJ          0.824053        -5.64752         1.09775
LJ          -5.02712        -2.83914         2.37584
LJ           -4.9231         5.40288        -5.98444
LJ          0.868767         4.68577        -2.14688
