108
#Comment!
LJ           1.88277        -3.73933         2.16413
LJ           -1.3163         4.75494         -5.7756
LJ           -5.3436         4.26506        -4.04054
LJ           1.28228       -0.816637         -4.9939
LJ          -5.78987         3.12418         1.52846
LJ          -3.31756       -0.174587        -2.73443
LJ           3.39027       0.0175632        -3.33469
LJ          -3.24109         6.42045        0.855345
LJ           1.18421         2.73138         -1.0981
LJ          -1.06381         1.58207        -4.78834
LJ          -1.46644          1.5433         6.32615
LJ           4.56222         4.81642       -0.550011
LJ           1.73309        -5.06726         -3.7283
LJ           1.68126         6.39668        -2.19825
LJ         -0.242968         1.51447        -5.65833
LJ           4.90694        -1.84792        -6.34892
LJ           6.00199        -3.04001        -2.51813
LJ          0.862308          -2.732        0.662286
LJ           3.06894        -2.72507        0.739474
LJ          -2.24424       -0.510205         2.49203
LJ          -2.11277        -1.38914        -5.75645
LJ          -5.94292        -4.08012        -1.93615
LJ           5.44529          2.7535         3.68837
LJ           3.06948        -3.46323         5.27776
LJ           4.80917         2.96688        -5.22328
LJ           5.53178         5.53842          1.2696
LJ          -6.09102        -1.48269         6.26798
LJ          -1.16595         -4.3455        -5.49522
LJ          -2.45587        -5.11443         2.72121
LJ          0.896972         2.24881         4.11701
LJ           2.75831        -1.02862        -3.09643
LJ           2.06257         1.75017         1.80621
LJ          -1.82692         4.20895        -1.57581
LJ          -1.74101         5.25883         5.07428
LJ          -1.82071        -6.26902         2.62649
LJ          0.458813        -6.32618         5.49631
LJ         -0.931692         1.22548       -0.625275
LJ          -2.99759        -1.21977        -6.34001
LJ          -3.86285        -5.27728         1.34054
LJ          -4.06847        -1.14044        -6.06363
LJ          -2.34957        -4.76776         5.75896
LJ          -2.28835         1.41914        -0.22206
LJ         -0.257683        0.398196        -3.63804
LJ            5.3839        -5.26649         4.06161
LJ          -0.31478         1.90469        -3.64085
LJ          -6.38821         5.98419         1.78439
LJ         -0.620655        -1.52066        -5.47127
LJ          -5.98281        -4.47097       -0.481473
LJ         -0.656739        -3.72056          4.0773
LJ        -0.0148172      0.00967183         2.71579
LJ           3.42318       -0.489697         1.65661
LJ          -4.14146        -3.39297         1.33089
LJ           5.41877         2.18448        -5.61211
LJ          -6.36241        -3.39992        0.712774
LJ           6.21114        0.691574       -0.425472
LJ           3.40639      -0.0821302        -5.35856
LJ           6.27465        -6.03142         -4.9448
LJ          0.194145        -4.61412         -1.6694
LJ           4.10067          5.6628        -2.69678
LJ           5.78853         5.21059         3.06907
LJ           4.96613         1.82161        -3.85712
LJ           1.11394        -5.65089         2.43898
LJ           1.64869        -4.06355        -3.08755
LJ           -1.0517        -5.67969       -0.185481
LJ          -2.01306         4.45954         4.38005
LJ          -3.21437        -4.32454        -4.76694
LJ           4.94754        -3.11554        -5.47518
LJ          -1.49724         3.28058         1.14083
LJ          -2.23834        -2.08572         3.27148
LJ         -0.834032         5.47646          5.1307
LJ           2.67109        0.843975         -4.7628
LJ          -2.58078        -3.26899         1.97806
LJ           4.97741        0.345879          2.2878
LJ          -6.04832         2.99886        -4.44293
LJ          -3.80627        -1.45117        -3.11777
LJ          0.517207         3.47638        -2.09597
LJ         -0.750815        -4.17876         5.18355
LJ          -1.28946       -0.050342        -3.22676
LJ            2.6549         1.78624        -5.52412
LJ           1.15861       -0.840204        -1.44533
LJ           5.62798        -5.83607       -0.582656
LJ         -0.287234        -5.29887        -5.33781
LJ          -2.51981        -4.65345        -1.62171
LJ           2.62054         2.49916       -0.541153
LJ          -6.19227         1.34283         2.35092
LJ          -6.27584         5.25082        -5.83924
LJ          -2.25853        -3.17218        -1.37639
LJ          -2.47435         -4.0243         2.80978
LJ           1.10562          4.4375       -0.176865
LJ           3.19454         1.79338         1.38212
LJ           4.49279         -1.3122        -5.22158
LJ          -3.53455         1.88561        -2.26038
LJ         -0.881616        -3.05853         3.02256
LJ          -6.10084         3.52211         3.56433
LJ           5.29817        -2.63671       -0.753776
LJ          -5.63357        -3.40326         3.03876
LJ           3.56472         3.32469        -4.65028
LJ           1.62787        -1.63583        -2.58895
LJ          -2.12801        -6.30423        -5.33387
LJ          0.494652         5.07129        -2.61274
LJ           5.98803         5.56402          6.1433
LJ           3.28181         3.79552        -6.27669
LJ           3.44878        -1.53243         1.78381
LJ          0.746288        -1.48778       -0.438289
LJ          -3.59472         3.58645        -4.25462
LJ          -4.42232        -5.89588         3.70485
LJ           5.86722          1.6891        -1.28296
LJ           5.17124         3.81915        0.385978
