108
#Comment!
LJ           2.91479        -5.39597         1.08391
LJ          0.516352         3.42803         -5.3477
LJ          -4.31047         3.99278         6.34386
LJ          -3.27067         2.41256         4.80853
LJ          -2.72068        -4.69955        -5.39442
LJ         -0.620236         3.04392        -4.94785
LJ           3.39502        -1.43506        -2.60641
LJ           -5.2161         4.32403         1.17053
LJ          -5.35065         5.04501       -0.881062
LJ           5.53455       -0.306764         3.77312
LJ          0.300372         1.38872        -4.76887
LJ           4.97666         6.19174         0.86194
LJ          -2.45164        -5.70456        -4.38164
LJ         0.0613471        -5.42178        -1.72399
LJ           2.50198        -1.37175        -6.45949
LJ           6.14475        -5.33112         5.49801
LJ           1.94495        -2.14348          4.4058
LJ         -0.778668        -3.51193        0.122313
LJ           4.42818        0.414936         3.51285
LJ         -0.859571        -1.34319         2.25187
LJ          -1.60034         5.17131         6.31151
LJ          -4.37407         6.37595         -3.3749
LJ          -4.21222         6.43928         1.07752
LJ           4.64777        -3.15188         1.88768
LJ           6.11167        0.298557        -2.51435
LJ           4.98956         6.35451        -1.95876
LJ           3.08278         -4.8338         3.54824
LJ           1.88839        -3.03914         4.98012
LJ           4.70194        -5.62632         4.66702
LJ           2.64773         4.16789         5.82468
LJ         -0.284567        0.830309        -2.66584
LJ          0.633392         2.22159         2.19815
LJ         -0.538077          4.6246        -5.52797
LJ           -3.5137        -4.39352         2.88117
LJ          0.246698         3.62765        -1.65708
LJ           2.48822         5.93876         -1.9897
LJ           -3.9338         5.19231         2.43881
LJ          -3.09245       -0.593998        -5.68967
LJ          -4.57124       -0.468261         5.52957
LJ          -4.44354        0.459677        -3.64806
LJ          -6.40012         0.85628        -3.97195
LJ         -0.629833         2.91456         3.45654
LJ         -0.693168        -5.09771        -2.22585
LJ          -2.00798        -5.66726        -5.68722
LJ         -0.449593        -4.86804          4.5465
LJ          -3.58869          5.1127        0.762718
LJ            2.1625        -5.63348        -4.59293
LJ          -2.77885         5.00422        -2.06282
LJ           4.51595         5.82367         5.60661
LJ           1.64637         4.92947        -2.31492
LJ           3.17643        -1.84402         1.68049
LJ          -4.69507        -5.82508         2.35237
LJ           4.16395       -0.143111         0.69106
LJ           4.53068         6.23111       -0.229698
LJ          -5.52032      -0.0368208        -1.37253
LJ           3.04878       -0.138081        -3.80038
LJ           5.32222        -6.13499        -4.70438
LJ           2.51376        -2.36251        -2.69529
LJ           3.55697         2.30617        -4.18596
LJ          -4.93748         4.63245         5.66882
LJ          -5.31847         3.99731       -0.967112
LJ           4.78551         5.04876       -0.125344
LJ          -2.57585         6.08771        -1.61892
LJ          -3.22895        -4.33999        -1.74286
LJ         -0.319818         4.31122         5.20122
LJ           2.38926        -5.25073        -2.18181
LJ           4.66975        -3.98619         3.52147
LJ           -1.9767         3.47263        -5.90551
LJ          -3.05916        -1.31984        -1.37543
LJ           2.24905         6.00588        -5.10203
LJ          0.258615         1.79053        -3.07449
LJ          -5.88694        -5.56793         2.80737
LJ           1.75734         3.84418          4.8946
LJ          -5.31717         -6.1492         5.76167
LJ          -3.27585        -2.13474        -4.24499
LJ          -2.97693         4.88495        -3.69039
LJ          -6.30141         5.16419         3.19941
LJ         -0.498219        -1.88409        -2.68627
LJ           4.33402         1.22857          2.7309
LJ          -4.97084         -2.7163        -4.07989
LJ          -4.76648        -5.22961        -2.61754
LJ          0.240976        -3.59921         -5.4678
LJ          -2.43883         -5.7429        0.709493
LJ           1.76399         2.28526        0.251895
LJ         -0.998943        -2.08706        -5.44481
LJ          -4.95642         2.39306        -6.27982
LJ          -1.93937        -2.42923        -1.57186
LJ          -4.24234        -5.44241        -6.09037
LJ           2.73495         1.18477        0.644526
LJ           6.17902        0.689267         3.45459
LJ           4.18207        0.574112        -1.88293
LJ          -1.72337         5.04756        -3.64817
LJ         -0.616604        -3.02414        -5.22566
LJ           1.76173         1.35848         4.93215
LJ           5.70859         0.77629          1.9539
LJ          -3.00999         6.25586        -4.55233
LJ           2.83732         2.75108        -4.78098
LJ          0.698052         1.68042          -1.425
LJ           6.21238        -5.55262        -1.66308
LJ         -0.878857         3.82687        -3.64213
LJ          -5.45757         1.32894        -6.44489
LJ           2.59257         5.43048         5.06687
LJ          -1.39596        -2.98123         1.02854
LJ           -1.6832         -6.4388        0.447295
LJ            5.3196         5.75598        -4.71528
LJ          -2.97846        -6.42156         4.85973
LJ           5.01599         5.59781         2.39406
LJ           6.15101         5.07384        0.120956
