108
#Comment!
LJ           3.26103         3.49478        -3.46273
LJ          -4.59053        -2.17079        -6.18715
LJ           4.07169         2.55093        -1.55876
LJ          -5.41296       0.0164142         5.67365
LJ         -0.594889        -4.87519         5.38567
LJ           3.80163         6.05821         3.23274
LJ          -4.40152         6.24717        0.130038
LJ           3.28906          3.9944         4.10415
LJ           1.71464         4.58323         3.16508
LJ          0.166957        -2.13029        -2.22682
LJ          -5.07672        -5.23032        -3.54546
LJ          -5.49856         4.00513        -3.31904
LJ           6.39021        0.669019         6.37953
LJ           2.95704         3.76553         5.55168
LJ          -5.11582          3.1045        -3.11253
LJ          -1.43508        -5.69092         3.55335
LJ          0.355641        -6.09654         3.90524
LJ           5.99525         4.33512         4.28428
LJ           1.18141         5.73889         2.72269
LJ           3.41773        -2.04166         -4.9854
LJ           2.28503         6.37721          3.4897
LJ           -1.5797         5.80201        -5.30693
LJ            3.4439        -4.90668       -0.168177
LJ           4.82795        0.827833       -0.537438
LJ           4.34254         6.18244         1.73335
LJ          -3.75648       -0.530571        -5.74284
LJ         -0.805513        -2.77124        -2.21965
LJ         -0.747998          2.6043         3.97138
LJ          -5.04872        -2.53956         1.92907
LJ          0.837939        0.322335         2.83751
LJ           2.67427         3.28549        -1.46995
LJ          0.645713         1.63471         2.43937
LJ           2.27116          3.5539         1.30803
LJ           5.83216         4.91702        -2.95169
LJ          0.541204         -5.6597        -1.02876
LJ          -1.74432        -3.07962       -0.120623
LJ          -6.23763        0.890659         1.06941
LJ          -5.84983          3.4475       -0.910899
LJ          -4.56122         -5.4656       -0.572949
LJ          -1.01674        -4.48308        -3.58914
LJ          -2.31148        -5.00187        -3.61918
LJ           2.62759         3.41306        -5.22383
LJ          -5.61798         3.14979         2.16364
LJ           3.90212         4.42926         5.80285
LJ          -5.00357         4.45629         2.13313
LJ           5.92832        -4.16144         2.05303
LJ           4.59291        -1.25888          -2.162
LJ          -5.31584        -6.17121        -1.11913
LJ          -2.47204         6.37331          -4.766
LJ          -2.31702         1.08947       -0.950473
LJ           1.01012       -0.520507         2.11497
LJ           5.24005        -2.70314       -0.841406
LJ           1.16559        -5.06708          3.8525
LJ           2.14361         1.52421         2.06214
LJ          -3.28079         -1.0622       -0.760569
LJ         -0.541839         4.65939        -1.58523
LJ          -2.78568       -0.796071         0.29674
LJ            2.6781        0.833084        -3.17457
LJ          -5.45543          5.8742       -0.336884
LJ           5.20236         5.44232         5.56822
LJ           5.63181        -5.60159        -3.75137
LJ         -0.750271        0.483709            4.87
LJ          -2.58557        0.118695         3.64827
LJ          -5.01044        -3.85937        -1.50589
LJ          0.241417        -0.61561        -4.45542
LJ          -6.06944        -3.17652        -5.02611
LJ          -3.43632        -5.99385       -0.602762
LJ           3.04597        0.643324         2.44635
LJ           5.76703         5.98417         1.51656
LJ           5.50546        -4.48655         3.19201
LJ            5.9719        -4.64672         -4.2278
LJ         -0.696253        -4.56496        -5.49191
LJ           3.01131        -3.74874       -0.548226
LJ           5.35349         -2.5528         4.73507
LJ            6.0515         6.15238      -0.0883235
LJ           2.75449        -5.89595        -6.37255
LJ         -0.153623         6.10597         1.46797
LJ             3.024         -2.8365        -3.97165
LJ          -1.01913        -3.00833         2.92379
LJ          -3.46052         3.17591        0.953573
LJ          0.940669         4.64882         5.45212
LJ          -6.44134         2.92801        -4.79796
LJ        -0.0916832         3.70349        -5.57542
LJ           2.92323         3.80623        -2.26722
LJ            3.7437         2.30526         -4.6964
LJ           6.36021         2.74348       -0.278858
LJ          -4.62736        -3.65694          4.8237
LJ          -6.05572         2.84867        -6.42701
LJ          0.180454          4.8481        -5.97386
LJ           3.94231         4.97019         4.45457
LJ          -1.28225         5.34164        -1.06139
LJ          -6.34999        -5.61441         2.55364
LJ           3.76585        -4.46828        0.864014
LJ          -4.69644        -4.18117         2.87212
LJ           -1.7403         2.19944         4.60082
LJ            -4.293         -4.4379        -3.68793
LJ          -5.40519        -6.07572         2.69667
LJ           -0.6147        -3.76499        -4.54744
LJ          -5.68351        -2.68482         5.53335
LJ          0.861921        0.199274         5.35601
LJ           2.11036         5.33686        -3.30417
LJ           1.19429         -2.6699         1.78219
LJ          -3.34114        0.444652        -3.72037
LJ           2.78641         2.23976         2.76659
LJ          0.246143       -0.491134         1.15089
LJ          0.760533        -0.64212         3.49866
LJ          0.606134         2.48433        -6.03769
LJ          -3.19543        -3.42318        -1.09817
