108
#Comment!
LJ           -4.4349       -0.309926       -0.443272
LJ          0.604042        -3.96334        0.729023
LJ           3.15494        -4.45169         2.12611
LJ           3.68271        -4.17835         -1.2555
LJ          -2.00634        -3.98622         4.28985
LJ           1.69689         2.51528         4.64186
LJ           4.23102         2.78575         4.90673
LJ           6.19824       -0.268274         2.27679
LJ          -2.82057        -1.52696        0.969653
LJ           2.51561         6.29736        -2.43012
LJ         -0.687787        -1.51544        -2.41762
LJ        -0.0491478        -3.99763        -4.42532
LJ          -3.64657        -1.25721        -1.50233
LJ          -4.69815        -2.57611         4.79513
LJ          -3.69696         4.38994         5.91297
LJ          0.320414        -4.99924         5.19688
LJ           4.55955        -4.00563        -4.32893
LJ           6.18688         3.03376         5.80821
LJ          -5.07954        0.695515       -0.133838
LJ         -0.762511        -5.23397        0.345843
LJ           1.94182        -4.07613         5.47036
LJ          -4.17193         3.02311        -1.83215
LJ          -5.64083        -1.70926        -1.84138
LJ           4.13871         1.85963        -5.84313
LJ         -0.653783       -0.956184         6.13703
LJ          -5.46553        0.724378         3.97424
LJ          -2.07492        -1.72655        -1.51062
LJ          -3.74763        0.126379          5.0992
LJ         -0.488244        -3.49931       -0.450383
LJ           -1.6019        -3.17815        -1.75855
LJ           1.58764         2.34614         5.78421
LJ          -6.00233         1.20091         6.28474
LJ           4.94471        -2.74661        -3.47355
LJ          -5.93057        -3.41824       -0.799404
LJ           4.96653         5.61062         4.16808
LJ          -5.63944       -0.702937          4.8218
LJ           3.52517        0.794326         4.57734
LJ          -1.25053        -2.65788         3.85687
LJ          -5.07809         5.45415         1.13564
LJ         -0.862352        -6.11113         2.85736
LJ          -1.52461         3.68848        -5.45449
LJ           4.26403         2.35483       -0.273039
LJ          -0.15912        -4.46757        -2.08991
LJ          -4.69172         5.07997         2.84968
LJ          0.479946        -1.27406         0.11006
LJ           0.17494         1.21756        -2.92655
LJ          -4.04374        -5.33844        -6.43106
LJ          -2.60668       -0.455312        -5.76046
LJ             2.857        -5.80637       -0.786102
LJ         -0.502437        -6.01725         3.89964
LJ           1.67359         3.35421        -4.38251
LJ          -6.10728        -3.59214        -6.28013
LJ          -2.32798         4.68309         4.51689
LJ           5.15329         4.86589         3.52357
LJ          -3.29382        -2.23713         2.92448
LJ          0.521445        -3.87313         5.07382
LJ          -5.00145          5.2563         4.30664
LJ          0.667946          2.4705        -2.13577
LJ         -0.318003        -2.36475          -4.979
LJ           3.89066         5.44327         4.11729
LJ           -4.6398         2.59446         1.20575
LJ          0.530285       -0.207134        -4.42231
LJ            -4.881       -0.313031        -2.89142
LJ           3.41881         4.29376         3.89031
LJ          -1.41293         1.44004        -1.36188
LJ           -4.3002         1.05628        -3.33488
LJ          -1.46971        -1.67428         -3.0127
LJ          0.619862         6.17707        0.615189
LJ          -4.73817        -3.47153        -1.93743
LJ           6.45527        -3.00505        -5.56323
LJ           4.89321        -1.87767         1.73465
LJ            6.4298       -0.410118        -1.36359
LJ           2.35464         -4.9401        0.722284
LJ          -4.73878        -4.17543        -5.90894
LJ          -3.60939        -1.90994        -6.34155
LJ          0.878583         1.21185         3.51897
LJ          -4.55153         4.36542        -6.14119
LJ            5.7035        -3.88581        -3.13065
LJ          -3.14239          5.9023        0.715449
LJ           -4.6152         -4.4494        -4.87479
LJ          -1.10226         2.07859        -4.27184
LJ          -6.26208         4.70313         3.86907
LJ          -4.54551        -5.34112       -0.947642
LJ          -3.95427         3.76285         5.30283
LJ            1.1279        -2.11663        -1.18692
LJ          -4.91809         2.39374         3.94309
LJ           1.94224        -3.55609         1.64067
LJ          -2.36557         -5.5025         3.21801
LJ           1.41385        -4.57591        -1.33322
LJ           3.28508        -2.05187        -5.40463
LJ           3.82283        -1.67201         1.09004
LJ          0.373593        -5.20285         -4.7996
LJ           1.98873        -4.91886         2.54893
LJ          -1.61558         6.28333         -5.6349
LJ          -3.76196       -0.758719          2.3704
LJ          -4.56298         4.78452        -1.82221
LJ          -2.61899        -3.22074       -0.530359
LJ            1.7586        -5.75883        -3.96139
LJ          -1.90944       0.0172472        -2.82514
LJ          -4.81614         4.98346       -0.582622
LJ           -1.7402        -6.19825         6.28716
LJ          0.863262        -6.24961         5.71808
LJ         -0.388011         -3.3707         3.79579
LJ           6.27567         1.08293         5.09058
LJ          -4.05242        -5.79047        -4.01015
LJ           1.92128         5.14164        -3.31736
LJ          -5.52095        -6.23476        -1.22624
LJ          -4.25342         5.14089        -3.75474
