108
#Comment!
LJ           3.06368        -4.81205         2.11008
LJ        0.00315286         3.50517        -5.42383
LJ          -4.39003         4.24144         -5.9683
LJ          -2.31977         1.98709         5.29725
LJ          -2.94995        -5.39686        -4.00596
LJ          -1.07322           2.466         -4.6009
LJ           2.97255        -1.25221        -2.99778
LJ          -4.89231         4.63346        0.623525
LJ           6.34822         4.69339       -0.904983
LJ           4.64109      -0.0130065         4.97232
LJ       -0.00592209         1.38443        -5.11999
LJ           5.12915          5.7595        0.573039
LJ          -1.69384        -5.84633        -4.29179
LJ          0.623334         -6.1858         -2.2315
LJ           2.04157       -0.639545        -6.26072
LJ           5.91794        -4.64613         5.52938
LJ           2.73982        -2.30294         5.54196
LJ         -0.809025         -3.3626        0.107489
LJ           4.47626       -0.417519         2.87975
LJ          -1.12425         -1.2007         2.32203
LJ          -1.77793         3.86752         6.45029
LJ          -4.61396        -5.83308        -2.98949
LJ          -5.30948         5.55608         1.52639
LJ            4.0152        -2.74679         2.29145
LJ            5.6696        0.666222        -2.92764
LJ           5.14594          6.2895        -1.48683
LJ            3.3778           -4.49         3.15003
LJ           1.26116        -3.98973         5.77925
LJ           5.64147        -5.07065         4.45302
LJ           2.70813         4.10777         5.80132
LJ          0.542816        0.768657         -2.3407
LJ          0.912795         2.11366         2.15048
LJ          -0.79962         4.80784        -4.88582
LJ          -3.11702         -4.8296         3.47631
LJ         -0.220758         4.22804       -0.801422
LJ           1.82493         6.06914        -2.94146
LJ          -3.30285          4.4189         1.88473
LJ          -3.03794        -0.71674         -5.8746
LJ          -4.53866        -1.33618         4.79186
LJ          -4.48931        0.149372         -4.1383
LJ          -5.59058       -0.183946        -4.55713
LJ         -0.983064         2.55106         2.80717
LJ         -0.539696        -3.99094        -2.61804
LJ          -3.14354          -5.735        -6.36043
LJ         -0.163211        -5.36419         5.47535
LJ          -3.94515          5.4657         1.04048
LJ           1.62351        -4.91254        -5.25197
LJ          -2.92646         5.36103        -1.85781
LJ           4.06625         6.02623         6.08819
LJ           1.33534          4.3968        -1.29804
LJ           3.37315        -1.99432         1.93243
LJ          -4.66011        -5.38166         1.85259
LJ           4.13605        0.286406         1.80573
LJ           4.89586        -5.85848      -0.0127223
LJ          -5.73508        0.090869        -1.18342
LJ           3.19174       -0.118108        -4.17683
LJ           5.48962        -6.14407         -4.7371
LJ           2.22444        -2.61931        -2.47848
LJ           3.79456         2.91104        -3.84945
LJ          -5.28348         4.53973         5.51813
LJ          -5.77227         3.50804        -1.59852
LJ           3.84383         5.36423        0.330712
LJ          -1.66802         -6.4201        -2.17877
LJ          -2.80241        -4.36536        -1.75739
LJ         -0.600022         4.37788         5.01885
LJ           1.31464        -4.86872        -2.63649
LJ           4.89912        -4.35659         4.37039
LJ          -1.81744         3.00066         5.80998
LJ          -2.83954        -1.45925       -0.458715
LJ           1.77595         5.91728        -5.61577
LJ          0.658112         1.64537        -3.03387
LJ          -5.14035        -5.00541         2.78824
LJ           2.37977         3.45582         4.24811
LJ          -5.58413         6.23856         6.38052
LJ          -3.26782        -1.79408        -4.19272
LJ          -2.61721         4.62897        -3.60443
LJ          -5.31727         5.84463         3.37778
LJ         -0.666908        -1.41954        -2.79791
LJ           3.93277         1.24388         3.61955
LJ          -3.87493        -2.55652        -3.35858
LJ          -5.10386        -5.29396         -2.2027
LJ           0.15479        -4.03023        -5.08621
LJ          -2.56665        -5.50808        0.367287
LJ           1.66752         1.89135       -0.534101
LJ          0.507424        -1.45324         6.43617
LJ          -5.10432         3.01603         6.40785
LJ          -2.30428        -3.33024        -1.62388
LJ           -3.8132        -4.99551         5.81914
LJ           2.55533         1.81177        0.610571
LJ           5.67313        0.810744         3.12509
LJ           4.48706        0.370636        -2.54241
LJ          -1.83708         4.40347        -2.62462
LJ         -0.773449        -2.97405        -6.17778
LJ             2.839         1.89332         4.90994
LJ           5.61703       0.0639958         1.48083
LJ          -3.47919        -5.83089        -5.15126
LJ           2.56795         3.41581        -4.49388
LJ          0.300293         2.10274        -2.16738
LJ          -6.11646        -5.95432        -2.53573
LJ         -0.466302          3.1888         -2.9183
LJ          -5.91428         2.14111         6.33534
LJ           3.41789         4.98323         5.89576
LJ         -0.477662        -2.78125         1.14243
LJ         -0.797271        -5.45913        0.440886
LJ           4.48622         5.39708        -6.21285
LJ          -3.25445         6.33889          4.7736
LJ           5.30809         4.80591         1.99553
LJ           5.83996         4.97181         0.16112
