108
#Comment!
LJ           1.56955        -3.46377         2.10339
LJ          -1.54296         5.15713        -5.79184
LJ          -5.78256          3.8769        -3.90438
LJ           2.21854        -1.23929        -4.18533
LJ           6.25508         1.88602         2.93461
LJ          -3.46611       0.0106446        -2.12979
LJ           3.87563       -0.212022        -3.08042
LJ          -2.47266         6.24832         1.14682
LJ        0.00369519          2.2116        -1.07189
LJ          -2.43969         2.86893         -5.3694
LJ          -1.61484         1.48934         6.07492
LJ           4.70414         4.40101       -0.612475
LJ           2.70937        -4.48253        -3.62423
LJ           1.52754        -6.03583         -1.7176
LJ          -1.20082         1.84724        -5.22506
LJ           4.79101        -1.70457         6.15732
LJ          -6.44216        -2.70414        -1.37051
LJ           1.68353        -2.42205        0.647696
LJ           2.37516         -3.1608        0.438654
LJ          -2.48333       -0.335308         2.59113
LJ          -1.84457        -2.72776        -5.45215
LJ          -6.09726        -4.28998         -1.3147
LJ           5.70896          2.8312         4.43425
LJ           2.87061        -3.64073           6.016
LJ           4.32989           3.597        -5.81451
LJ           4.84344          4.9684         1.45898
LJ          -5.22235       -0.785089        -5.79238
LJ            -1.664        -4.12571         -5.1157
LJ           -1.2324        -4.85817         2.25515
LJ           0.37516         1.71443         3.65323
LJ           3.72009        -1.29552        -3.60352
LJ           1.93996         1.58568         1.93002
LJ          -1.96114         3.82991       -0.631564
LJ          -2.69702         4.53521         5.43802
LJ          -2.25039        -5.74217         3.51664
LJ          0.549918        -6.41391         4.57557
LJ         -0.556886        0.340058        -1.04264
LJ          -2.87341        -1.35841         6.27742
LJ          -3.81577        -5.71996        0.336372
LJ          -4.32192         -1.4458        -6.42988
LJ          -1.48534        -5.85584         5.11941
LJ          -2.35119          1.2794         -1.1455
LJ        -0.0789704       -0.579215        -3.38059
LJ            4.4053        -5.06498         3.46232
LJ         -0.722858         1.59072        -2.72498
LJ          -6.41704          6.1911          2.2992
LJ          -1.28815       -0.707483        -5.39676
LJ           6.15631        -3.50284       -0.588348
LJ          -1.74985        -2.82073         3.39551
LJ          0.198196        -1.54478         3.38678
LJ           3.58803       -0.111182         1.50059
LJ          -3.80454        -3.03516         1.60271
LJ           5.89909         2.75035        -4.12429
LJ          -5.92437        -2.87896        0.801888
LJ           5.90085         1.02346       -0.401388
LJ           3.30258       0.0201048        -5.67912
LJ          -6.44674        -6.08545         -5.0427
LJ         -0.296759         -5.1306        -1.54975
LJ           4.12238         6.33956        -2.42209
LJ           5.52063         5.61447         2.19008
LJ           4.48302         1.49572        -4.36693
LJ          0.462914        -5.14498         2.95459
LJ           2.31405        -3.62845        -2.85229
LJ          -0.64365        -5.73155        0.382902
LJ          -2.43236         4.21266         4.06424
LJ           -4.2284        -4.33131        -5.34403
LJ           5.09664        -2.39269        -4.84497
LJ          -1.94434         3.83594        0.285079
LJ          -2.86517        -1.81885         3.75958
LJ         -0.452158         5.31421         4.46151
LJ           2.95006      -0.0581782        -4.35582
LJ          -2.25986        -2.76858         1.82197
LJ           5.47153        -1.09152         1.71855
LJ          -5.85657         2.13872        -4.03732
LJ          -4.25988        -2.18739         -3.0029
LJ           1.41824         3.39515        -1.66721
LJ          0.168549        -3.56049         6.01912
LJ          -1.50984        0.222347        -3.36253
LJ           2.53002         2.67774        -5.49047
LJ           2.05353        -0.46608       -0.717241
LJ           5.21308        -5.93773       -0.196449
LJ         -0.790596        -5.25926        -5.77027
LJ          -2.33824        -4.31122        -2.12953
LJ           2.77879         3.06147       -0.400378
LJ          -4.95834         2.10144         1.25886
LJ           6.14269         5.74607        -5.49514
LJ          -2.25343        -3.31268        -1.35187
LJ          -2.25431         -4.1202         2.13725
LJ          0.760802         4.98699        -0.47555
LJ           2.99455         2.14065        0.863929
LJ           4.17189         -1.5031        -5.09244
LJ          -4.12902         1.39337        -2.24097
LJ         -0.210294        -3.69349         2.34866
LJ          -5.40719         3.78706         2.96848
LJ           5.40301         -3.3055        -1.42597
LJ          -6.19866        -2.91289         1.72694
LJ           4.30142         2.53648        -4.44101
LJ           1.91701        -2.77804         -2.7236
LJ          -1.06712         -6.2891        -5.97937
LJ          0.720221         5.43903        -2.59155
LJ            5.8934         6.22722         6.40544
LJ           3.32985         3.60435         5.98733
LJ           4.36468          -1.271         2.16659
LJ          0.698705       -0.789005       -0.797247
LJ          -2.48273         3.73434        -3.45392
LJ          -4.62211        -5.47633         3.26332
LJ           5.95739        0.821783        -2.00755
LJ           4.82487         3.75962        0.304531
