108
#Comment!
LJ           3.79514        -4.97566        -5.94594
LJ          0.617081        -2.81737         6.36024
LJ           3.61805         1.22692        0.171405
LJ          -5.08632         2.62093        -5.25137
LJ           6.39657         1.72773        -1.49941
LJ          0.263541         5.75097         5.85752
LJ          -4.59396         3.52697         -1.6867
LJ           3.29205         3.24227        -3.49059
LJ          -6.24792        0.590641        -6.17775
LJ          -5.31422          1.4635        -0.57257
LJ         -0.198817         2.23121          -3.508
LJ           3.52249         1.20956         1.24393
LJ           -1.2662         3.66427        -3.64801
LJ          -2.48093         2.69421        -6.40606
LJ         -0.627608        -5.57565        -2.19521
LJ           3.55529          -6.036          5.4252
LJ          -2.82608          4.1092        0.248694
LJ         -0.775501        -2.69972         5.66845
LJ           5.86492         -3.8828         5.62062
LJ         -0.366102         6.45634        0.636685
LJ          -1.07417        -1.25455          2.0123
LJ          0.101329        -6.42811        -3.99854
LJ           5.38865         -5.6795         3.33166
LJ          -4.86862          4.6608       -0.547299
LJ          -6.09865        -4.93062        -3.57966
LJ          -3.30335         1.13311         -2.7242
LJ           1.62215         4.93303         1.54152
LJ           2.19082        0.189083         5.00997
LJ          -1.67778        -5.11982         2.65476
LJ         -0.937535        0.396489       -0.509785
LJ           6.23368         4.63551       -0.584923
LJ         -0.786327         5.16394         5.04671
LJ           -5.9528        -3.94485         5.86207
LJ           5.13785         5.14423        -5.90257
LJ          -1.34727         2.79793         4.57718
LJ            3.4212         5.96553         2.40531
LJ          -2.87525        -5.83692         4.84356
LJ           3.15726         3.14163         4.80999
LJ           -4.6551        -3.80108         1.75396
LJ           5.57318         4.85825         1.72524
LJ          -4.74124        0.908654        -3.44208
LJ           4.32943         4.95777       -0.305201
LJ          0.153689         2.43348       -0.499604
LJ          -6.20935        0.633472        -1.20258
LJ          -5.13306       -0.460336        -6.32046
LJ          -5.81796        -1.57114       -0.477229
LJ           1.21722        -3.30983         2.62787
LJ          -2.00566        0.314053         4.00025
LJ          -2.98201        -4.35728         3.23121
LJ          -4.02688         4.27851        -3.32362
LJ           5.65565       -0.228627          2.7985
LJ          0.529795         3.85531         5.07636
LJ          -5.11377        -3.40864        -4.61359
LJ          -1.37987         4.35081       -0.779045
LJ          -4.06335        -2.56324        -6.32366
LJ           4.55672        -2.35724       -0.513842
LJ          -6.23795         3.27631         5.99405
LJ          -5.21807        -3.88434        -5.53944
LJ          -6.16691         5.13143         2.87771
LJ         -0.974238        -1.73052        -3.99385
LJ          -4.11773       -0.955608         3.21172
LJ           6.06917         3.63048         2.61759
LJ          -2.57194          6.1878       -0.728001
LJ           5.79326         5.18751         4.03874
LJ           2.67704          4.0096         4.08735
LJ           4.74753           5.244         3.18081
LJ           3.02657         5.53061         5.99319
LJ           3.09927         5.97852        -4.12131
LJ           5.46166        -2.73208        0.423464
LJ          0.951767         3.64074        -1.07338
LJ          -2.77052         5.52721        -2.30583
LJ          -4.68904         4.89394        -2.81627
LJ         -0.354674         -3.1845        -4.00913
LJ           1.59663         3.73075        -2.95542
LJ          -0.84592         3.26784        -2.62304
LJ          -3.81957         1.03896        -4.83923
LJ           6.03764        -3.36084          4.4526
LJ           5.99174         5.72222        -1.99326
LJ          0.784863       -0.768838         4.46119
LJ           5.44432        -2.43818        -1.05622
LJ          -1.17403         1.63388        -3.21874
LJ          0.496641         5.59984        -6.04958
LJ          -3.73129         2.64058        -1.66078
LJ           2.81601        -3.51729         1.83154
LJ             3.052       -0.737573        -5.55955
LJ          0.269707          -6.177       -0.178477
LJ          -3.76826        -3.45452         3.32524
LJ           -4.7164         -3.3915     -0.00662229
LJ         -0.890312        -1.75322        -5.71811
LJ           3.04586        -5.29763         6.22477
LJ           3.08856           3.316         3.04113
LJ           1.68848        -3.57901         0.99999
LJ          -2.85722         2.23017        -3.38183
LJ           6.41011         3.23888          3.9479
LJ          -6.06712        -2.53046        -5.15063
LJ         -0.905504        -4.02556       -0.805793
LJ            1.1946         2.83717       0.0777003
LJ           1.60179         2.88702          6.1745
LJ          -2.26876       -0.576738        -1.48558
LJ           -3.0525        -2.89213       -0.628863
LJ           3.44522        -1.24775         6.23197
LJ           3.12226       -0.301035         4.30509
LJ           3.22693       0.0916683         5.21564
LJ           -1.8153         4.33432         5.14046
LJ           2.45975        -3.82227        -2.61583
LJ           -6.2892        -2.94194         5.33383
LJ           1.05259        -1.67903        -2.38466
LJ          -1.63618        -6.14875         1.05279
