108
#Comment!
LJ           -5.6903         5.64436         6.12808
LJ          -4.73617        -3.49676         5.93637
LJ          -5.54045        -4.39411        -5.29262
LJ          -4.73266        -6.18834        -5.15452
LJ          -1.30341        -5.09295        -6.45795
LJ         -0.118771        -3.63095        -6.29568
LJ          -1.92235        -4.77293        -3.66685
LJ         -0.668277         -6.2088        -4.77337
LJ           2.24946         -6.2242         6.28017
LJ           3.71188        -4.89005        -5.60873
LJ           2.87626        -5.12904        -4.20288
LJ           4.11542         6.12062        -3.75687
LJ          -6.43279        -1.81154        -5.68849
LJ          -5.01665        0.291093         6.40562
LJ          -6.09218        0.771914        -3.76651
LJ          -5.07041        -1.58705         -4.3191
LJ          -1.97746        -1.46025         5.96665
LJ         -0.133875        -1.01202        -5.78808
LJ          -1.37333         0.39264        -4.35924
LJ          0.278968        -2.33189        -3.56806
LJ           3.97187         -2.3675         6.28556
LJ           4.72982        0.677818        -6.31149
LJ           3.81697        0.159485        -4.96481
LJ           2.93643        -2.67319        -3.90824
LJ          -5.10074          3.0848        -6.28304
LJ          -4.19082          4.2986         6.33094
LJ          -4.91407         4.68115        -3.98233
LJ          -4.41335          2.7029        -4.16006
LJ          -1.30152         1.61355           6.181
LJ          -1.67098         4.72735        -6.11857
LJ          -2.01199         4.86826        -3.76029
LJ         -0.679593         3.30307        -4.05689
LJ           2.74733         2.37404        -6.04078
LJ           3.89364         3.80162         6.04866
LJ           2.83691         4.71182        -4.83604
LJ           3.82687          3.0998        -4.03469
LJ          -5.18481         6.24815         -1.9285
LJ          -5.93928        -3.84281        -2.90711
LJ          -4.97969        -4.45144       -0.486131
LJ            -5.009         6.02055        0.518302
LJ          -2.13421        -6.36077         -1.4915
LJ         -0.758275        -4.96194        -2.36402
LJ          -2.08306        -3.87448     -0.00266885
LJ         -0.857937         6.38704        0.372404
LJ           2.64397         5.85236        -2.18005
LJ           4.67069        -4.20293        -2.22534
LJ           3.01713        -5.51219        0.533821
LJ           4.27699        -6.36437       -0.429237
LJ          -6.28367        -1.53677        -2.54792
LJ          -4.85804          1.0066        -1.77268
LJ          -6.25138       0.0763967        -0.31009
LJ          -5.21035         -1.8788       -0.582576
LJ          -1.43591        -2.07999        -3.16026
LJ         0.0103155        0.659441        -3.41594
LJ          -1.55278       -0.326155        -1.00821
LJ         -0.387748        -3.46884      -0.0540521
LJ           2.94719        -4.15357        -1.62832
LJ           3.38493        0.413076        -2.51018
LJ           2.14412       -0.697859       -0.442971
LJ           3.60898        -1.57813       -0.244793
LJ          -6.26665         2.65877        -1.92655
LJ          -4.89298         3.71284        -1.43081
LJ          -6.05989         4.03819        0.664846
LJ          -5.08742         1.93508         0.85485
LJ          -1.27632         2.52994        -1.71017
LJ          -1.17362         4.80053        -1.73651
LJ           -1.4886         4.14498        0.598664
LJ         -0.186199         2.07915       -0.111443
LJ           2.37501         2.98676         -2.3019
LJ           3.35922         4.05992        -1.36382
LJ           2.49252         4.25766        0.255607
LJ           3.24506         1.79883         0.12075
LJ          -6.08907        -6.26706         1.92995
LJ          -5.06555        -4.50551         1.93275
LJ          -6.04081        -4.87643         4.30933
LJ          -4.60551         6.43256         4.02056
LJ          -1.47402        -5.76179         2.48427
LJ         -0.263785        -4.64382         2.46303
LJ          -1.36545        -3.13682         3.84195
LJ          -1.07667         -6.1896          4.7401
LJ           2.70708         5.96136         2.69286
LJ           3.51115        -4.37624         2.17734
LJ           3.13435        -4.25795         4.45086
LJ           3.51167        -6.46215         5.02532
LJ          -6.16502         -2.5173          1.0576
LJ          -5.94553       -0.413612         2.05808
LJ          -5.95136        0.598304          4.0887
LJ          -5.27554        -2.44489         3.74533
LJ          -2.38188        -1.67289         1.72476
LJ         -0.751001        -1.61473         1.82922
LJ         -0.815295        0.505824         3.60762
LJ          0.527327        -1.93669         4.22688
LJ           2.94982        -2.40134         1.65631
LJ           3.34219      -0.0807524         2.03264
LJ           2.94317       0.0398745         5.23144
LJ           4.39901        -2.25184         4.28352
LJ          -6.40627         1.74043         1.75806
LJ          -5.36272         4.37944         2.44414
LJ           6.43003         4.11665         3.85145
LJ          -4.42349          1.8742         4.11821
LJ          -1.25724         1.27583         1.01539
LJ         -0.575732         4.25644         2.43832
LJ          -1.37992         4.02962         4.08486
LJ         -0.491947         2.20408         4.83326
LJ           2.04558        0.859922         2.90679
LJ           3.40103         3.79604         2.02963
LJ           1.87484         4.53948         4.71912
LJ           3.25571         1.84626           4.138
