108
#Comment!
LJ          -5.01022         1.20296       -0.395904
LJ          -3.93012        -3.26258        -5.41048
LJ            6.2997         3.02268        -2.78462
LJ           1.79219         5.93167         3.08623
LJ           1.32636         2.83517         1.91596
LJ           2.98165        0.861365         1.74495
LJ          -1.78735         4.27194         1.97157
LJ          -5.21191         2.37836         1.88473
LJ           5.29668         2.99327        -4.61789
LJ           1.67516        -2.52458         5.95534
LJ          -3.79789        0.507852         5.84658
LJ          -6.13723         6.30423        -3.96276
LJ         -0.849781         5.50831         3.83413
LJ          -3.65666          5.0195        -4.64138
LJ           1.60564         2.47478        -3.36738
LJ          -4.06584        -1.98212         2.94694
LJ          -4.34489        -5.77384         3.89883
LJ          -4.06204        0.515879         2.02371
LJ          0.375877        -6.44317        -4.72539
LJ           6.00254        -2.31816         2.85328
LJ            1.7072        -5.72496         5.45799
LJ          -4.11502         5.20329        -3.15931
LJ           5.97548           5.309        -2.69889
LJ           3.04332         4.17484       -0.928114
LJ           3.82424         5.53672         1.92018
LJ          -1.18599        0.438983        -2.29507
LJ          -2.13118         6.27577         3.50811
LJ           6.34966         2.47427        0.214366
LJ           2.87099         -4.6668         1.25969
LJ          -4.24061         1.92648        -2.60448
LJ          -1.83002        0.820741         4.61759
LJ        -0.0672558        0.308841         3.91453
LJ            -3.347          4.2102         3.57892
LJ          0.623215        -2.99196        -4.24564
LJ           4.72669         2.23695        -3.20442
LJ          -1.11985         1.87018         1.55428
LJ          -3.90875        -4.49368        -6.20637
LJ          -6.08814        -1.16693         3.09322
LJ          -3.13169          6.1494         3.87533
LJ          -2.72262        -2.67167         5.92884
LJ         -0.324917      -0.0743158        -1.96956
LJ          -5.70454         1.86467       -0.284152
LJ           4.84624         4.51258          5.1558
LJ          0.584102         -3.6799        -6.37488
LJ           5.42999         2.23416        -1.61589
LJ           5.06399        -5.26695         3.53533
LJ           5.66377        0.983566        0.291428
LJ          -1.64021        -3.09676       -0.821867
LJ           2.92177        -2.54324        -2.87795
LJ         -0.581663        -1.41973        -5.15357
LJ           6.28022         1.39979        -4.10726
LJ          -1.22927        -4.76257         2.19191
LJ           5.30302        -3.78626        -4.48101
LJ           1.42102         1.26857         2.98247
LJ           1.53399        0.436865       -0.852145
LJ         -0.722927         1.44364         3.20619
LJ          -6.10713          5.4632         3.70639
LJ          -1.39572         1.98411        -3.30766
LJ           3.25925        -4.98993        -2.82557
LJ            4.7511        -6.19529         2.25665
LJ           2.10702         5.91779         6.36573
LJ           5.01738        -1.73045         5.23093
LJ          -4.91153        -6.34308        -4.82134
LJ           3.49616        -4.06939        0.428411
LJ          -2.51998         1.33418        0.799763
LJ         -0.406107        -4.54437        0.725983
LJ          -2.55611         1.70178         4.89536
LJ          -6.18129        -4.79994        -3.56973
LJ          -4.68587         2.48939         4.74275
LJ          -1.39839         -1.0821        -3.02661
LJ          -1.47309        -3.25497         3.75902
LJ         -0.531761        -1.47188         4.85678
LJ            2.6412         1.21673        -4.54633
LJ           5.40585        -3.57812        -2.58851
LJ           3.13186         2.49893         -3.7706
LJ            -2.718         4.45385        -3.08484
LJ        0.00670946         2.31997        -1.18052
LJ          -4.51915       -0.739963         5.62262
LJ           3.69711        -2.21833         5.48934
LJ           5.88422         5.54354         4.60952
LJ           4.53556         -3.2827         4.39149
LJ           -4.5765        -4.82827         4.41545
LJ          -0.17058          -1.177         -3.5642
LJ          -1.55318         5.45962         2.89741
LJ          -5.98687        -2.29399         5.85654
LJ           4.95606       0.0846308        -1.84711
LJ         -0.731712          -2.327        -6.37072
LJ          -4.66379        -5.30745        -5.55223
LJ          0.823954         5.76074         4.02753
LJ          -2.99362        -2.31579         2.31117
LJ           4.15982        -3.85525        -2.87881
LJ          -6.28307        -4.67019         1.35488
LJ          -6.02976        -5.04598         -1.0136
LJ           2.44478        -6.05827        0.621299
LJ           -2.4009         4.14093         5.99249
LJ           5.61543        -3.06375         5.73398
LJ          -4.94387        -2.03488        -1.01586
LJ           0.72929        -2.85354         2.33453
LJ           5.47101        -6.19886         3.28203
LJ           1.39838         3.49628         4.40513
LJ           3.52297        -0.46474        -2.76879
LJ           3.18193          6.0929         3.97391
LJ         -0.988402       -0.954674         0.40104
LJ           4.16825         3.93352        -1.85284
LJ          0.824137        -5.64938         1.09781
LJ          -5.02813        -2.83909         2.37383
LJ          -4.92429         5.40512        -5.98247
LJ          0.870268         4.68416        -2.14701
