108
#Comment!
LJ          0.883634         5.84127         5.73156
LJ           1.58137        -2.82438         6.16577
LJ          -2.93466        -3.25274        -4.62097
LJ           1.81864        -4.40164        -4.94938
LJ           5.00679        -4.23041        -5.34022
LJ           -6.1494         -3.2622         5.46201
LJ           4.50634        -4.79747        -2.23517
LJ          -5.07873         5.79358        -2.87583
LJ          -4.78146         5.41355         4.72264
LJ           1.85835        -5.68092         6.39667
LJ           6.13002         -5.3129        -6.28901
LJ          -2.44788         5.44517        -3.56776
LJ          0.124923        -1.28393         -5.1289
LJ           1.68191       -0.324269        -5.94546
LJ          0.535914        0.866646        -2.44972
LJ           2.55145        -2.96095        -3.08643
LJ           3.06544       -0.208297         6.20692
LJ           6.35014         -2.5244         6.27509
LJ           1.29569        -2.82436        -3.56078
LJ             1.056        -6.12034         4.33318
LJ          -2.43876        -3.08034         6.10641
LJ           1.64735         3.53898         3.77184
LJ          -2.43885      0.00454757          -5.734
LJ          -2.81751        -1.96816        -2.76502
LJ       -0.00466283         6.28503         6.32222
LJ           2.43738         3.09579        -6.13865
LJ         0.0183433        -6.06732        -4.39798
LJ            2.3384         1.49488        -5.94971
LJ           4.74481         1.46469         5.46121
LJ           6.35162           2.625        -3.08293
LJ           4.95895         3.95484        -3.65472
LJ          -6.30717         3.55247        -2.43758
LJ          -4.14915         2.13954         5.27261
LJ          -1.64829         2.65175         6.44229
LJ          -4.54466         5.44784         6.28922
LJ          -1.16497          1.1962        -3.18826
LJ           1.30341         5.15842        -1.87406
LJ         -0.196396        -4.88943        -3.29855
LJ           1.18617        -4.12665       -0.540823
LJ           1.32154         -6.1055         1.15685
LJ           4.49281        -6.14245         -1.6647
LJ           5.74617        -5.00636        -4.56572
LJ          -3.64733         5.39758       -0.146911
LJ           4.47173         5.62098         2.19912
LJ          -5.76724         6.25146        -4.66509
LJ           4.97108        -4.88465         5.24641
LJ          -4.55656         5.50573       -0.795816
LJ          -2.73508        -6.33177        0.595606
LJ          0.358624        -1.79218        -2.94384
LJ           3.36437         2.12746        -5.00923
LJ          -1.88703         3.65038        0.892101
LJ           1.13258        -1.49926       -0.410945
LJ          -1.38288        -2.22789       -0.110143
LJ          -5.91734         1.36018       -0.885948
LJ           4.22194       -0.727575       -0.707868
LJ           3.51761         1.83707        -1.12752
LJ            2.1073        -3.73116         4.57533
LJ          -3.16981        0.470879        -2.50743
LJ           4.73799         3.54193        0.901873
LJ         -0.773275        -4.82216        0.186012
LJ          -2.97392          3.7807        -1.71374
LJ          -5.94484         2.11027         1.75615
LJ          -2.64338          5.4573       -0.671515
LJ           2.16102         1.88086        -2.92842
LJ           4.13617         4.88054        -2.51936
LJ          -4.96536         5.35825         0.41418
LJ           4.82416         4.05891         2.41088
LJ            6.3281          1.3333        0.563689
LJ           4.93941          4.7798        -5.84695
LJ          0.691819        0.829389        -1.42049
LJ           -6.4382         4.37906          -1.399
LJ        0.00952055         3.58283        -1.72584
LJ          0.720296        -6.35658         1.91082
LJ            4.0832        -4.02009       -0.162314
LJ          0.128959        -6.01202         4.23197
LJ           2.52765         5.40579          4.2859
LJ           2.91466        -5.49035         3.16769
LJ           5.97829        -4.80794         2.63688
LJ         -0.689785        -3.97075          1.6722
LJ           5.95657        -3.76438         3.88611
LJ          -3.67741         5.84017         3.16243
LJ          -2.76049        -5.26962         2.17895
LJ          -3.22469        -4.13316         4.58593
LJ           -2.8483        -6.24501        -6.01531
LJ          -3.35263        -6.42138        -2.11547
LJ          0.413143        0.125349         1.71398
LJ          0.615851         3.34869         5.15163
LJ          0.932621        -2.08036         3.85182
LJ          -3.45564         1.79968         2.73705
LJ           4.68865       -0.834393         4.29401
LJ           5.04096         1.84838         2.45336
LJ          -5.79753        -3.85021         3.87681
LJ           -3.4414        -2.37868         1.64185
LJ          -2.70506        0.882434         2.40244
LJ          -4.27253        0.866939         4.67798
LJ           3.70282         1.17977         5.69244
LJ          -2.39673         2.10678         6.13242
LJ           1.60761         5.56384         1.96672
LJ          -2.43161         5.25881         5.25786
LJ           2.47434       -0.986014         4.07042
LJ           0.94398       -0.758763         4.81864
LJ           -3.1708         3.10845        0.143086
LJ           4.73112         2.95783         4.91955
LJ           6.34339        0.713434         4.75826
LJ          -4.42285      -0.0770371         2.44003
LJ            0.6476          3.5802         2.40012
LJ          -4.40507         4.54008         5.62621
LJ          -2.60815        0.503723         4.12772
