108
#Comment!
LJ           -3.0559          1.0607        -1.75538
LJ           1.19017         1.53935       -0.451662
LJ           -1.8992         4.27206         1.82071
LJ          0.981657        -1.88521         -5.1933
LJ          0.880077       -0.485268         4.39189
LJ          -6.03349       -0.041555         4.11799
LJ           2.54359         4.19961        0.748267
LJ           4.26805         4.28831         1.70343
LJ          0.378102       0.0477347        -4.02497
LJ          -5.97018        -5.01891        -6.43043
LJ          -4.95209        -4.73466         -4.6479
LJ           1.26247         5.09138         1.10578
LJ        -0.0047131        -5.39224       -0.469862
LJ           5.42784        -2.46026         1.81244
LJ          -3.28139         5.93178        -2.08948
LJ           2.68948         1.85853        0.859993
LJ          0.199801        -3.34126        -1.87761
LJ           6.24279        -6.07979        -5.58208
LJ           5.72646         3.15154       -0.975974
LJ          -1.24663        -3.61095        0.209224
LJ          -1.95444        -2.15423       -0.523004
LJ          0.250008        -1.26764        -3.67925
LJ          -5.57939       -0.184857        -3.63096
LJ           3.87145         2.12417         5.91136
LJ           5.59363         3.61226           5.179
LJ           5.17181         3.58747         1.23531
LJ           2.68359       -0.205623         3.08694
LJ          -5.80175        -4.01601        -3.00362
LJ           2.47541         4.77908       -0.421837
LJ          -4.83419          3.6402        -3.17479
LJ           5.57194        -0.66861         2.55823
LJ          0.309457         1.25686         3.45478
LJ          -5.33254        -2.47763         -2.8431
LJ           5.12782         2.42744          1.5054
LJ           5.98304         3.69552         2.07323
LJ          -4.79645         1.51878        -6.28231
LJ           5.92924        -1.93605         4.25185
LJ          -3.08291        -2.83397        -3.60596
LJ          -4.61324        -4.16971        0.876845
LJ          -1.02131         5.65908         2.45655
LJ          -1.41284         4.32559        -2.14585
LJ           1.17098         5.07079       -0.274868
LJ           3.30347        -5.39431         1.08612
LJ          -4.66487        -6.09794        -1.12599
LJ            2.0027       -0.528402         5.99287
LJ           1.92466         4.18239        -3.47626
LJ          -1.78309        -3.54142         1.38345
LJ           4.60162         1.40962         6.33736
LJ            -3.926         3.78751        -5.91052
LJ          -3.46016         5.62641        -0.63568
LJ           -4.9182         6.13041         1.67261
LJ          -3.67369         -3.9068        -3.85221
LJ          -2.34744         -3.0926        -5.28351
LJ          -4.98755         3.72829        -5.76596
LJ           6.17162         5.93809         -2.3775
LJ          -1.88806          1.1936          1.4125
LJ          -1.67481         2.09399       -0.309408
LJ          -1.46664     -0.00397911         -2.2572
LJ           3.77707        -5.25689         1.98774
LJ           2.69362        -2.98922         3.92757
LJ          -3.99686         2.83842        0.490008
LJ           2.24717        -5.04809        -5.98178
LJ           1.18171        -6.25807        -4.32811
LJ           3.36616         3.73752         2.12721
LJ          0.436654         1.05104        -4.81804
LJ           2.43491        -2.02128         2.80082
LJ          0.265095         1.70215        0.968073
LJ          -4.97722         1.71907         4.66089
LJ          0.229611        -0.33895        -5.94764
LJ          -3.42735        -3.66659        -6.23739
LJ         0.0825159         4.79655         3.70563
LJ           6.32288         1.12639        -3.87181
LJ           5.43082        -5.12461        -6.37754
LJ          -3.28872        -2.97691        -4.83322
LJ          -4.27359         2.07337         5.30698
LJ           4.44134         4.48487         3.07064
LJ          -2.06442        -6.45702         1.65801
LJ          -4.31319        -1.96041        -2.47241
LJ         -0.580838       -0.285528           5.848
LJ         -0.457763         -3.0087        -1.01374
LJ        -0.0913002         2.54373         4.16428
LJ          -1.23483         5.92714          3.5635
LJ           3.24913         1.38209         6.16849
LJ          -4.49694        -6.23425        0.960402
LJ           4.91037         1.77484        -5.13258
LJ          -3.55114        0.876742         1.77354
LJ           1.82278        -3.94866        -4.10244
LJ           -3.6611        -4.96996        -1.30037
LJ          0.599998         3.72203        -3.10586
LJ           -1.2505        -2.83202        -4.12816
LJ           3.03235          4.8831        -1.37991
LJ          -4.31793         4.14028          5.6543
LJ          -3.08478         2.04136         2.29862
LJ         -0.349731         4.55968        -4.24233
LJ         -0.307755         3.82605         2.81416
LJ          -5.54325         5.41276       -0.310586
LJ           2.71803         2.41055       -0.106907
LJ          0.115929         5.44674         5.70291
LJ           -5.5075         2.56944        -3.04375
LJ           4.98061          4.4707        -2.50728
LJ           3.26595         4.82334        -5.46338
LJ          -1.70921         -3.9615        -1.89399
LJ           4.15246       -0.659953         2.70599
LJ          -6.39285         1.53601         1.16494
LJ          0.095145        -0.81502        -2.48948
LJ           3.23175         4.54575        -4.14782
LJ           1.86438         2.15832         5.73724
LJ          -5.26607        -3.75863        -1.96889
