108
#Comment!
LJ           -3.4689        0.523499       -0.910803
LJ           0.82827        -2.15711        0.199645
LJ           1.78727        -1.69304         1.53483
LJ            2.6135        -1.76461        -2.35751
LJ         -0.507678        -2.63121         4.66351
LJ           3.43808         1.18653         4.40054
LJ           3.70499         2.68994         3.09366
LJ           4.92232       -0.107022         1.28334
LJ          -2.39214       -0.535577         4.34687
LJ          -1.29837        -5.84479        0.246575
LJ         -0.878938        -1.99928         2.08919
LJ         -0.255028        -4.98349        -2.56308
LJ          -2.30374         1.59418       -0.874215
LJ          -5.63722        -2.52159         3.86608
LJ          -2.98543         5.11384        -5.47718
LJ         0.0684332        -2.62061         3.59808
LJ           3.02876        -3.92806        -3.50634
LJ          -6.35834         3.70038        -6.45934
LJ          -1.54023         0.74547        0.228483
LJ         -0.975951        -4.70769        0.217382
LJ          -1.52042        -2.64356        -5.90125
LJ          -3.71647         1.73017        -3.36751
LJ          -6.15686        -0.34504         -3.2822
LJ           3.52056         1.84082         6.21223
LJ          -3.04432        -3.71849         5.84644
LJ           6.24213         1.63196         3.58209
LJ          -1.95105        -2.79894         1.92442
LJ          -3.39813        -1.64045          -6.105
LJ          -2.27104        -5.79876      -0.0988261
LJ          -2.33079        -1.08017        -1.72374
LJ           2.86743         1.65824         5.43849
LJ          -4.53705         1.41212         5.54468
LJ           5.94544        -2.08977        -3.36454
LJ           6.09006         6.36656        0.576812
LJ            5.6331         5.12649         3.69922
LJ          -4.90076        0.417854         6.20755
LJ           4.74762         2.11367         3.83527
LJ          -1.19225       -0.948646         3.84348
LJ          -5.05613        -6.34729        0.999768
LJ          -1.27598        -4.16243         2.57096
LJ          -1.29104        0.535636         4.03005
LJ          -5.66592         3.27134        0.177802
LJ          0.511658        -5.77398         -0.3199
LJ           -3.2936         6.22534         1.88441
LJ          0.855762        -1.09778         -2.5272
LJ           1.32465        0.620071        -3.00844
LJ          -1.94888        -4.76541         5.35678
LJ         -0.471338       -0.577669         5.58436
LJ           4.77584         6.34439        -2.64165
LJ          -1.05989        -6.06307         6.16685
LJ            3.4401         4.24407          6.3877
LJ          -5.19173        -4.05032        -5.91135
LJ          -2.43501         6.33988         6.24643
LJ           5.94277         5.06129        0.537983
LJ          -2.76095        -3.49509         3.45578
LJ         -0.104887        -1.18425         4.18618
LJ          -3.94049         5.08691         4.70169
LJ          0.422001         2.99413        -3.50203
LJ           1.28601         -2.7417         5.60665
LJ           2.10732        -5.75078         5.13818
LJ           4.12957         2.36347        0.668963
LJ         -0.572229        -3.68145        -5.52313
LJ            -5.415        -1.90892        -3.98587
LJ           4.13493          3.8245          3.9254
LJ          -1.87185         1.47196        -1.82507
LJ          -6.31269        0.106052        -1.43489
LJ         -0.531587        -4.28527        -1.38854
LJ          -1.07254         4.58039         1.60278
LJ           5.52641        -1.65383        0.247845
LJ           3.52146        -3.06706        -5.41522
LJ          -5.51936        -3.99238         2.53389
LJ          -6.23247       -0.867328        -2.22536
LJ           3.30175         -6.0806         2.59906
LJ          -4.49757        -3.73189         -4.7553
LJ          -3.12175        0.175744         -5.9194
LJ           2.22763         3.08784         3.12241
LJ          -3.68626         4.00611          5.0632
LJ          -6.45056         -2.9869        -2.91594
LJ          -2.26638         3.44372         2.28004
LJ           5.30298        -3.26988        -1.72769
LJ         -0.461655         2.63967        -1.30072
LJ          -3.56641         5.42631         2.73951
LJ          -2.38052          4.8599        -2.26363
LJ          -4.00993        0.402742         4.04897
LJ           4.29206        -1.24405        -1.79928
LJ          -4.61536         2.21436         3.16036
LJ           2.36326         -3.6997          4.2875
LJ          -2.98649        -5.73001         2.08485
LJ          -1.89813        -2.69185        -1.02415
LJ           1.89819        -2.16134        -4.87272
LJ           4.14139        0.229882        0.608071
LJ         -0.795075        -4.76531        -6.23507
LJ         -0.273096        -2.61637         1.34587
LJ           -1.4428         5.50452        -4.47628
LJ          -3.10424        0.571111         2.38391
LJ          -4.59713         5.10284        -1.95391
LJ          -5.10292         -5.0003       -0.472575
LJ           1.30878        -6.43055        -4.96443
LJ           -2.6916         1.00095         -2.7342
LJ          -5.37583         4.61584       -0.998321
LJ         -0.117506         4.54287        -5.26658
LJ           1.19455        -5.50926         6.23455
LJ         -0.265517        -4.22653         4.15633
LJ           5.83872         2.22871         2.66811
LJ          -3.68604         4.06675        -6.20064
LJ           2.32225         4.88155        -3.43645
LJ           5.67708         5.05402        -3.34454
LJ          -4.88067         1.33863        -4.13024
