108
#Comment!
LJ          -4.26529        -0.16365       -0.588569
LJ          0.630773        -3.52018        0.652862
LJ           2.86508        -4.03153         1.72843
LJ           3.43982        -3.57659        -1.51907
LJ          -1.69107        -3.76242         4.38547
LJ           1.96793         2.16822         4.51689
LJ            4.1505         2.80719          4.4934
LJ           5.79596       -0.848484         2.00988
LJ          -2.73647        -1.23277         1.78203
LJ           1.54923         6.39894        -1.75067
LJ         -0.733063        -1.55943        -1.28175
LJ         -0.105895        -4.21471        -3.94171
LJ          -3.30345       -0.604955        -1.33593
LJ          -4.93067        -2.56715         4.56646
LJ          -3.34196         4.65712         6.20951
LJ          0.398287         -4.2376         4.98187
LJ           4.14575        -4.02339        -4.13615
LJ          -6.41451         2.76949          5.9909
LJ          -4.18053         0.80336       0.0243109
LJ         -0.589189         -4.8509        0.464122
LJ           1.03587        -3.84037         5.74925
LJ          -4.04433         2.70118        -2.18667
LJ          -5.68395        -1.34411        -2.23138
LJ            4.0072         1.85138        -6.03402
LJ          -1.24548        -1.65465         6.05646
LJ          -5.66127        0.838206         3.85171
LJ          -2.41092        -2.44553       -0.405418
LJ          -3.66775       -0.315952         5.41712
LJ          -1.08973        -3.70613       -0.715872
LJ          -1.51237        -2.98896        -1.43946
LJ           1.88243          2.1747         5.61526
LJ          -5.88786         1.66854         6.14262
LJ           5.22428        -2.75039        -3.70441
LJ          -5.98037        -4.03991       -0.705233
LJ           5.13469         5.52067         4.09334
LJ          -5.47557        -0.42037         5.15787
LJ           3.80986         1.07379         4.37456
LJ          -1.07959        -2.56184         3.77392
LJ          -5.09931         5.74631         1.08729
LJ         -0.986305        -5.01772         2.84471
LJ          -1.46323         2.91446        -6.30293
LJ           4.99849         2.60404        -0.22164
LJ        0.00142376        -4.82361        -1.78953
LJ          -4.30885         5.37232         2.60939
LJ          0.863504          -1.362       -0.704772
LJ          0.469084          1.0298        -2.95573
LJ          -3.52711        -5.20419         6.20301
LJ          -2.06017       -0.437548        -6.12999
LJ           3.33987        -5.99603        -1.23535
LJ           -1.2434         -5.9228         4.00853
LJ           2.10857         3.57269         -4.9163
LJ          -5.93584        -3.65993           -6.17
LJ          -2.39732         5.01686         5.04477
LJ           5.79183          4.8763          2.9108
LJ          -3.01352        -2.57231         2.86781
LJ          0.211485        -3.15904          4.7004
LJ          -4.72904         5.25611         4.70012
LJ          0.660985         2.64954        -2.46521
LJ          0.132509        -2.43217          -5.563
LJ           3.34756         5.92054         4.45505
LJ          -5.66284         2.51358         1.12962
LJ          0.251643        -1.01737        -4.63044
LJ          -4.98564       -0.738429        -3.21497
LJ           3.56934         4.15377         3.86845
LJ          -1.54194         1.44805        -1.48878
LJ          -4.79215        0.826598         -2.9391
LJ          -1.24103        -2.31036        -2.67812
LJ          0.207189         5.77894        0.859374
LJ          -5.56155        -3.35681        -1.44313
LJ           5.79321        -2.94609        -5.23129
LJ           5.61976        -1.77761         1.95974
LJ           6.36731       -0.507022        -1.43268
LJ           2.69609        -5.01196         1.32737
LJ          -4.63619        -4.08241        -5.63597
LJ          -3.49147        -1.40249        -6.12196
LJ           1.30674         1.68383         3.56441
LJ          -4.38548         4.15247         6.36859
LJ           5.76986        -3.54451        -3.21366
LJ           -2.9084         5.28485         1.09173
LJ          -5.30604        -4.00817         -3.7034
LJ         -0.981201         2.23517        -3.55623
LJ          -6.06214         4.87134          3.4414
LJ          -4.21902        -6.25064        -1.09909
LJ          -3.91584         2.91869         5.02535
LJ           1.63088        -1.76204        -1.17659
LJ          -4.84999         2.38617         3.68996
LJ           1.98874         -3.4906         2.40584
LJ          -1.97056        -5.74064         3.45477
LJ          0.629585        -4.22973       -0.973177
LJ           2.94434        -2.07332        -5.27371
LJ           3.87959        -1.20627        0.962663
LJ         0.0863237        -5.13195        -5.18505
LJ           1.09743        -4.56114           1.893
LJ          -1.62992         6.11119        -5.22994
LJ           -3.5817       -0.447222         2.38162
LJ          -4.59364         4.77732        -2.00045
LJ          -2.99474        -3.25385       -0.511952
LJ           1.65907        -5.92291        -4.20782
LJ          -2.07117        0.259375        -2.81196
LJ          -4.68826         5.21446        -0.70992
LJ          -1.27025         6.16698        -6.40374
LJ           1.03283        -6.10651         5.76895
LJ         -0.433704        -3.76821         3.85048
LJ           6.05236         1.44818         4.47523
LJ            -4.077         6.45228        -4.84129
LJ           2.02313         5.06713        -3.34481
LJ          -5.98087         6.29305        -1.76293
LJ          -4.42653         4.20918        -3.88253
