108
#Comment!
LJ           1.00202        -2.92808         1.93897
LJ          -1.85746         5.95642         -5.8716
LJ          -6.37427           3.235        -3.89524
LJ           3.87048        -2.39041        -2.68588
LJ           4.91419      -0.0597893         5.18563
LJ          -3.85446        0.645609        -1.30308
LJ           3.97728       -0.562274         -2.3697
LJ         -0.869059          5.4866         1.58025
LJ          -1.60556         1.52711       -0.148444
LJ           -4.4022          4.7632        -6.43899
LJ           -1.8119         1.43253         5.83082
LJ           4.91594         3.85665       -0.871636
LJ           4.66967        -4.07313        -4.33003
LJ           1.21317        -5.30324       -0.984949
LJ          -2.95773          2.4514        -4.59697
LJ           4.78922        -1.68186         5.05788
LJ          -6.12861        -1.26123       0.0701402
LJ           2.70714        -1.62403         0.76162
LJ           1.50525        -4.17861      -0.0505444
LJ          -2.87428       -0.167725         2.78313
LJ          -1.24604         -3.4715        -5.57762
LJ          -6.21637        -5.06545        0.109636
LJ           6.14933         2.93281         5.56619
LJ           2.53457        -3.90215         -5.7341
LJ            3.2629         4.35094         6.06693
LJ           3.32359          3.8876         1.19046
LJ          -3.56272         0.13318        -4.60003
LJ          -2.46308        -5.24841        -4.06539
LJ         -0.340877        -4.81364         1.60484
LJ         -0.436274        0.867347         2.90512
LJ           4.95263       -0.954152         -4.0062
LJ           1.52537         1.31259         2.20424
LJ          -2.15424         3.13707         -1.9856
LJ           -4.1458         3.31554         5.78575
LJ          -2.83724        -4.96846         4.93436
LJ          0.413052         6.25144          3.1389
LJ         -0.138919        -1.05209        -1.78048
LJ          -3.00002        -1.63215         5.90399
LJ           -4.1055         -5.9217        -1.22198
LJ          -4.59338        -1.73031         6.02989
LJ         -0.213163         5.54255         4.31592
LJ          -2.35956          1.0311        -2.66613
LJ          0.570165        -3.02325        -3.11541
LJ           2.85801         -4.7492         2.50808
LJ          -1.90413         1.87903        -2.15235
LJ           6.22264         6.38467         3.05921
LJ          -2.44452        0.532827        -5.26707
LJ           4.83113        -2.41462       -0.719088
LJ          -3.55548        -1.19857         2.21885
LJ          0.508443         -4.0512         4.41264
LJ           3.97373        0.303446         1.32724
LJ          -2.98869        -2.62647         1.99151
LJ          -6.28866         3.31828        -1.57412
LJ          -4.87269        -2.03361       -0.792727
LJ           5.39538         1.58004       -0.567621
LJ           3.27088       0.0362296        -6.07133
LJ          -6.11453        -6.13032        -5.39599
LJ          -1.04893        -5.96901        -1.33302
LJ           4.15261        -5.50182        -1.97526
LJ           5.62325        -6.33061         1.42828
LJ           3.74927         0.24769        -5.23381
LJ         -0.676342        -4.19666         3.52826
LJ           3.65345        -4.01748        -1.85399
LJ        -0.0322316        -5.75476          1.3462
LJ          -3.13214         3.94244         3.92171
LJ          -5.82864        -4.34823        -6.25491
LJ           5.62979        -1.50794          -4.679
LJ          -2.59616         4.82087         1.72156
LJ          -3.65553        -1.52094         4.34053
LJ          0.476847         5.04311         3.18063
LJ           3.67841        -1.05381        -3.73748
LJ          -2.06752        -2.14035         1.87387
LJ          -4.87069        -2.05767        0.478752
LJ          -5.87215         1.05516        -3.39083
LJ          -4.96879        -3.33552        -2.80868
LJ           2.83666         3.17539       -0.952895
LJ           1.62256        -2.60939        -5.58767
LJ          -2.05725        0.652338        -3.49397
LJ           2.47137         4.12632        -5.48122
LJ           3.28355       0.0678783        0.442136
LJ           4.57842        -6.10564        0.433353
LJ          -1.73999         -5.0422        -6.38506
LJ          -2.00993        -3.53466        -2.78921
LJ           3.09263         4.05624      -0.0163302
LJ          -3.05964         3.36261       -0.428038
LJ              5.16        -6.44224        -5.06441
LJ          -2.27067        -3.78414        -1.45759
LJ          -1.53771        -4.21449         1.19973
LJ          0.227557         5.86453        -1.02235
LJ           2.89795         2.65048      -0.0844146
LJ            3.5776        -1.84369        -4.56441
LJ          -4.79567        0.340141        -2.09093
LJ           1.62482        -4.29387          1.2699
LJ          -4.34086         4.16667         1.99837
LJ           5.97933          -4.311        -2.47409
LJ           5.19601        -2.86385         1.24217
LJ           5.61626         2.06749        -4.26818
LJ           1.68154        -2.91556        -2.72152
LJ          0.534973        -6.36861         5.89027
LJ           1.10306         6.05591        -2.45967
LJ           5.92088        -5.64697        -5.78983
LJ           3.58955         3.38025         5.33763
LJ           4.13268         -1.3659         3.01615
LJ          0.959712        0.409749        -1.28757
LJ         -0.752414         3.92075        -2.14304
LJ           -4.9327        -4.81857         2.55381
LJ           6.09632       -0.574728        -2.97198
LJ           4.31339         3.49765          0.2497
