108
#Comment!
LJ           -3.6694         1.03927        -1.84926
LJ            1.2116         1.96245       -0.451144
LJ          -2.28912         5.16447         1.99166
LJ          0.871966        -1.93304         -5.5661
LJ          0.998092       -0.243939         4.53361
LJ          -5.83632       -0.232539         3.89997
LJ            2.3322         4.33719        0.936318
LJ           4.40978         4.34205         1.80764
LJ          0.713578       0.0893219        -3.95132
LJ          -5.48502        -4.74757        -5.80006
LJ          -5.44483        -5.03117        -3.81175
LJ           1.57693         4.64039         1.58323
LJ          0.529827        -5.02481       -0.566485
LJ           5.18701        -2.42297         1.56321
LJ          -3.28997         6.07993        -1.51663
LJ           3.13676         2.41101        0.916856
LJ        -0.0841202        -3.29181        -1.91016
LJ            6.3982          -5.955        -5.19059
LJ          -6.26739         3.73536        -1.19924
LJ          -1.23088        -2.55042        0.308202
LJ          -2.84259        -2.12317        0.394198
LJ            1.2654        -1.30238        -3.27517
LJ          -5.33861        0.093435        -3.53738
LJ           4.36303         2.39639         5.70481
LJ           5.03076         2.90122         5.12836
LJ           5.24344         3.56569        0.995577
LJ           3.41924       0.0755182         3.05928
LJ          -5.72043        -4.11687        -2.61463
LJ           2.76467         4.65465        -1.01413
LJ          -5.22951         4.05202        -3.56509
LJ           6.02339       -0.995327         2.36583
LJ          0.970847         1.21283         3.34745
LJ          -5.06214        -2.83465        -2.75728
LJ           5.32082         2.49829         1.12273
LJ           6.16029         3.20846         1.49378
LJ          -4.94836         1.70986        -6.44876
LJ           6.14169        -2.94535         4.51647
LJ           -3.6992         -2.8128        -3.44692
LJ          -4.50839        -3.98482        0.920124
LJ          -1.24519         5.33526         2.77014
LJ           -1.5744         4.75412        -2.02989
LJ          0.727049         5.69402       -0.300835
LJ            3.1651        -4.34406        0.465138
LJ          -5.09149        -5.99749        -1.44777
LJ           2.01271        -0.48195         5.42131
LJ           2.30974         4.94573        -3.69723
LJ          -1.96194        -3.46158        0.870245
LJ           5.22305         1.94046         6.33859
LJ          -3.40247         3.42749        -6.24114
LJ          -3.95644         5.46174       0.0853098
LJ           -4.5906         5.70295         1.87903
LJ          -3.91822        -3.79504        -3.85939
LJ          -1.88356        -2.88579        -5.54149
LJ          -4.69374          3.3955        -6.25538
LJ            5.6359         5.42341        -1.52539
LJ           -2.4303         1.42306         1.21061
LJ          -1.38838         1.37987       -0.909494
LJ          -1.37089       -0.597168        -2.31145
LJ           4.17984        -5.52455          1.9797
LJ           2.90331         -2.7065         3.74841
LJ          -4.81906         3.21283        0.854249
LJ           2.83792        -5.00994        -5.94594
LJ        -0.0427061          5.9868        -4.35163
LJ           3.25382         3.48402         1.74352
LJ          0.841675        0.181783        -5.41158
LJ           1.92493        -2.21191         3.51265
LJ          0.305187        0.705579          0.9877
LJ          -5.60034          1.3753         5.01397
LJ         -0.394913       -0.288389        -5.23123
LJ          -4.33169        -3.69186        -5.91544
LJ          0.777353         4.61155         3.60281
LJ           5.95686         1.28411         -3.8613
LJ           4.46738         -4.6202        -6.01717
LJ          -3.46806        -2.86082         -4.6134
LJ          -4.31171         2.35555         5.15685
LJ           4.10189         4.37631         3.29688
LJ            -1.705        -6.05631         1.46969
LJ          -4.15423        -2.03599        -2.68965
LJ         -0.207074       -0.566131        -6.36868
LJ         -0.510891        -3.50952       -0.611735
LJ         -0.302159         2.34895         4.67994
LJ           -1.4781         5.71223         3.82578
LJ            3.6935        0.671325         5.64409
LJ          -4.06514        -6.39299        -0.30424
LJ           4.40504         2.11769        -5.56627
LJ          -3.18659         0.80831         1.63646
LJ           1.68569        -4.03124        -3.56824
LJ          -3.72823        -5.20141        -1.69082
LJ           1.23419         3.93652        -2.92988
LJ          -1.86755        -2.97076        -4.13066
LJ           3.02312         5.47019        -1.72572
LJ          -4.70908         3.59167         5.40283
LJ          -3.49631         2.33489         1.98947
LJ        -0.0718917         5.07805        -4.82408
LJ          0.250205         4.34234         2.73598
LJ          -5.65438         5.47559      -0.0773748
LJ           2.19267         1.74575       -0.570611
LJ        -0.0432948         5.32544         5.40455
LJ          -5.81399         2.89262        -3.02368
LJ           4.63994          4.5995        -2.74907
LJ            3.7307         5.04365        -5.91046
LJ          -1.32042        -4.06831       -0.750836
LJ            4.8064      0.00444951         2.25253
LJ          -6.35981         1.10336         1.41358
LJ          0.444718        -1.14766        -2.04856
LJ             3.529         4.65054         -4.0604
LJ           1.38412         1.68768         5.38579
LJ          -5.46924        -3.92876         -1.5333
