108
#Comment!
LJ           2.72535         5.91248          -6.273
LJ         -0.172615        -2.49593         6.19541
LJ           -4.2048        -2.15311        -4.08353
LJ          0.206888         -3.0378        -5.14639
LJ           6.26364        -2.49919        -6.45483
LJ           5.53286        -1.53194         4.26447
LJ           6.27277        -4.53132        -1.95962
LJ           -5.3687         5.01008        -1.36959
LJ          -3.33264         4.35188         4.97636
LJ           4.30811        -5.33106         5.43244
LJ           4.81654        -5.79843         6.45068
LJ          -4.13627         5.08768         -3.4648
LJ           2.08607        -1.00318        -5.23418
LJ          0.387597        -1.10162        -6.27469
LJ           2.21193         1.29373        -2.43867
LJ           1.64498        -4.25002       -0.874904
LJ           2.88039         1.35604         5.84019
LJ           4.84387        -3.73368         5.84751
LJ           1.44747        -3.76155        -2.45091
LJ           2.36646        -6.29498         4.09048
LJ         -0.691591        -3.35122         6.08729
LJ           1.71125         5.39853         2.63165
LJ         -0.988824        -1.39952         -4.0927
LJ          -4.23496          -1.364        -2.19339
LJ          0.512619         5.93559         5.48211
LJ          0.864932         2.05523         -5.9081
LJ          0.303322        -4.21636        -4.19495
LJ           1.30196         1.08854          6.0054
LJ          -6.15473        0.916858         4.98522
LJ           5.08655         1.71776        -1.65405
LJ          -5.55782         3.59249        -3.28448
LJ           6.08827         2.55933        -1.29274
LJ          -2.49699         2.33549         4.42111
LJ         0.0316241         2.10896        -4.57086
LJ          -3.58016         6.09435         4.21774
LJ          -1.67474        -0.73434        -2.49302
LJ            3.1051         4.66382        -1.92508
LJ          -2.13629        -5.72004        -3.54028
LJ           2.83245        -4.14321       -0.268043
LJ          0.504374        -5.48073       0.0175855
LJ           6.35034        -6.09343        -1.71975
LJ           4.41928          -5.781        -4.70575
LJ          -3.73037         4.71722        0.370768
LJ           2.77866         5.70168         3.76153
LJ          -5.17413         5.77451        -6.23942
LJ            5.1256        -5.12436         3.80384
LJ          -5.23841          3.8344        -1.02907
LJ          -4.29376          6.4005         0.14679
LJ           2.37085        -2.63898         -3.3564
LJ           1.92428         2.53379         5.63454
LJ          -1.65873         5.87853         1.57996
LJ         -0.708242        -1.10476       -0.468722
LJ         -0.850257        -3.26173        0.320168
LJ           5.32236         1.63864      -0.0420565
LJ           5.45864       -0.960562       -0.405049
LJ           5.35367         3.32487        -1.72666
LJ           1.40054        -3.91653         6.46165
LJ          -4.92062        0.586317        -2.77662
LJ           4.91542         4.10915        0.672631
LJ          -1.70362        -5.66854         -1.2134
LJ          -4.17559         4.61374        -1.60783
LJ          -5.67648         1.41153          2.8273
LJ          -2.54794        -5.49561        -2.34933
LJ          0.450332          1.4287        -3.69458
LJ           4.26076         6.05808        -2.53474
LJ           -4.6697         4.37236          1.9255
LJ           6.11517         4.86544         4.38602
LJ           4.53366         1.43042         1.01812
LJ            5.4346         5.72295         5.01462
LJ           2.05377        -1.04998       -0.797247
LJ           5.54201         5.42381        -2.29261
LJ         -0.529362          4.3639        -2.27628
LJ           1.26921        -5.90717          4.2257
LJ           4.56304        -3.41128        -1.90933
LJ          -1.67145        -5.51956         3.43207
LJ           2.91443         2.72199         4.36477
LJ           2.77715        -5.32751         3.35777
LJ           4.12335        -4.71099         3.19179
LJ          -1.54563        -3.89993         1.81365
LJ           3.68736        -2.40239         3.24094
LJ          -1.88007         5.85548         3.50842
LJ          -4.35551        -5.83241         2.03038
LJ          -1.44206        -4.06907         4.65924
LJ          -4.62669        -6.40567        -5.60641
LJ          -2.10148         5.44102        -3.84423
LJ          -1.40979        0.509972         1.47237
LJ           2.56277         4.45848         5.69323
LJ          -0.95056        -1.17759          4.2376
LJ          -3.07354         2.49562         3.23006
LJ            5.9321        -1.23584         5.64533
LJ          -6.44627         2.53201         1.63474
LJ           6.44512          -4.455         3.88635
LJ          -1.54328        -2.40056         1.65281
LJ          -4.04851         1.05167         2.69052
LJ          -3.62076          1.4115         3.52813
LJ           4.07134         2.86304         5.79983
LJ          -3.50676         2.88806         5.73496
LJ          0.736998         5.85681        0.496365
LJ          -3.14834        -6.14412         5.30358
LJ          0.919836        -2.53116         4.36508
LJ           1.28707        -2.07035         6.25226
LJ          -2.35366         1.32196      -0.0307888
LJ            5.9637         2.28656         5.96979
LJ           5.14658        0.831803         4.71416
LJ          -2.47051        0.107711         2.54833
LJ           1.57736         2.78943         2.83558
LJ          -2.37339         4.77984         5.80092
LJ          -3.24169       -0.416459         3.29614
