108
#Comment!
LJ          -3.98563        -3.47596         3.55145
LJ           3.01215       -0.986184         1.00095
LJ          -2.47426         1.94317       -0.252233
LJ          -2.98423         3.96693       -0.845077
LJ          -4.63277         3.85657         1.18226
LJ          -2.98658        -4.90963         2.76549
LJ          -1.28694        -5.90419        -2.19027
LJ         -0.844102          -2.429       0.0338032
LJ           2.90674        -1.87505       -0.573702
LJ            6.2592        -2.20312        -2.67287
LJ           4.28775         3.95372        -2.91104
LJ           5.27094        -5.25237       0.0604124
LJ           0.47464        -4.59015        -5.52455
LJ          0.528135        -3.46043        -2.67182
LJ           5.88838         5.31476        -6.35673
LJ          0.991891         4.01614         2.21941
LJ           1.39998         1.94015         5.64169
LJ          -3.67496         1.92184          4.6216
LJ            2.3822         3.70841        -5.43305
LJ           0.11925        -4.04523         3.83458
LJ          -4.24322        -2.73552        -6.08485
LJ           2.02202         6.27879         4.24764
LJ         -0.413341        -2.62526         4.87158
LJ           3.63791        -1.27719         5.79328
LJ          -4.14919          5.6748        -4.14516
LJ           6.32317       -0.810328        -1.53309
LJ         -0.229572         5.84983       -0.126953
LJ           2.52785         5.90866        -1.40629
LJ          -2.93622        -3.11352         1.57665
LJ           1.47433           5.957        -1.16468
LJ         -0.334901         1.43792         6.27833
LJ           4.24759          -5.549        -2.85524
LJ           2.53393        -3.04506         2.65581
LJ          -3.49093         1.02437         5.46455
LJ          -5.97697        -3.12602        -5.04535
LJ           5.57158          3.9376         3.57434
LJ           5.81957         2.91142        -2.34983
LJ           4.80414        -3.22739        -6.03759
LJ          -6.40738         6.34504       -0.380923
LJ         -0.686453         -1.1894        -4.63884
LJ           5.45475        -2.48385        -5.09774
LJ           5.63582        -5.81431        -1.03089
LJ         -0.705484        0.759705        -4.99345
LJ          -5.99019         5.48859        -0.76446
LJ          -4.98738        0.486715         4.07347
LJ          -1.97246        -5.29532         -2.8421
LJ          -5.79525        -5.72224         2.64197
LJ          -5.85735        -1.84182        -2.29141
LJ          -1.66939        -5.35877        -1.34231
LJ            4.1412        -4.56486        -5.25106
LJ          -3.29844        0.234881         4.52181
LJ           5.52729        -1.29874        -2.53358
LJ           1.27882        -3.33888         4.84416
LJ          -1.35131         4.65373         0.13792
LJ          -2.75505        -6.27379       -0.703013
LJ           1.85533         1.74871        0.423229
LJ          -1.22779        0.870409        -1.72588
LJ          -5.94237        -6.15229        -5.33586
LJ          -1.85846         3.79847        -3.20113
LJ          -5.68023        -4.52741        -3.28866
LJ           2.98717         1.15815         1.13789
LJ          -5.57474         3.90688        -3.57395
LJ           6.17833         -4.2708        -4.42128
LJ           5.32533         3.54739        -3.31666
LJ          -1.99742         3.66711        0.652038
LJ         -0.768266        -3.44941         4.21844
LJ           3.18901         4.48559          4.8523
LJ         -0.450158         1.04307         5.15295
LJ           1.55605         -2.0568         1.73941
LJ           6.41444         6.02644         1.58279
LJ          -4.80096        -3.48388        -4.41005
LJ          -3.49002        -5.29737        -3.22378
LJ            1.8472        -2.10113         6.15613
LJ           6.27634       -0.268634         4.10172
LJ         -0.357024         5.72541        -4.95096
LJ           6.27878         2.87751           1.116
LJ          -5.07419         2.47475         5.26734
LJ          -6.03738         4.62641        -2.83202
LJ           1.11782         1.23991         3.30316
LJ           4.90159         3.59713         -4.6772
LJ           0.59062         5.78997        -3.81938
LJ           2.22555         4.93256         5.34809
LJ          -5.42835       -0.523837       0.0607142
LJ           4.91665         6.36083         4.28814
LJ           1.09308        -4.87989        -3.32101
LJ           0.16428         5.13354       -0.774754
LJ          -1.59166        -6.42057        -4.14166
LJ         -0.711644        -1.79392         2.29345
LJ           6.31513        -3.89018        0.192598
LJ           4.04132         5.31357         1.96607
LJ           3.76585        -6.07727         1.10658
LJ           3.74933        -4.00702       0.0919679
LJ          -4.77896        -6.29249        -1.69023
LJ         -0.659401         3.34815         1.89563
LJ           4.76717        -5.58222        -5.62469
LJ           4.41726       -0.160126        -0.97266
LJ           6.06946         5.16799        0.910674
LJ          -2.68296         3.46361        -4.54607
LJ          -5.85086         -6.2839         4.76363
LJ           3.65117         2.13847        -4.01575
LJ          0.663323        -2.44048         5.97922
LJ          -1.31123        -4.88176        -3.42986
LJ           -5.8088         3.23872        -6.00515
LJ           1.60219        -2.11723       -0.804671
LJ          0.875299        -2.67514         2.20938
LJ          0.989035         4.34995         3.68369
LJ          -5.77049       -0.987947         4.31409
LJ          -2.51877        -2.08375        -4.10025
