108
#Comment!
LJ           6.01113        -1.40495       -0.898003
LJ         -0.153733        -3.36373         2.19373
LJ           4.99163         -6.2845        0.969878
LJ           4.67032         3.57145        0.584965
LJ          -3.67716        -3.97708         1.76865
LJ          -1.33856         3.68953         5.44805
LJ           5.94582         3.46357        -5.09731
LJ           -6.1419          3.2274         1.43566
LJ         -0.978451       -0.538429       -0.885739
LJ          -2.41274         4.96122         4.66279
LJ         -0.219018        -1.40409         3.93955
LJ          0.792046        -3.29745         4.38339
LJ           5.26291        -5.78339        -1.33338
LJ          -3.99591        -3.37935         5.71501
LJ          -5.26767        -5.26599        -2.44473
LJ         -0.354047         5.74629         5.72722
LJ          -4.95072        -3.64176        -3.18018
LJ            2.5485         3.84753         5.38759
LJ          0.971366       -0.515938       -0.746203
LJ           -1.9586         5.00714       -0.842304
LJ          -3.92432         5.25468         4.60134
LJ          -4.63181         3.98079        0.922082
LJ          -3.42857       -0.248231        -1.72975
LJ           5.41958         2.52979        -5.01222
LJ           5.00411         3.89564         5.30225
LJ          -3.29519         1.52145          5.4112
LJ           5.25962        -0.81847        -2.80129
LJ          -3.24507         2.27519         6.18958
LJ          0.712774        -3.79861         2.60142
LJ          -2.63407         -0.9712        -1.43834
LJ         -0.579545         4.40867         5.97461
LJ           5.52749        -2.54927         -1.8886
LJ           6.23519        -4.09757        -4.21379
LJ           4.44467        -1.53613         2.57484
LJ           5.62628        -2.76028          3.5798
LJ          -6.36783        -2.60382          1.4625
LJ           1.05273        -1.41162         6.34302
LJ          -2.92184         -5.3278         4.38199
LJ          -5.00966          2.1419         1.80394
LJ          0.771644       -0.420562          3.6118
LJ          -3.43897         4.95615        0.691068
LJ          -1.02727        0.214723        0.782207
LJ          -1.86186       -0.660537        -4.45458
LJ            5.4126         1.44774       -0.179992
LJ          -3.23116        -3.21123         4.68417
LJ          -3.21128         1.84601        -1.12724
LJ           5.52859         4.50988        -2.54657
LJ          -3.94104       -0.726475        -2.48107
LJ           4.63201        -5.80272        -3.49502
LJ             4.955         5.91992         2.42925
LJ         -0.293742         2.07071        0.010024
LJ          -5.68183        -5.21514         3.70642
LJ           -1.2395         1.75994      0.00234697
LJ           6.08924        -1.71704         3.02805
LJ          -4.48807       -0.727362         4.00816
LJ           1.94896         3.44212         -4.0244
LJ           4.05962         4.99385         4.87863
LJ         -0.630383       0.0643504        -2.82987
LJ          -2.72743        -5.25476        -6.05888
LJ           2.88531        -3.75542         6.23909
LJ            3.8509         3.35817          2.1692
LJ           1.47079          4.5677         -1.1023
LJ          -3.71376          3.2343       -0.263478
LJ         0.0997735         3.06936         4.41936
LJ         -0.500492         1.95361         -1.2455
LJ         -0.110861         2.04492         6.39255
LJ          -5.98567         2.38666         -6.4579
LJ           1.96252         6.36097        0.110405
LJ          0.345255        -4.94547          5.3701
LJ          -3.11213       -0.288067        -4.27275
LJ           3.08744         -3.4125         3.93527
LJ          -4.18865       -0.762899       -0.974634
LJ          -1.27825        -3.41643        -1.68451
LJ          -3.94744         -5.8165         4.03359
LJ          -3.54035         5.32188         5.49838
LJ          -1.28885      -0.0210618         5.24402
LJ          -4.44035        -5.00425        -3.18018
LJ           4.20095        -4.35576        -3.56035
LJ          -3.57834        -2.92655        -2.46453
LJ           1.92415        -4.41532        -4.99853
LJ          -1.78416        0.368314         2.75177
LJ          -4.50787         4.32776        -5.86747
LJ          -5.31392       -0.488131        -1.55588
LJ           4.59566         4.89393         3.93847
LJ           1.06631         6.22011        -1.76833
LJ          -5.32803         3.69434         2.37034
LJ           5.44958        -5.09969        -3.52906
LJ          -4.32252        -3.33026         2.68167
LJ          -5.43333         5.06608        -3.54222
LJ           6.35689        -1.92295         6.35174
LJ         -0.275309      -0.0862221         1.59493
LJ           1.47134        -4.23697        -1.56388
LJ           2.20476         5.05116         6.30873
LJ          -1.89494         6.11928        0.527022
LJ          -5.62044        -1.52316      -0.0911364
LJ          -5.43791         6.29715        -0.80219
LJ          -3.17132        -2.20172        -1.46903
LJ           2.53379        -5.89597        -2.74941
LJ           -1.2079         5.61327         6.16473
LJ           5.94281         4.87107         1.07065
LJ          -5.55077        -2.04701         3.94362
LJ           1.90978         3.12644        -5.20159
LJ          -2.98859        -1.18886          4.3124
LJ          -5.86501        -2.42764         5.64879
LJ          -3.42071        0.790445         2.24237
LJ           1.36974        -5.60504        -3.14841
LJ          -4.50221         2.06057         3.13024
LJ           6.18759        -4.72917        -5.95766
