108
#Comment!
LJ           2.44903        -4.23149         2.21619
LJ         -0.846937         4.08352        -5.73902
LJ          -4.66843         4.43081        -4.65186
LJ         -0.429534        0.167697        -6.39366
LJ          -4.11838          5.3885        -1.02616
LJ          -2.43441        0.850419        -3.62191
LJ           2.43156      -0.0834098        -4.13573
LJ          -3.91758         5.83782        0.357203
LJ           3.52256         3.69333        -1.09642
LJ           2.07452        0.212107        -5.04916
LJ          -0.95172         1.56725        -5.87599
LJ           4.56534         5.33981      -0.0962765
LJ          -0.19295         -6.0024        -3.93365
LJ           1.88253         5.42889        -3.14971
LJ          0.891341        0.771481        -6.03884
LJ           5.66289        -2.88259         6.18705
LJ            4.5007        -2.71383        -4.73916
LJ         -0.415344        -3.05719        0.449551
LJ            4.2357        -1.74904         1.41739
LJ          -1.73758       -0.928228          2.4225
LJ          -1.90965          1.1737        -6.03845
LJ          -5.24148        -4.72063        -2.48131
LJ           5.81986         3.41892         2.46769
LJ           3.44835        -3.12929         3.90518
LJ           5.18544         1.86503        -4.04215
LJ           5.52737         6.06743       0.0346893
LJ           5.21999        -2.82897         4.63913
LJ         0.0143219        -5.03866        -6.15181
LJ          -4.72408        -5.22209         3.45284
LJ           1.87184         3.23893         4.97662
LJ           1.98898        0.184873        -2.48944
LJ           1.54221         1.89271         2.00972
LJ          -1.46294         4.83281        -3.32523
LJ          -2.22147         -6.2981         4.59195
LJ          -1.09118         5.55238         1.05861
LJ          0.554363        -5.78594        -5.23136
LJ          -2.01134         2.85444         0.35328
LJ          -2.97763        -1.03263        -6.20367
LJ          -4.44885         -3.3517         3.09598
LJ          -4.35535       -0.456221        -5.15091
LJ          -3.86359        -2.72927        -5.97371
LJ          -1.75523         1.73818         1.30445
LJ         -0.247315        -1.48793        -3.51981
LJ            -5.695        -5.64253         5.17201
LJ         0.0261172         5.05316        -5.25419
LJ          -5.38226         5.76461         1.56981
LJ          0.423485        -3.04052        -5.63474
LJ          -4.64048         -6.1005       -0.581009
LJ           1.52864        -5.17261         5.01214
LJ         0.0363119         2.51566         1.17492
LJ           3.14479        -1.03473         1.87828
LJ          -4.53403        -4.30787         1.18385
LJ           4.62607        0.972428         4.66976
LJ            5.7826        -4.47594        0.416734
LJ          -6.24998        0.390301       -0.770913
LJ           3.54826       -0.273541        -4.79513
LJ           5.89523        -6.05919         -4.8382
LJ           1.14082        -3.67981        -1.98337
LJ           4.04256         4.39152        -3.20056
LJ          -6.35438         4.59004         4.76851
LJ           5.96174         2.64199        -2.91528
LJ           2.32941          6.3857         1.47673
LJ          0.388043        -4.99457        -3.56418
LJ          -1.94917         -5.4785        -1.29583
LJ           -1.3401          4.4221         4.68352
LJ          -1.27803        -4.34115        -3.72238
LJ           4.67599        -3.97891         6.07319
LJ          -1.12716         2.61521         2.97569
LJ          -2.28215        -1.81689         1.64725
LJ          0.606292         5.84739         6.16406
LJ           1.90737         1.17648        -3.69498
LJ          -3.42996        -3.96996         2.30952
LJ           4.04168         2.43065         3.17838
LJ           -6.1508         4.84064        -5.20482
LJ          -3.48598        -1.39712        -3.58424
LJ          -1.07931         3.81371        -2.75704
LJ          -2.88158        -5.52828         4.03354
LJ          -1.05974        -0.45296        -3.04711
LJ           3.15831         1.39943         5.79093
LJ          -1.09758        -1.76262        -2.24388
LJ          -6.41068        -5.59433         -1.2607
LJ          0.262908        -5.10539        -4.57671
LJ          -2.65787         -5.0172       -0.565424
LJ           2.05237         1.75965       -0.951175
LJ           4.10827        0.182631         4.31941
LJ          -5.49327          4.4583         6.35363
LJ           -2.3258        -3.28097        -1.48409
LJ          -2.90649        -4.22607         4.11944
LJ            1.8032         3.29192        0.242709
LJ           4.38794          1.3186         1.98658
LJ            4.5496       -0.481169        -3.99841
LJ          -2.39295         2.75458        -2.29861
LJ          -1.03677        -2.82683         4.64514
LJ           5.17922         2.89019         4.43027
LJ           5.28168        -1.47046        0.465242
LJ          -4.56524        -4.34726         5.41249
LJ           2.41169         4.53253        -3.99845
LJ          0.702617        0.340422         -2.3726
LJ          -4.00868        -6.26363        -4.14473
LJ          0.033135         4.11722        -2.54349
LJ           6.32924         4.24681         5.89832
LJ           3.36149         4.22095        -6.24006
LJ           1.37589         -2.4759         1.12923
LJ          0.753004        -2.95867        0.302946
LJ          -5.94625         3.66472         -5.5621
LJ          -3.98389         6.34429         4.43537
LJ           5.79012         3.06074        0.394746
LJ           5.66019         4.26006        0.279054
