108
#Comment!
LJ          -4.10514       -0.075733       -0.708618
LJ            0.6454        -3.26318        0.605676
LJ           2.67261        -3.52382         1.65059
LJ           3.28282        -3.19321        -1.68777
LJ          -1.41089        -3.58838         4.40268
LJ           2.16674         1.93501         4.42414
LJ           4.08599         2.82903         4.21903
LJ           5.61214       -0.707945         1.85606
LJ          -2.71324        -1.02999          2.3335
LJ          0.936681        -6.45969        -1.31706
LJ         -0.765775        -1.61755       -0.565035
LJ         -0.134321        -4.37986        -3.65852
LJ          -3.12732       -0.164976        -1.19104
LJ          -5.07873        -2.55816         4.42153
LJ          -3.11061         4.82666         6.36762
LJ          0.382531        -3.75478         4.71997
LJ           3.90117        -4.01528        -4.00219
LJ           -6.2976         2.76314         6.10121
LJ          -3.60959         0.85086        0.108764
LJ         -0.467203        -4.58206        0.524892
LJ          0.462956        -3.64697         5.99337
LJ          -3.96499          2.4978        -2.41551
LJ          -5.70883        -1.06151        -2.49291
LJ           3.92227         1.84704        -6.15949
LJ          -1.63151        -2.09158         6.01506
LJ          -5.81085        0.931571         3.80023
LJ          -2.35894        -2.57088        0.266825
LJ          -3.62381       -0.608733          5.6328
LJ          -1.24537        -4.08395       -0.556245
LJ           -1.6882        -2.57841        -1.54592
LJ           2.07032         2.06286         5.53882
LJ          -5.72788         1.79898         6.03801
LJ           5.34672         -2.6959        -3.94448
LJ          -6.16708        -4.57731       -0.427803
LJ           5.23992         5.44792         4.02196
LJ          -5.36088       -0.227764         5.36533
LJ           3.99286         1.27008         4.24707
LJ         -0.938258         -2.6055         3.75384
LJ          -5.10118         5.92689         1.06061
LJ          -1.10865        -4.34391         2.91374
LJ          -1.42518         2.41981         6.08079
LJ           5.47003         2.76337       -0.187811
LJ          0.137473         -5.0145        -1.54599
LJ          -4.07453         5.56041         2.44907
LJ          0.857033         -1.3026        -1.09146
LJ          0.653352        0.931695        -2.96964
LJ          -3.20312        -5.11124         6.02413
LJ          -1.71625       -0.450061        -6.37785
LJ           3.63949        -6.11795        -1.52827
LJ          -1.21833        -5.95703         4.44097
LJ           2.38683         3.71458        -5.25575
LJ          -5.77871        -3.73326        -6.10147
LJ           -2.4642         5.22392         5.41102
LJ            5.8133         4.91052         2.39878
LJ          -2.82851        -2.77379         2.82552
LJ        -0.0250399        -2.76673          4.4225
LJ          -4.55692         5.24628         4.94536
LJ          0.647677         2.74326        -2.68639
LJ          0.419308        -2.46511        -5.93107
LJ           3.02243         6.20448         4.66274
LJ          -6.31792         2.46102         1.08025
LJ         0.0714458        -1.54964        -4.77277
LJ          -5.07517        -1.00616         -3.3764
LJ           3.68141         4.06159         3.87093
LJ          -1.62625         1.44651        -1.58096
LJ          -5.11065        0.650445        -2.68426
LJ          -1.09865        -2.72482        -2.41702
LJ        -0.0576797         5.52734         1.01545
LJ          -5.93392        -3.14053        -1.35019
LJ           5.35734        -2.89227        -4.96984
LJ                 6        -2.22263         2.08038
LJ           6.35986       -0.596727        -1.50325
LJ           2.82621        -5.25491         1.58981
LJ          -4.60793        -4.01898        -5.46715
LJ          -3.40407        -1.06041        -5.99441
LJ           1.56703         1.99883         3.57488
LJ          -4.26145         4.02432         6.09429
LJ           5.86785        -3.40394        -3.21226
LJ           -2.7664         4.89075         1.33508
LJ          -5.75524        -3.72219        -2.96874
LJ         -0.895362         2.33061        -3.09078
LJ          -5.55627         4.96829         3.31896
LJ          -4.02936         6.06752        -1.19781
LJ          -3.90495          2.3827         4.84198
LJ           2.18775        -1.65757          -1.309
LJ          -4.80726         2.37229         3.54338
LJ           2.05277        -3.53128          2.8458
LJ           -2.1623        -5.74466         3.18837
LJ         0.0717952        -4.03139       -0.768189
LJ           2.72654        -2.08842        -5.18905
LJ           3.92751        -0.91102         0.88789
LJ        -0.0997365        -5.06258        -5.40349
LJ          0.569436        -4.27864         1.44834
LJ          -1.62278         5.99877        -5.00909
LJ          -3.43764       -0.277352          2.3652
LJ          -4.61954         4.79542        -2.05206
LJ          -3.44888        -3.62946       -0.509307
LJ           1.58897        -6.02807        -4.36562
LJ          -2.17223        0.418279         -2.7931
LJ          -4.60144         5.36483       -0.856309
LJ         -0.987522          5.8109        -6.21859
LJ           1.13648        -6.00457         5.79965
LJ         -0.491024        -3.95534         3.97701
LJ            5.9484         1.67107          4.0783
LJ          -4.09223         6.01531        -5.37613
LJ           2.08736         5.02575        -3.36067
LJ          -6.25372         6.03624        -2.09841
LJ          -4.53723         3.61472        -3.95718
