108
#Comment!
LJ          -3.26978          1.0534         -1.7882
LJ           1.20302         1.68251       -0.457414
LJ          -2.04366         4.57413         1.87365
LJ          0.945486        -1.90538        -5.32418
LJ           0.91754       -0.402685         4.43717
LJ          -5.96459       -0.108667         4.04259
LJ           2.44829          4.2556        0.831459
LJ            4.4417         4.21839         1.65152
LJ          0.493286       0.0659378        -3.98373
LJ            -5.798        -4.92046        -6.21671
LJ          -5.12403        -4.84155        -4.35963
LJ            1.3895         4.92731         1.26203
LJ          0.181944        -5.26639       -0.502887
LJ           5.34375        -2.45003         1.72438
LJ          -3.28045         5.98189        -1.89823
LJ           2.83344         2.06663        0.808821
LJ         0.0660383        -3.31189        -1.82441
LJ           6.29424        -6.04368        -5.44213
LJ           6.05046         3.35341        -1.05329
LJ          -1.26749        -3.26162        0.292442
LJ          -2.27002        -2.13592       -0.207218
LJ          0.609863        -1.29548        -3.54875
LJ          -5.49389      -0.0901333        -3.59823
LJ           4.03144         2.23355         5.82924
LJ            5.4024         3.36967         5.15826
LJ           5.07975         3.64383          1.2214
LJ            2.9323       -0.105571         3.07993
LJ           -5.7683        -4.05189        -2.83295
LJ           2.24801         4.84758       -0.570284
LJ          -4.96248         3.79864        -3.31456
LJ           5.74165       -0.784396         2.49098
LJ          0.540308         1.23998         3.41418
LJ          -5.25541        -2.59739        -2.82127
LJ           5.18142         2.47893         1.36321
LJ           6.06898         3.53445         1.88599
LJ          -4.85138         1.57982         -6.3303
LJ           6.00304        -2.28717         4.34432
LJ          -3.29833        -2.85129        -3.54174
LJ          -4.57719        -4.10463        0.892479
LJ          -1.08798         5.54816         2.55627
LJ          -1.46874         4.47403        -2.10555
LJ           1.33864         5.18419       -0.353699
LJ           3.25044        -5.02667        0.862124
LJ          -4.82278        -6.06504        -1.24094
LJ           2.01017       -0.513954         5.79831
LJ           1.84111         4.32703        -3.45774
LJ          -1.81907         -3.4989         1.17233
LJ           4.80499         1.60807         6.44505
LJ           -3.7257         3.66149         -6.0141
LJ          -3.62631         5.55806       -0.383546
LJ          -4.80699         5.97883         1.75226
LJ          -3.75379        -3.85852          -3.835
LJ          -2.17665         -3.0217        -5.39116
LJ          -4.87684         3.64118         -6.0654
LJ            5.9874         5.76255        -2.08083
LJ          -2.06166         1.27465         1.33732
LJ          -1.57486         1.84683       -0.518989
LJ          -1.43624       -0.208891        -2.27605
LJ           3.92199        -5.35266         1.99334
LJ           2.75346        -2.88458         3.86199
LJ          -4.28292         2.96902        0.615298
LJ            2.4519        -5.03495        -5.96976
LJ          0.758162          6.4367         -4.3355
LJ           3.31226         3.63761         2.00453
LJ          0.589029        0.772492        -5.03562
LJ           2.27036        -2.09561         3.05117
LJ            0.2774         1.35502        0.977731
LJ          -5.19795         1.59704         4.78151
LJ        0.00613666       -0.330473        -5.68848
LJ          -3.74427        -3.67874        -6.13361
LJ          0.328564         4.73722         3.67508
LJ            6.1933         1.18192        -3.86849
LJ           5.09345        -4.94765        -6.25384
LJ           -3.3578        -2.92157        -4.77984
LJ          -4.27875         2.17196          5.2448
LJ           4.32424         4.45102         3.16251
LJ          -1.94167        -6.31315         1.58937
LJ          -4.24452        -1.96814        -2.53695
LJ         -0.459032       -0.384694         6.07473
LJ         -0.423379        -3.18883       -0.946025
LJ         -0.167105         2.47848         4.34598
LJ          -1.32433         5.85888         3.67224
LJ           3.39413         1.12336         5.98508
LJ          -4.34628        -6.27746        0.524275
LJ           4.76527         1.87265        -5.37523
LJ          -3.43773        0.835439         1.72565
LJ           1.77544        -3.97736        -3.91664
LJ          -3.67729        -5.04331        -1.43704
LJ           1.03073         3.91481        -3.13634
LJ          -1.45562        -2.87948        -4.11772
LJ           3.03293          5.0841        -1.50157
LJ          -4.48112         3.93121         5.68797
LJ          -3.22906         2.15787         2.19935
LJ         -0.256592         4.73575        -4.44649
LJ          -0.11405          3.9963         2.78226
LJ          -5.58655         5.43149        -0.22923
LJ           2.54278         2.16326       -0.196747
LJ         0.0607265          5.4051         5.60098
LJ          -5.62177         2.66711        -3.03233
LJ            4.8612         4.51275        -2.59259
LJ           3.42786          4.9016        -5.62659
LJ          -1.58466        -4.00637        -1.50222
LJ           4.37372       -0.426174         2.54596
LJ          -6.37834         1.38269         1.25074
LJ           0.21372       -0.927528        -2.31898
LJ           3.34132         4.58113         -4.1141
LJ           1.69641         1.99633         5.61548
LJ           -5.3503        -3.82941        -1.84455
