108
#Comment!
LJ          -6.10534       -0.917789       -0.362101
LJ          0.224458        -3.16549         1.20327
LJ           5.43506        -5.36103         2.65387
LJ           4.46696         5.19639       0.0728297
LJ          -3.38373        -4.70931         3.25662
LJ          -0.23141         3.91298         5.24835
LJ           5.37149         3.26726         -6.0124
LJ          -5.81612          3.0937         2.56816
LJ          -2.37176        -1.92725        -2.10907
LJ          -4.98582         5.54761         6.45374
LJ          -0.21116        -1.43384         5.99921
LJ          0.551344        -3.49898         5.65879
LJ          -6.27803         -4.5353        -1.59473
LJ          -4.01318        -2.64732         5.38944
LJ          -4.70361        -5.88778        -3.53491
LJ         -0.426959         6.34896         5.52372
LJ          -5.88977        -3.71864        -3.85808
LJ            3.7401         3.77318         5.10753
LJ           3.13958       -0.167668       -0.622052
LJ          -1.50461          5.7552       -0.399317
LJ          -6.28747          -6.418         4.32791
LJ          -4.50036         3.59927        0.205551
LJ          -3.74951       -0.739159        -1.72368
LJ           4.93386         2.07159        -5.04051
LJ           2.64817          3.2161        -6.30534
LJ          -4.06379        0.648036         4.99887
LJ           2.64959        -1.13251        -2.91455
LJ          -3.80905         2.15712         4.88478
LJ           1.27426        -3.76384          2.0163
LJ          -1.79697        -2.88577        -1.82829
LJ         0.0595855          3.4322         6.28306
LJ           -6.3305        -1.30929         -3.4096
LJ           4.78418        -4.06729        -2.79388
LJ           4.86155        -2.38738         1.82285
LJ            5.5812        -4.30657         4.84484
LJ          -6.33171        -1.75296         2.82566
LJ           1.87927       -0.704981         5.78191
LJ          -2.47093        -4.02669         4.30333
LJ          -4.83783          3.4494         1.16506
LJ         -0.479964        0.744843         3.43813
LJ          -2.86806        -6.27947       -0.964697
LJ          0.347725        0.863295      -0.0272723
LJ          -1.24026        -1.91303        -3.69393
LJ           6.22588         2.51616         1.15265
LJ          -2.05345        -2.52005         3.62827
LJ          -2.00145         2.00507        -2.03062
LJ           5.75314         5.81267        -4.88854
LJ          -4.42803       -0.548315        -3.55733
LJ           3.83615        -6.04331        -2.08118
LJ           3.33645          6.2659         3.03177
LJ          0.295116          2.3406        -1.27733
LJ           6.33375        -4.95386         3.55426
LJ          -1.74305         2.73272         1.50003
LJ           5.74335      -0.0333908         3.08135
LJ          -4.18063        -1.33806         4.04862
LJ           2.26339          4.1448        -5.87856
LJ            5.2663         5.19873         4.50769
LJ          0.131481        0.938262          -1.932
LJ           -2.7476        -4.00223        -4.55816
LJ           2.87865        -5.12836         5.04728
LJ           1.17804         3.10166         1.77914
LJ           1.63086         4.77566        -2.70049
LJ          -4.21955         2.29893       -0.905111
LJ             1.289         3.48922          4.1492
LJ         -0.884968         1.54497        -1.06413
LJ          -1.47939         1.70065        -5.48732
LJ          -4.99137         1.97764         5.84957
LJ           1.68347        -6.08362        -0.72085
LJ          -1.13665        -4.42345        -5.73285
LJ          -4.15095        -1.31304         -4.9249
LJ           4.18227        -2.62667         2.53682
LJ          -4.90339       -0.948491        -1.26108
LJ          -1.29266        -4.18231         -1.5309
LJ          -3.77577        -4.94787         4.13343
LJ          -3.67781        -5.53882         6.04743
LJ         -0.892336      -0.0963845         4.59343
LJ          -4.46671         6.28993        -4.44235
LJ           4.45028        -4.36182        -3.93733
LJ          -3.14545         -4.6655        -1.41517
LJ           0.23591        -4.95426        -5.50649
LJ          -1.73071         1.14628         4.61732
LJ          -5.15114         4.19454         6.21377
LJ          -5.60676        -1.93429        -1.10408
LJ           6.33295         3.87756         3.54226
LJ          0.182158         -5.1034        -1.20343
LJ          -5.09654         2.42588         4.78295
LJ           3.83515         -4.7418         -2.4261
LJ          -3.97451        -3.75758         2.46454
LJ           5.73293         6.12872        -2.83056
LJ           5.27954        -1.96128        -6.12995
LJ          0.526931        -2.01415         1.10069
LJ           1.18157        -4.49729        -2.63374
LJ             3.105         5.84424         5.68045
LJ          -1.68531         6.46313         3.10201
LJ          -5.37685        -1.28328         0.78375
LJ          -4.36276         5.77193       -0.920566
LJ          -2.71253        -2.53253        -1.06203
LJ           2.50273        -5.66737        -2.06562
LJ          -1.46583         3.65355        -5.27838
LJ          -6.08869         4.33193        0.885701
LJ          -4.35678        -3.33187         4.57514
LJ           1.29697         4.14729        -6.41102
LJ         -0.807103        -1.11337         3.72549
LJ          -6.07794        -1.27856         5.57695
LJ          -3.71085        -1.30131        0.604958
LJ           1.53439         5.90899        -3.03217
LJ          -4.13062        -1.14694         1.65031
LJ          -4.53784         -3.9258        -4.14982
