108
#Comment!
LJ           1.77928         1.21717         -5.5224
LJ          -5.91244        -5.69918        -4.38897
LJ          0.780824       -0.539315        -6.43826
LJ          -4.34384         5.78969         5.37652
LJ          -3.70633        -6.01772      0.00164309
LJ          -2.64759        0.541727         -5.5114
LJ         -0.902978       -0.534805        -3.66981
LJ           5.84833         4.42579        -2.55579
LJ          -1.97582        0.573737         6.11923
LJ           5.79144        -5.89352        -1.19118
LJ          -1.10723        -5.62341        -2.31475
LJ           3.35246         -1.8809         3.12183
LJ           3.01285         6.15401        -3.68024
LJ          -2.16365        -1.52997        -5.98088
LJ           1.75618        -5.15642         1.40152
LJ          -5.57387         1.68429        -6.31724
LJ         -0.910247         4.09437        -3.05397
LJ             -2.45        -3.99166         0.34256
LJ          -4.54659        -4.40483          3.7659
LJ          -2.23372        -2.68235         1.51954
LJ           1.44537        0.653556        -6.26416
LJ          -4.42286        -4.58738         5.06166
LJ          0.878869       -0.697786        -2.12152
LJ          -1.23669          1.4852         2.72025
LJ          -5.84209         -1.7457       -0.788756
LJ           2.80041        -3.31675        -2.07051
LJ           1.11343         2.86986        -5.53497
LJ           -4.6579         2.96145       -0.784155
LJ          0.207576        -2.51067         4.00022
LJ           4.14932        -1.46408        -6.15367
LJ           -4.5775         2.79297        -3.62798
LJ          -2.28849         3.23255         2.51097
LJ         -0.720247        -5.57538         3.30534
LJ           1.96577        0.455049        -2.66964
LJ           2.07802       -0.590655        -4.17115
LJ           2.59556        -1.24738         1.73586
LJ          -5.45652         2.32953         -5.2744
LJ          -4.18638        -1.09919         -3.3263
LJ          -1.30601         3.82533          6.3497
LJ          -3.99048         1.41964         1.87515
LJ         -0.926122        -2.41858         3.64417
LJ           1.58708         -0.4797         2.77108
LJ           5.20889        -1.69366        -2.87653
LJ           6.18845         6.21302         5.99941
LJ          -1.54419        -1.59573         -1.3233
LJ           4.71939        -5.10812         3.87368
LJ          -4.78644        -6.29034       -0.932948
LJ           3.11489        -2.15455       -0.110606
LJ          -5.26711        -6.21118         4.64559
LJ           1.03282         4.93282         5.93707
LJ          0.708661         5.69742        -2.25739
LJ         -0.892717         -1.2054        -4.39555
LJ           2.09806        -2.36626        -4.20419
LJ           4.20207        -2.59522        -3.25272
LJ         -0.134576        0.693149        -4.13023
LJ           6.28509        -2.21725        -1.08862
LJ           5.47735        -1.67512        -6.30624
LJ           2.40708        -4.96109        -3.93859
LJ          0.926163        -3.91933        -6.14103
LJ          -4.49862         2.33597         4.04971
LJ          -3.27285          2.4537        -4.22774
LJ          -5.34226         5.27861        -4.26981
LJ          -2.90079        -4.62169       -0.487096
LJ           6.22209         6.12371        -3.46975
LJ          -1.59877         4.89224        -1.08798
LJ          -3.77898        -5.48008        -2.50094
LJ           2.63263       -0.740963         5.95253
LJ          -3.40779         1.53806        -3.97899
LJ          -3.48171        -1.18287         3.72929
LJ          -3.39945         1.66172        -1.92768
LJ          -5.39618         3.00572        -4.44308
LJ           3.20386        0.766635       -0.436557
LJ            -2.522         3.74782         -1.8831
LJ           4.06065        -3.15183         1.71105
LJ          -1.66436        -1.52334         3.60077
LJ          -5.45289         4.62161        -2.89491
LJ          -3.04555        -1.00786         1.30821
LJ           3.45369        -3.57393         3.62444
LJ          -4.38653         1.07174        -4.57436
LJ            2.8964        -3.65591         4.72266
LJ          -2.70379         5.64304        -4.42001
LJ           3.04486      -0.0949182         3.57584
LJ           2.47418         6.43998        -1.93844
LJ           2.04111         3.34252        -4.49218
LJ          -3.26365        -5.47696         1.48012
LJ          0.632382       -0.584264         3.16979
LJ           1.38962         5.88356        -0.71595
LJ          -5.40185        -4.79545       -0.610457
LJ           2.40616        0.979394         0.38852
LJ           3.27677         3.12328       -0.728005
LJ           1.86102        0.220242         4.44572
LJ           -2.3696        -2.19273         -1.0707
LJ          -1.31785         5.27899        -4.77557
LJ          -5.29907        -1.44615        -3.93451
LJ          -3.85188          6.1527        -5.91855
LJ           4.97952         4.39962        -5.66016
LJ           3.44128        -1.87687          5.3047
LJ           3.70573       -0.901204         3.04752
LJ           2.96461         -5.6837         5.76894
LJ           2.12008        -3.69289         2.68791
LJ           1.51119         4.77855       -0.587873
LJ         -0.903828        0.699037         4.36247
LJ           6.10323        -1.10455       -0.884982
LJ          -2.33939        -6.37948       -0.801705
LJ          -1.53235        -4.21649        -5.89916
LJ           1.36803        -5.08274         6.10284
LJ           4.75616        -1.14053         3.92922
LJ          -6.06756         -5.9726       -0.683966
