108
#Comment!
LJ           4.88167        -2.32302        -2.08385
LJ         -0.924059        -3.45811         3.55439
LJ           4.71152         4.92326       -0.592075
LJ           5.34868          1.3326         1.50249
LJ          -4.65131        -2.39312        0.595117
LJ          -1.39763         4.33799         5.82194
LJ          -5.97676          3.9335        -4.03479
LJ           5.36467        0.848477       -0.603767
LJ          -1.32756         1.11978         1.38476
LJ          0.713957         4.42312         2.58846
LJ         0.0490189       -0.893425        0.767688
LJ           1.35638         -2.3391         3.10587
LJ           2.72395         5.67592        -1.99377
LJ          -4.07093         -4.9172         6.06683
LJ          -5.20082        -4.27503        -1.74049
LJ           1.20149         4.80789         5.04137
LJ          -4.29582        -1.87988        -2.26844
LJ           1.19103         3.40811         5.69331
LJ          -1.21823         -1.7643        -1.46415
LJ          -2.72065         4.48707        -1.17534
LJ          -1.41956          3.1011         2.43128
LJ          -3.31836         5.27573       0.0795361
LJ          -4.85642         2.58038        -1.06929
LJ           5.80579         2.86263        -4.14906
LJ          -5.90503         4.98406         4.32091
LJ          -2.29894         2.56746         5.95162
LJ          -3.63532          -0.228         -2.3131
LJ          -2.54805         1.87447        -4.37325
LJ        -0.0122897        -4.67803         3.11937
LJ           -2.7226       -0.166716       -0.191581
LJ          -2.31337          5.7158         4.86032
LJ           4.17402        -3.88674        0.479124
LJ          -5.03374        -3.81786        -6.24645
LJ           4.21481       -0.353165          3.7918
LJ           4.23006        -4.78033          4.0173
LJ          -6.33373        -4.35336       -0.604435
LJ         -0.195566        -2.47106        -5.79708
LJ          -3.79902         4.72076         4.64655
LJ          -4.69623        0.204154         2.98718
LJ           2.83722        -1.56836         3.82682
LJ          -4.05534          2.4043         3.20831
LJ          -4.08448        0.402471        0.654737
LJ          -2.19715        0.998675        -5.91914
LJ           4.25468        -0.07838        -2.10751
LJ          -4.35245        -2.13488         5.27668
LJ          -4.88077         1.40977       -0.176467
LJ           4.93334         4.22912        0.342933
LJ          -3.73376        -1.17515       -0.612766
LJ           5.85308        -4.87879        -5.31406
LJ          -5.76866         5.29787        0.801985
LJ          -0.71999         1.88042        0.995476
LJ           -4.0114        -5.78254         4.08378
LJ           -1.5424       -0.475734        -2.32269
LJ          -5.20233        0.557733         1.89414
LJ          -4.84121        -0.57368         4.26206
LJ           1.50317         2.22178        -2.46698
LJ           1.79077         4.66141         6.33149
LJ          -1.95915        -1.12194        -4.04916
LJ          -3.76348         5.84052         4.60097
LJ           2.84977        -1.86911        -4.80591
LJ          -5.01377          3.7917         2.48251
LJ           1.18866         2.71788         1.25133
LJ          -2.67931         4.18047       0.0604869
LJ          -1.60794         2.62749         4.84713
LJ          0.291682         2.69208      -0.0593773
LJ           1.84867         2.79367         4.76385
LJ           5.74345         3.23378        -6.12991
LJ           2.82721         5.34221          2.4878
LJ           2.58298        -5.57981         2.63906
LJ          -2.11919         1.35715        -2.64122
LJ           1.38022        -4.56492         5.99429
LJ          -3.82866         1.31076        -1.28028
LJ          -1.11114        -2.69918        -1.80315
LJ          -3.78783         6.01397         3.59528
LJ          -2.35683         2.99373         -5.6563
LJ          -1.89651      -0.0406921         5.84759
LJ          -4.55914        -4.44332       -0.590177
LJ           4.75741        -5.19723        -2.97286
LJ          -4.50141        -2.11908        -5.82739
LJ           4.19352        -3.76325        -4.14798
LJ          -1.57498       -0.836226       -0.177084
LJ          -3.37295         4.84797         -5.3098
LJ          -4.42163        0.814959        -2.34665
LJ           2.51304         6.16472         3.88795
LJ           1.81928         4.09554        -3.30274
LJ          -4.01684         5.31763         2.21616
LJ          -5.99195        -5.40476        -5.22187
LJ           -4.3329        -3.18683          2.2707
LJ          -3.17945          3.1048        -4.20031
LJ          -5.25106        -2.07043        -6.36846
LJ         -0.802427         1.79713         3.51524
LJ           1.89861        -4.00988      -0.0445022
LJ          0.854592         3.95595        -5.47607
LJ          -2.39003         4.85042        -3.35668
LJ          -5.86882        -1.82272         -1.5133
LJ             5.058        -5.95905       -0.843443
LJ          -1.69912      -0.0378067       -0.853368
LJ           2.56933        -3.46508        -4.75236
LJ          -1.56963        -5.33002         4.36609
LJ           4.52047        -6.37917         1.34253
LJ            5.6755        0.299248         2.49259
LJ           2.64455         2.02336        -2.20945
LJ           5.78754        -1.61428         4.61597
LJ          -5.28609        -4.10983         5.69936
LJ          -3.05968         4.08119         4.59851
LJ           2.52127        -3.64231        -3.10581
LJ          -5.90198         6.08325         4.98918
LJ           3.01454        -5.88666         4.39573
