108
#Comment!
LJ           3.90976        -4.77064        -5.49888
LJ          0.289671        -3.13351         6.29128
LJ           4.06338         1.22504        0.027475
LJ          -5.37836          2.4711        -4.62307
LJ          -6.31812         1.44182        -1.41544
LJ         0.0977215         5.62615         5.74141
LJ          -4.65617         3.38914        -1.88441
LJ           3.45882         4.23785        -3.17786
LJ          -5.85212        0.709981         6.24902
LJ          -5.82805         1.81417       -0.275397
LJ          -0.58552         2.00873        -3.60954
LJ           3.23681        0.785133          1.3795
LJ          -1.58247         3.60871        -3.69379
LJ          -2.64852         3.14076         6.28828
LJ         -0.888006        -5.24302        -2.35687
LJ           3.41023        -6.29665         5.16287
LJ          -3.06721         3.45409       0.0749007
LJ         -0.604945        -2.08503         5.78563
LJ           6.20004        -3.71741         6.39567
LJ         -0.789296         6.10815        0.598884
LJ         -0.671279       -0.923469         1.77464
LJ         -0.107152         6.43097        -3.61677
LJ           5.73179        -5.96726         2.94789
LJ          -5.60802         4.58285       -0.539473
LJ          -6.09788        -5.23644        -4.04557
LJ          -3.23948         1.58544        -2.90906
LJ           1.43008         4.46054         1.12556
LJ           1.53002        0.361161         4.20379
LJ          -1.51272        -5.25461         2.66197
LJ          -1.09592        0.289381       -0.469686
LJ          -6.38015         4.68351        0.118315
LJ         -0.166729         5.65208         4.72986
LJ          -5.61214        -3.58141         6.11168
LJ           4.64661         4.62686        -5.91042
LJ         -0.808116         3.15421         4.48539
LJ           3.63605          6.2052          1.9794
LJ          -2.46514        -5.44304         5.31904
LJ            3.1862         3.11016          5.0069
LJ          -4.61092        -3.44384         2.03168
LJ           5.58913         5.45875         2.04961
LJ          -4.83508        0.536476        -3.99736
LJ           4.28098         4.23006       0.0167432
LJ          -0.25528         2.43911        0.472405
LJ           6.25945        0.273967        -1.56222
LJ           -4.8279       -0.528152          6.3092
LJ           6.44919        -1.43879       -0.636213
LJ           1.56319        -3.81262         2.71377
LJ          -2.10454        0.104988         3.59529
LJ          -3.15367        -4.31002         3.66355
LJ          -3.54643         3.90687        -3.13865
LJ           6.30105     -0.00875845         2.63162
LJ          0.145524         4.31144         4.93588
LJ          -4.51902        -3.42704        -4.44605
LJ          -1.68589         4.07673       -0.512805
LJ          -4.22163        -2.33193         6.23144
LJ           4.36998        -1.99708       -0.372816
LJ          -5.36219         3.45755         6.38296
LJ          -4.96839        -3.61535        -5.66484
LJ          -6.39909         5.09349         2.51902
LJ          -0.55515        -1.52046        -4.24403
LJ           -3.7713        -0.10013         3.12874
LJ           5.85301         3.52791         2.97603
LJ           -2.5011         6.05805       -0.783099
LJ           6.45105         5.09858         4.23097
LJ           2.58655         3.94729          3.9244
LJ           4.80977         5.06032         3.13019
LJ           3.39903         5.34272         5.99958
LJ           3.30129         5.41656        -4.78051
LJ           4.42584        -3.28769        0.402426
LJ          0.523999          3.3073        -1.07103
LJ          -2.43984         5.79674        -2.76171
LJ          -4.61962         4.66946        -2.97882
LJ           -0.4892         -3.2429        -3.76344
LJ            1.1451         4.03098        -2.35424
LJ         -0.995883         3.14461        -2.53023
LJ          -3.58561        0.942128        -5.07907
LJ            6.2197        -3.47885         3.96422
LJ           5.89554         5.90688        -2.09204
LJ          0.250069       -0.897191         4.55081
LJ           5.76561        -2.09591        -1.02572
LJ           -1.1129         1.20268        -2.98525
LJ         0.0989901         5.55152        -5.87745
LJ          -3.60873         2.83551         -1.8802
LJ           2.55304        -4.20578         1.71741
LJ           2.98721       -0.337448        -5.47749
LJ          0.455029        -5.99927      -0.0821804
LJ           -4.1759        -3.74199         3.73669
LJ          -4.72322        -3.26609        0.276043
LJ         -0.345873        -1.73834        -5.26671
LJ           2.55839        -4.35638        -6.35355
LJ           2.64253         2.96623         3.04034
LJ           1.73139        -3.46073         1.02263
LJ          -2.02941         2.34573        -3.64682
LJ          -6.16745         3.25184         3.94977
LJ          -6.05102        -2.43113        -4.78764
LJ         -0.368502        -4.28534       -0.742118
LJ          0.796697         2.70526       -0.115556
LJ           2.32615         2.66922         5.86903
LJ           -2.1908        -1.04035       -0.937381
LJ          -3.58851        -3.31577       -0.493751
LJ           3.63581        -1.07019         5.87826
LJ           3.24469        0.100258         3.61763
LJ           3.28635        0.192022         5.30748
LJ            -2.183         4.74508         5.17825
LJ           1.77827        -4.09009         -3.2543
LJ           6.14747        -2.73986         5.84211
LJ           1.56148          -2.151        -2.92969
LJ          -1.18576         -5.8155         1.52875
