108
#Comment!
LJ         -0.700692         5.95585         5.22497
LJ           2.98206         -3.0189           6.064
LJ          -1.97125        -4.06083        -5.01986
LJ           3.10309        -5.15171        -4.97917
LJ           3.66305        -4.42486        -5.65013
LJ          -5.32102        -4.28222         6.42996
LJ           3.15655        -5.09594        -2.41681
LJ          -4.93176         6.45825        -4.04438
LJ          -5.76758         6.28976          4.9078
LJ          0.216657        -5.50143        -5.89895
LJ          -5.88499         -5.0634        -5.81329
LJ          -1.13418         5.81255        -3.54607
LJ          -1.28882        -1.45217        -5.14489
LJ           2.82806        0.190424        -5.82255
LJ         -0.828009        0.836974        -3.14521
LJ           3.05543        -1.97677        -4.69881
LJ            2.9235         -1.0543        -6.22572
LJ          -5.24303        -1.83903         6.44411
LJ           1.21718        -1.79014        -4.38076
LJ           1.38152        -5.45888          5.1979
LJ          -3.76122        -2.90827         6.08479
LJ           1.61069         2.36031         4.98509
LJ          -3.82093        0.554791         -6.4142
LJ           -1.7187        -2.40533        -3.21601
LJ         -0.475954         5.97906        -6.29611
LJ           3.74807         3.50428        -6.28163
LJ         -0.375241         5.32425        -4.24122
LJ            3.4869          2.1069        -5.09309
LJ           3.63198         1.63628         5.54663
LJ          -5.91466         2.86983        -4.51231
LJ           3.15995         4.28322        -3.75719
LJ          -5.55472          3.9679        -3.46871
LJ          -5.18991         2.47277         6.20855
LJ          -1.30005         3.71271         5.76038
LJ          -5.24973         4.89716        -5.35207
LJ          -0.69651         2.56198        -3.64809
LJ        -0.0657877           5.504        -1.83684
LJ           1.35686        -4.36078        -3.26076
LJ         -0.123063        -4.11956       -0.768691
LJ           2.72816        -6.37966        0.966374
LJ           3.06315        -6.12578        -1.64741
LJ          -5.78652        -5.30572        -3.73122
LJ          -3.31381         6.06525        0.130085
LJ           6.12674         5.54031         1.16798
LJ          -6.04898         6.30003        -3.32666
LJ           4.90493        -4.64341         6.33109
LJ          -5.02947         6.40226       -0.553096
LJ         -0.903192        -5.65878        0.406866
LJ          -1.03282        -1.54317        -2.70134
LJ           4.12504         1.71629          -3.608
LJ          -2.23102         1.98704        0.287896
LJ            2.5301        -1.77317       -0.386272
LJ          -1.77744        -1.45427       -0.408215
LJ          -4.65297         1.19976        -1.47911
LJ           3.27066       -0.536107       -0.932271
LJ           2.24362        0.654542       -0.742801
LJ           2.57873        -3.59272         3.16197
LJ          -1.81611        0.376922        -2.31415
LJ           4.86571         2.73403        0.527546
LJ         -0.100035         -4.5281          0.6269
LJ          -2.16224         3.24605        -1.67334
LJ           6.13717         2.62568        0.756574
LJ          -2.30766         4.34059        0.456008
LJ           3.39745         2.04218        -2.13079
LJ           3.83406         4.06242        -2.71102
LJ          -5.27782         5.38263        -0.98494
LJ           3.59426         3.90833         1.48677
LJ          -5.22816         1.45793        0.411093
LJ           4.52031         4.05448        -4.22155
LJ         -0.286346         2.21494        -1.46695
LJ          -5.54887         4.40914       -0.102935
LJ          0.423442          2.9649        -1.31613
LJ         -0.761242        -6.41471         1.79695
LJ           3.73659        -4.51376         1.11175
LJ         -0.955712        -6.05597         4.54659
LJ           3.13243        -6.28544         3.87262
LJ           2.92937        -5.61089         2.96884
LJ          -5.51791        -4.75825         2.49887
LJ        -0.0338662        -3.68591         2.10396
LJ          -6.00898        -5.08457         4.41077
LJ          -5.05797         5.85148         2.96421
LJ          -1.53732        -4.91417         2.22901
LJ          -4.59548        -4.13022          4.5515
LJ          -1.55087        -6.20339        -6.38021
LJ          -3.98647        -5.48228       -0.932365
LJ           1.78236       -0.171838         1.90008
LJ         -0.738001         2.52763         4.67657
LJ             2.482        -2.59529         3.74263
LJ          -3.54662        0.678581         2.30613
LJ           3.50395        -1.05286         3.39215
LJ           4.00827         1.32457         2.99513
LJ          -4.52477        -3.24836         3.88798
LJ          -4.84754        -2.38219         1.62752
LJ          -1.42872        0.778311         2.53546
LJ          -5.12014        0.437863         5.28524
LJ           2.97631       -0.368407         5.74703
LJ          -2.75032         1.14252         5.06438
LJ           2.64117         4.87792         2.64226
LJ          -2.25884         4.23316          5.1075
LJ           3.56425        0.128584         3.97979
LJ          0.820869      -0.0457664         3.57853
LJ          -4.16437         4.15298        0.403477
LJ           3.63388         3.59055         4.20552
LJ          -5.48032         1.39968         4.84571
LJ          -5.79039        0.115188         2.48979
LJ         -0.383527         3.83747          1.7145
LJ          -5.84413         4.43855         5.32818
LJ          -2.00479        0.956303         4.45556
