108
#Comment!
LJ         -0.499245        -0.97157       -0.521948
LJ           4.51368        -1.92305       -0.720967
LJ          -5.41406         2.89401       -0.616539
LJ          -2.34906         4.88435       -0.809524
LJ          -3.37774         5.05701         2.57975
LJ         -0.118551        -1.06348          1.8816
LJ          -2.64326        -3.77896        -2.01969
LJ          -5.43441        -5.98102         1.44251
LJ           1.85495         6.43102        0.226537
LJ           3.92985        -4.33849        -4.84454
LJ           3.30821        -5.97173        -2.61696
LJ           4.74353        -3.38928        -1.06777
LJ         -0.226054        -2.09251         5.81165
LJ           2.34101        -4.44473        -0.17365
LJ          -3.80807         3.57691        -5.88719
LJ           5.25515         3.18721         4.70642
LJ           5.45026       -0.857497        -3.26088
LJ          -5.23878        0.413959         0.84309
LJ           2.20102         3.07877        -4.30876
LJ          -3.20143        -4.76712         5.31101
LJ          -3.49088        -3.86072        -4.51043
LJ           1.18185        -5.50974         5.10666
LJ           1.36133        -1.38841          -6.242
LJ          -2.00905         6.43992         5.70444
LJ          -4.46755         4.11797         6.21486
LJ          -6.10292        -1.31379        0.767102
LJ          -2.74883        -5.11919        -1.23442
LJ          -5.40461        -5.27436        -1.26065
LJ          -2.99505       -0.678518         3.12606
LJ        -0.0459832         2.89934        -2.96881
LJ          -4.33203         1.09947         -1.4983
LJ           0.64112        -3.37536        -1.29264
LJ           6.44033       -0.649496         2.42729
LJ          -5.52078        0.646681         6.07422
LJ            -3.357         -2.5084        -2.88827
LJ             4.482       -0.230323         6.20662
LJ           6.09174       -0.194356         -4.0664
LJ           4.15107         5.01992        -3.83449
LJ          -3.14799          2.3538         1.23728
LJ          -5.18028        -2.39604         5.00284
LJ           2.82956        -4.91081        0.609905
LJ          -5.90404        -5.52465        -2.34016
LJ          -4.52271        0.120437         5.81353
LJ          -3.56421        -5.10177        -2.75248
LJ           3.60507         1.14694        -6.27443
LJ          -3.08468         2.68004        -4.02574
LJ           5.43835        -4.89447         2.47795
LJ          -4.63089        0.388249         2.75759
LJ          -1.26674         4.35947        -2.79018
LJ           3.39654        -1.86627        -6.38005
LJ          0.178706         -1.2317        -3.01071
LJ           -4.0891        -5.61148        -1.39004
LJ           -3.3935        0.415324         3.46517
LJ          -3.32934         3.29009      -0.0150059
LJ          -2.48085         3.24426         1.95394
LJ           4.53013          5.7347         1.46706
LJ          -5.92176         0.96532        -5.98859
LJ          -5.14297         4.12127        -3.14725
LJ         0.0908025         1.67531        0.483036
LJ          -6.32959         5.31243        -5.85019
LJ         -0.727241        -3.45009         -1.5216
LJ          -5.07627         3.51239         -5.9801
LJ           2.05867        -5.61725       -0.606424
LJ           5.80047         2.47057        -2.88138
LJ           5.10234         3.60992     -0.00738809
LJ          -2.82681        -5.44439         6.32424
LJ           5.98048        -6.18027         6.22243
LJ           -1.9091        -5.11681         5.73029
LJ          -4.74169       -0.271608        -1.03401
LJ          -5.30576         6.21787          3.8347
LJ           -6.2443        -1.30611        -5.28326
LJ          -6.08022        -4.63136        -5.42046
LJ          0.517413        -2.63525         5.27599
LJ           1.64314        -1.74592         4.80471
LJ          -1.14113        -6.16261         6.21451
LJ          -6.13236         5.30109         2.71775
LJ          -1.20532         4.55148         3.40983
LJ           -5.6877         4.32332        -4.53102
LJ         -0.412087         5.54867          1.9298
LJ           3.51134        -2.48759         5.58012
LJ         -0.696253        -5.19748         6.41754
LJ           5.22194         3.04883         2.03672
LJ           4.64896        -1.09257         4.67737
LJ           6.46237        0.422381          5.8879
LJ           2.95295        -4.15989        -4.94405
LJ           3.06666         5.18096       -0.962471
LJ          -1.89969         1.40859         3.82517
LJ          0.721372        -1.64793         3.91858
LJ          -5.11846         5.15684         -3.7601
LJ           3.66035         5.94273        -5.87049
LJ           3.82082         5.53974        -2.03683
LJ           4.08107        -2.65813        -1.52831
LJ          -5.54975        -4.19963        -2.63768
LJ           3.32927        -1.17287         1.28939
LJ           4.21055          -3.655         6.33118
LJ          0.258833          1.2163        -1.50792
LJ           6.23071         6.40492         4.62849
LJ          -2.91058         2.89025        -5.39505
LJ           4.87566        -2.02737        0.465804
LJ           6.40042          3.9269         5.57181
LJ          0.784145       0.0854905        -0.53416
LJ          0.384113        -4.84469        -1.55097
LJ          -4.24957         2.86252         5.93155
LJ           5.01247        -1.71336        -4.66148
LJ           3.64137       -0.248746          1.8988
LJ            2.9145        0.918827         0.50457
LJ           3.49256       -0.182955        -4.97352
LJ          -1.96613       0.0478332         4.96418
