108
#Comment!
LJ           2.74395         6.31051        -1.06087
LJ           2.53084         4.01969        -5.79659
LJ          -3.46906         2.73612         5.98415
LJ           -5.2244         3.32231         3.86855
LJ          -2.72143        -2.52721         5.79282
LJ          -1.20401          4.3595        -4.94538
LJ           5.06628       -0.744037        -2.17499
LJ          -5.78198          3.8902         2.25552
LJ           -3.9651          5.0403       -0.631562
LJ            5.8303        -2.36609         2.22678
LJ          0.766775         1.53947        -3.79971
LJ           4.57713        -6.33094         1.15856
LJ          -4.38277        -5.71442        -4.98299
LJ          0.531086        -4.65049        0.348564
LJ           3.42546        -2.90195         6.00116
LJ          -5.91607         6.22838         5.64559
LJ          0.624485        -1.36989         1.81303
LJ           -1.0538        -3.69606        0.360807
LJ           4.76596          2.2711         4.63069
LJ          -0.66313        -1.71269         2.06956
LJ          -1.11132        -5.19922         6.26341
LJ          -4.24841         5.64789        -4.28686
LJ          -2.95875        -4.71753       0.0801467
LJ           5.68822        -3.95705         1.32502
LJ           -6.3066       -0.399312        -1.87025
LJ           4.67973        -6.31574        -2.70411
LJ           2.63088        -5.59476         4.38964
LJ           3.22485        -1.47854         3.66968
LJ           2.81515         5.85252          4.8518
LJ           1.97114         4.48763           5.441
LJ          -1.67624         1.38198        -3.33406
LJ         0.0541287         2.47404         2.31708
LJ         -0.180407         3.90759        -6.42871
LJ          -4.35595        -3.56359         1.62864
LJ           1.20943          2.3578        -3.50149
LJ           5.12089        -6.35943         0.25275
LJ          -4.65714         5.39051          3.3753
LJ          -3.24641       -0.362076        -5.31377
LJ          -3.48289        0.195905         6.01886
LJ          -4.46841          1.0606        -2.63739
LJ           4.92514          2.9246        -2.61775
LJ           0.10146         3.59215          4.7121
LJ          -2.64164         6.37182        -2.45546
LJ          0.549528         6.31159        -4.87287
LJ          -1.03751        -3.84792         2.64531
LJ          -3.97305         3.73857        0.734055
LJ           3.24235        -6.41037        -2.67798
LJ          -3.74634         3.83543        -2.15311
LJ           5.16228          5.7244         4.35558
LJ            1.1838         4.30541        -4.10434
LJ            2.8746         -1.5871         1.18215
LJ          -5.95556         -5.3158         3.31428
LJ           4.06859       -0.890214        -1.39328
LJ            4.2717         4.21086       -0.590618
LJ          -4.70628       -0.277128        -1.71395
LJ           2.81691       -0.245771        -2.92566
LJ            5.1275        -4.72842        -4.39894
LJ            2.4008        -2.75457        -3.01949
LJ           3.62416        0.735026        -4.45808
LJ          -4.97047         5.44471         5.07183
LJ          -4.74155         4.87673        0.435686
LJ           5.97623         5.02177        -1.17798
LJ          -2.87646        -5.89064       -0.371973
LJ          -4.11085        -4.31002         -1.7679
LJ          0.606019         4.28428         5.45455
LJ           4.40912        -5.37861        -1.73955
LJ           4.20341        -3.19153         1.52245
LJ          -2.80466         3.94687        -3.75869
LJ          -3.31073        -1.18359        -3.26212
LJ           3.25943         5.47357        -4.57686
LJ         -0.601742         1.87723        -3.10344
LJ           6.08958         6.09236         2.71158
LJ          0.774534          4.7799        -6.37079
LJ          -5.00265        -5.02941         4.56651
LJ          -5.23784        -2.86159        -3.85463
LJ          -3.35343         4.37592        -2.96717
LJ           4.57228         3.85046         2.77182
LJ         -0.220457        -2.82606        -2.38234
LJ           5.33623        0.888036         1.11876
LJ           5.85838        -2.97683        -5.60131
LJ          -3.99453        -5.39089        -3.65713
LJ          0.856509        -3.05998        -6.22466
LJ          -1.13404        -6.18555         1.70722
LJ           2.11257          2.8761         1.97106
LJ          -2.36306         -3.0022        -3.86645
LJ          -4.38468         1.37004        -5.92933
LJ          -1.32835       -0.510397         -1.5405
LJ          -4.81731        -6.41245        -3.90274
LJ           2.96137       0.0531272        0.572953
LJ          -4.91299         2.07809         2.71013
LJ           3.62581        0.856906       -0.516295
LJ         -0.968217         5.80942         6.24645
LJ         -0.681187         -3.2011        -3.22039
LJ         -0.445798        0.286605         4.97011
LJ           5.92402         2.19926          3.3301
LJ          -1.23978         5.31645         -3.9902
LJ           2.77763         1.72022        -5.77533
LJ           1.44332        0.733173       -0.172968
LJ           4.90289        -4.88021       0.0855689
LJ         -0.822901         5.52493        -5.17513
LJ          -5.81968        0.683004        -4.96857
LJ          0.963583          6.0074         3.59773
LJ          -2.95018        -3.52831        0.575119
LJ          -2.57351         5.25156        0.129801
LJ          -6.01862         5.01732        -1.72373
LJ          -2.39911          -6.081         5.09389
LJ           4.54845        -5.67156         2.98772
LJ          -5.51404         5.45073        0.251621
