108
#Comment!
LJ           3.87244         4.97902         -5.4631
LJ          -2.36725        -2.33054         6.25495
LJ          -6.16223       -0.383042        -3.03403
LJ           -2.6378         -1.2165        -6.30792
LJ          -3.19749          -3.952         5.97893
LJ           3.62543         1.52084         3.23967
LJ          -4.09883        -4.78189        -1.24097
LJ           6.00496         4.22125        0.965124
LJ         -0.401378         3.47121          5.7179
LJ            3.3834        -3.48369          2.0278
LJ           5.98453         6.30759         -4.1144
LJ          -6.41195         4.43484        -2.59691
LJ            4.8689        -0.60508        -5.72032
LJ          0.830881         0.54328         6.36043
LJ           4.68908         2.10266        -2.74571
LJ          0.632068         -6.0945          2.7362
LJ           1.94899         4.22746         4.69838
LJ            2.7307        -5.78056         4.92999
LJ           1.62816         -4.7155       -0.693703
LJ            2.2634        -3.76557         5.99362
LJ            1.1739        -4.88458          5.1344
LJ         -0.542353        -6.00158       0.0970132
LJ           1.21225        -3.56934        -1.43803
LJ          -6.42004       -0.422314        -1.52557
LJ           1.62729         5.67461         4.04628
LJ          -1.48515        0.267297        -6.02486
LJ          0.251125        -2.83742        -3.35121
LJ          0.245307         1.53583          5.0298
LJ           -3.6587       -0.795356         3.90095
LJ           3.24924        0.578489      -0.0860012
LJ          -1.93735         3.36036        -2.49335
LJ           3.84619         1.27297        0.691851
LJ         -0.482283         3.11123         3.15123
LJ           2.63169         3.09223        -3.59752
LJ          -1.82865        -5.68924         1.12069
LJ          -2.34169        -3.68817        -1.47285
LJ           5.94332         3.96339          -1.994
LJ          -4.83463         6.20306        -3.02956
LJ           4.89639        -4.37992       -0.558421
LJ         -0.113002        -4.91055         -1.4855
LJ          -3.79169        -5.90859        -2.35865
LJ           2.96555         5.49289        -5.26032
LJ          -4.54607         4.14127         1.34443
LJ           3.82356         4.10977         5.07531
LJ          -4.27918         5.48472         4.71615
LJ           5.31346         -4.7789          2.4393
LJ           -5.7388         1.33826        -1.23879
LJ          -5.42134        -5.89963        -1.32345
LJ           5.60329        -4.39079        -3.73122
LJ         0.0477091         2.24423         2.17393
LJ          -1.64433        -3.53545         2.79503
LJ           -3.7627        -1.18092        -1.01736
LJ         -0.140474        -4.46482         1.63502
LJ           3.67457         2.46932        0.928466
LJ          -5.57111        -1.26076      -0.0145945
LJ           -3.8874         4.94969        -2.45321
LJ         -0.220104        -4.03212        -3.05531
LJ           5.40569        0.653354        -3.13643
LJ           5.38303         4.87059        0.269454
LJ          -3.71013         6.09573        -4.06224
LJ          -5.78479         5.55672         -1.9718
LJ           3.93497         1.18898         4.45061
LJ          -2.07202        -3.11553        -5.10526
LJ          -1.89508        -1.32782        -2.82417
LJ           2.23156        -4.11586        -3.16661
LJ          -5.11844          1.2812         4.48604
LJ          -5.18391        -6.29027        -5.23963
LJ            1.7418         1.71823         2.29594
LJ           5.92648        -6.17762           2.299
LJ           3.84697         -3.6745        0.233274
LJ          -6.31847         6.42556        -2.67675
LJ          -1.37709         5.58648        -3.13744
LJ           2.27076        -5.18373        -4.93714
LJ           5.06255        -2.76772         -4.6797
LJ          -4.15955         -5.6756         2.07446
LJ           3.05433        -1.13815         5.22288
LJ           1.59969        -5.65667         2.59545
LJ           3.69148         -4.1505         5.34098
LJ           -2.4982        -3.38599         1.82464
LJ          0.350879       -0.435315         2.31013
LJ          0.753844         6.23121         4.09403
LJ          -6.14507         5.81306        0.746679
LJ         -0.147547        -6.46324         6.06118
LJ           5.41652         5.68794        -5.24902
LJ          -0.35513         4.05054        -5.96152
LJ          -3.86434         1.30481         1.00098
LJ           5.72843         6.43523         6.24528
LJ          -3.62127        0.298545         4.95781
LJ          -1.75145         4.39083         4.10925
LJ           5.48975           1.123         5.24967
LJ          -4.13869         3.57737        0.317818
LJ            6.3949         -5.5621         3.32785
LJ           1.22815        -3.44841         1.31441
LJ          -3.50758         -1.1832         2.28945
LJ          -2.76823         1.88686         3.94552
LJ           4.99549         5.34771        -6.31043
LJ          -4.96368          4.2624         4.41585
LJ         -0.465681        -6.11477        -1.90867
LJ          -4.29432        -4.07355         5.29586
LJ          0.330804        -2.16212         4.86589
LJ           1.39986        -4.48366        -5.20617
LJ         -0.861999       -0.788319        0.451211
LJ          -5.37363         1.50855        -5.50729
LJ           4.10039           2.563         4.68842
LJ         0.0509517        0.945748         2.57593
LJ            2.6463          1.3492         3.19657
LJ         -0.285476         4.62627         5.34545
LJ          -3.41761        -1.68949          1.1328
