108
#Comment!
LJ          -1.42226         5.72827         5.52144
LJ           3.75276        -3.12652         6.02182
LJ          -1.43609        -4.50296        -5.24259
LJ           3.84099        -5.55039        -5.00567
LJ           2.95237        -4.53668        -5.87734
LJ          -4.53187        -4.23653        -6.43102
LJ           2.39885        -5.09754        -2.61024
LJ          -5.02206        -6.01319        -4.64464
LJ          -6.38416        -6.33169         5.08831
LJ          -0.35147        -5.04254         -5.5161
LJ          -5.71988        -5.49445        -5.09471
LJ         -0.336066         5.98013        -3.57874
LJ          -2.05854        -1.55099        -5.13619
LJ           3.57154        0.253548        -5.97313
LJ          -1.65826          0.8573        -3.42014
LJ           3.51544         -1.6673         -5.1155
LJ           2.47848        -1.23972        -6.19983
LJ          -4.47812        -1.53494        -6.41957
LJ            1.2292        -1.22742        -4.82857
LJ           1.12015        -4.79562         5.86603
LJ          -4.53396        -2.80694         6.07906
LJ           1.59079         1.71259         5.65606
LJ          -4.83302        0.446762        -6.41116
LJ          -1.03859         -2.5296        -3.40574
LJ          -1.16654         5.40084        -6.41222
LJ           4.46412         3.67413          -6.333
LJ         -0.662386         4.51768        -4.10829
LJ           4.16998         2.46612        -4.57538
LJ           3.01269         1.71569         5.59119
LJ          -5.54046         3.04409        -5.27864
LJ           2.35288         4.43015        -3.79217
LJ          -5.12159         4.14867        -4.02514
LJ          -5.76323         2.61989        -6.22273
LJ         -0.505746         3.71462         5.83005
LJ          -5.67864         4.60178        -4.72071
LJ         -0.415013         3.24724        -3.85413
LJ         -0.823104         5.68772        -1.83595
LJ           2.23315        -4.09611        -3.22581
LJ         -0.845304        -4.16538       -0.754366
LJ            3.4927         6.39853        0.893396
LJ           2.27555        -6.25686        -1.56493
LJ          -5.04593        -5.14767        -3.39867
LJ          -3.13376         6.38482        0.276459
LJ          -5.87684         5.50404        0.596577
LJ          -6.01545         5.90145        -2.54205
LJ           4.81875        -4.49829        -5.94137
LJ          -5.65398        -6.46159       -0.205367
LJ         0.0125699        -5.53066        0.324348
LJ          -1.86574        -1.50488        -2.64219
LJ           4.46066         1.53022        -2.86534
LJ          -2.44394         1.09927      -0.0572629
LJ           3.32409        -1.84384       -0.405251
LJ           -1.9904        -1.03071         -0.5797
LJ          -3.97164          1.1177         -1.7677
LJ           2.64452       -0.434334        -1.00415
LJ           1.62127      -0.0538027       -0.569159
LJ           2.91956        -3.83014          2.2944
LJ          -1.00008        0.362903        -2.29676
LJ           4.83213         2.09285       0.0934017
LJ          0.328047        -4.30137        0.460586
LJ          -1.83139         2.97559        -1.64068
LJ           5.87107         2.93484        0.180698
LJ          -1.74352         4.10641        0.958093
LJ           4.10201         2.11511        -1.74539
LJ           3.40548         3.60836        -2.67512
LJ          -5.36083         5.50723        -1.73484
LJ           2.85628         3.96805         1.22222
LJ          -4.49772          1.5869        0.345684
LJ           4.37532         3.65711        -3.50321
LJ          -0.82892         2.85528        -1.56276
LJ          -5.89031         4.60205        0.244455
LJ          0.753849         2.70898        -1.07149
LJ          -1.57693        -6.37677         1.68888
LJ           3.52773        -4.79418         1.82856
LJ          -1.69537        -5.72015         4.44044
LJ           3.90765        -6.30613         3.93055
LJ           2.92929        -5.27818          2.3707
LJ          -4.73335        -4.71894         2.48131
LJ          0.325892         -3.3627         2.66513
LJ          -5.41212        -5.65039         4.61206
LJ          -5.82393         5.86578         2.87171
LJ         -0.822797        -4.75042         2.21734
LJ          -5.39574        -4.11859         4.51864
LJ         -0.750189        -6.20367         6.29581
LJ           -4.0282        -4.73004       -0.469032
LJ           2.53334       -0.341858         2.03384
LJ          -1.50408         2.07665         4.43534
LJ           3.26858        -2.56264         3.77054
LJ          -3.55027       0.0415558         2.07135
LJ           2.77216        -1.04281         2.96474
LJ           3.38703         1.05986         3.26067
LJ          -3.75735        -2.97539         3.93094
LJ          -5.61664        -2.38608         1.62615
LJ         -0.790125        0.743242         2.64895
LJ          -5.60042        0.333498         5.61921
LJ           2.57756         -1.0066         5.72931
LJ          -3.21117         1.16415         4.46539
LJ           3.22659         4.49753         3.00336
LJ          -2.74402         4.22515         4.55242
LJ           4.25839        0.580062         3.93741
LJ          0.773221        0.338449         2.88045
LJ          -4.29663         4.24807        0.958235
LJ             3.022         3.93328         3.80495
LJ          -4.79441         1.69125         4.97077
LJ           6.40137        0.230209         2.51745
LJ         -0.928692         3.97884         1.34765
LJ            6.2991         4.45517         5.17849
LJ          -1.18432         1.11195         4.19222
