108
#Comment!
LJ           3.29757         1.67871        -4.57416
LJ          -3.76013        -4.52062        -2.20132
LJ           3.77108       -0.884256        -5.94126
LJ          -1.94016         3.92143         5.59977
LJ           -5.9788        -4.03343         1.61393
LJ          -3.91963         4.93713         5.22067
LJ           1.12101         2.55335        -1.93343
LJ           4.70171         4.70837        -5.14363
LJ         -0.856019        -3.75712       0.0562862
LJ          -6.41625        -6.00685         -1.1378
LJ          -1.05984         1.64153        -0.93402
LJ           3.11052       -0.945736         2.97103
LJ           3.59677        -5.23963        -2.39686
LJ          -5.47691       -0.803695        -2.83155
LJ          -1.58414         -3.8783        -1.84004
LJ           6.09722        0.880955        -3.71578
LJ          -3.36305          4.3291        -1.32909
LJ          -2.02923        -3.99484        -0.21493
LJ          -2.74676        -2.34538         2.09183
LJ          0.384906        -4.82122         1.48608
LJ           2.22422        -1.46259        -6.23303
LJ          -3.35672        -1.93421         3.29034
LJ           -1.1245       -0.242081        -2.08627
LJ         0.0255393       -0.552396        0.942162
LJ          -5.28711        0.980737        -1.60348
LJ           3.71464        0.320236        -1.90777
LJ         -0.788242         2.23698         5.11963
LJ           -4.7387         4.28277        -1.24534
LJ          -1.55964        -1.86057         5.99034
LJ           2.66306        -4.57474        -6.25757
LJ           6.12057         1.25713        -5.01341
LJ          -4.47922         1.99193         2.73442
LJ         -0.936875        -2.35565         1.34359
LJ           5.35814          1.1697        -4.35068
LJ         -0.585056        -4.82236         -3.0766
LJ          -4.91706         2.61984       -0.422678
LJ          -4.70565          1.1282        -3.15076
LJ           6.02155        -1.70161        -4.41068
LJ           -1.6396        -5.28484         3.92761
LJ          -3.44678         2.07075         4.29732
LJ          -4.52903        0.319171         6.00253
LJ           4.17539        -0.78255        -2.06552
LJ           4.74915        -5.89336        -2.70281
LJ           6.39325        -5.99193        -5.71614
LJ          0.568572        -2.23764        0.417827
LJ           1.32821         3.10752         5.31552
LJ           -3.1906        -5.98719        -1.99452
LJ         -0.343754        -5.58452         1.14709
LJ          -2.47892        -2.95274         5.17512
LJ           2.43739         5.42808         4.99671
LJ         -0.641668         3.35548        -1.67452
LJ          -5.70019        -2.29738        -5.22796
LJ           1.72065        -1.99836        -5.35133
LJ           1.51046         4.91361        -4.90586
LJ           3.59154         0.10225         -3.6581
LJ           6.04447        -3.96039        -1.83821
LJ          -4.42521         -1.6282         5.36126
LJ           1.39689        -4.68241        -4.53155
LJ          -1.92511         6.45815         5.29478
LJ          -4.94962        -1.03751         2.98874
LJ          -1.99453         3.26175       -0.514504
LJ          -5.98566         4.71698        -5.01435
LJ          -3.54488         1.51398        -2.37819
LJ          -4.05869         4.99801        -6.40861
LJ          -4.29243         4.88558         1.04342
LJ          -3.18677        -5.34778        -3.72495
LJ           1.29718        0.546278         1.21255
LJ         -0.541706       -0.292398         -4.5631
LJ           -3.1452       -0.838437         1.14448
LJ          0.112726       -0.111815       0.0615328
LJ           6.37303         4.55552        -4.09089
LJ           3.09047        -4.54921        -1.24937
LJ          -1.07953         1.40048        -3.00896
LJ             4.652        -3.11115        -2.11378
LJ          -3.68943         1.42005        -3.26389
LJ           5.98817         5.01628        -6.37248
LJ            5.8406        -4.00429        0.701633
LJ           5.14116        -3.53691        -4.96015
LJ          -5.99627         3.58062         4.32902
LJ           2.74559        -4.99518         5.71513
LJ          -1.59571        -3.62502        -2.91643
LJ          -5.78587         1.95828         3.90085
LJ           5.74708        -6.23138       -0.329067
LJ           -1.3096         1.05025         5.42533
LJ          -1.78648          6.1633         3.73201
LJ          -1.54296        -1.77519         2.56134
LJ           1.41707        -4.31245         2.32812
LJ           5.27274        -5.01032        -1.78326
LJ           2.57426         2.04175      -0.0754076
LJ           6.35908          5.1522        -3.13049
LJ           2.77847        -1.63867         5.40591
LJ          -4.95058        0.108464        -2.73888
LJ          -3.43723         3.10684        -3.88095
LJ           5.38035        -2.69887       -0.841292
LJ          0.722547        -4.09414         6.45769
LJ          -6.27107         4.99049         5.72353
LJ           3.31612        -2.23075        -6.11142
LJ           6.17907         1.56697         3.65314
LJ           3.08589        -5.89145        -5.97382
LJ           1.59073        -4.07795         3.46408
LJ           -1.8995         5.70489         1.56175
LJ          -2.01228        -1.29695          3.5555
LJ           5.18484        -3.52868        -3.03983
LJ          -3.31524         -3.3912        0.746549
LJ          0.391846        -1.09976         -1.3488
LJ           3.96291        -4.52973        -6.18141
LJ           6.35849        0.893569         2.65673
LJ          -5.38511        -6.38275       -0.838363
