108
#Comment!
LJ           1.80715         3.39485        -3.61183
LJ           5.54199         5.60132        -5.95377
LJ          -1.61942      -0.0593029         5.77349
LJ           6.09635         6.30648         4.93394
LJ          -4.06132         1.35449          1.5767
LJ          -1.87462        -3.52129        -4.73126
LJ          -3.27456        -1.39213        -3.03498
LJ           6.28006         3.58353        0.438399
LJ          -3.18149         3.21269         1.71338
LJ           5.89363        -4.86254        -0.20261
LJ         -0.896568        -1.65016        -2.97969
LJ           3.42555        -4.19067         2.35912
LJ           4.71864         6.10713        -4.67575
LJ           1.05536         -2.9843         4.54068
LJ            4.7014        -5.96586         4.18689
LJ          -4.61279         3.76016         6.27475
LJ           1.26458         1.37486        -2.25894
LJ          -2.29827        -4.19704           0.508
LJ          -5.96499         5.64551         5.06232
LJ          -4.32346        -2.71935         1.54899
LJ         -0.104209       -0.263904         6.29884
LJ          -4.93779        -6.06798        -6.18594
LJ         -0.557517        -2.38681        -2.06971
LJ          -4.63566         4.89008        0.927792
LJ          -5.17418        -1.70215       -0.167765
LJ           2.99071        -5.41829        -2.27533
LJ           1.92299         5.20053         6.38185
LJ           5.81841         1.67791        0.910813
LJ           1.99234        -4.49921         3.59033
LJ           3.32761         1.48547         6.04639
LJ          -2.98694         2.99426        -4.18602
LJ          -1.01398         3.05654         2.55646
LJ         -0.113435         5.17471         4.79313
LJ           4.54273        -1.95907       -0.422649
LJ           4.03752         2.70542        -5.31112
LJ          -2.15819        -4.36587         3.03455
LJ          -5.81502         3.48908         5.42986
LJ          -3.28284       -0.522636        -3.79436
LJ         -0.466488        0.607526         6.14228
LJ           -4.2573         1.38916        -0.29413
LJ           1.73055        -6.00055         0.76086
LJ          0.649307         2.32937         4.22666
LJ          -5.97067         2.06692        -2.82993
LJ           4.77141         4.70738        -5.67459
LJ          -2.02327        -1.55357        -1.29344
LJ          -5.75753        -1.06063         2.68444
LJ           6.20669         6.27949       -0.560859
LJ           5.89472        0.728136       -0.909692
LJ           6.07005         6.01482         3.69007
LJ          0.541091         4.23195         -6.0907
LJ            2.0091        -3.37748       -0.281256
LJ           2.80894        -2.58354         5.80605
LJ           2.40132        -2.37256        -3.23057
LJ           4.37244        0.566967        -2.06134
LJ          -2.23929       -0.308144          -2.308
LJ           3.74601       -0.682341        -1.60671
LJ           4.36412        -2.52214        -5.20301
LJ           2.34823        -3.38174        -3.49347
LJ           3.36553        -2.28146        -5.24547
LJ          -4.38389         5.61551         5.22442
LJ           -3.8482         4.10317         5.07297
LJ          -6.15649         5.23454         -2.9806
LJ         -0.764702        -4.47758       -0.250698
LJ          -5.93235        -4.79004        -1.88667
LJ         -0.133643         4.98099        -3.65931
LJ          -4.77161        -5.59912        -2.00595
LJ           3.79276          -1.727        -3.03896
LJ          -3.63475         2.56552        -2.98753
LJ          -3.62342        -1.51817         6.08025
LJ           6.09954         3.54102        -3.44979
LJ          -3.05634         1.78991         -3.9646
LJ           4.52413         3.40945         1.06657
LJ          -1.37527         4.86528        -3.30024
LJ            -5.217        -3.14211         1.96563
LJ          0.933118        -3.53771        -0.77383
LJ          -4.29742         4.51959        -2.14868
LJ          0.371094         1.17927         1.92435
LJ            1.5835        -3.44018        0.917895
LJ          -5.52103        0.430874        -2.00317
LJ            2.1439        -3.04236         4.66854
LJ          -3.95486         5.60056         6.14026
LJ           2.10285        -1.98116         5.25335
LJ          0.215977        -5.59515        -1.40147
LJ           2.80354         3.98969         5.65694
LJ          -3.28376        -4.78199        -1.65243
LJ          -2.49217        0.951618         5.58049
LJ          -0.16359         3.42209        -1.72669
LJ          -4.85952         6.21883       -0.367032
LJ           2.88292        0.150129        0.207916
LJ          -0.64661         3.26629        0.798538
LJ           2.81742        0.199406         2.47769
LJ          -1.04241        -4.51475         1.94999
LJ         -0.345761        -5.48058        -2.16262
LJ          -3.36682       -0.564814        -6.12381
LJ           5.42561         3.85828        -5.94333
LJ           2.61595          4.1954         -4.7267
LJ           2.87709       -0.567211         5.55683
LJ           2.90825        -0.90916         2.41525
LJ           2.96007        -5.05415          3.7683
LJ          0.848537        -5.29189         4.98731
LJ           4.16336          2.4366        -2.20989
LJ          0.115182         3.19932         4.40535
LJ          -4.73767       -0.795562        0.959163
LJ          -2.33447         5.34375        -1.02921
LJ          -2.95545         6.05184          3.5343
LJ         -0.665602        -5.52096         5.74079
LJ           3.84206        -2.64586         3.56493
LJ          -5.55678        -5.37222       -0.597189
