108
#Comment!
LJ           6.27585        -1.29966        -0.67177
LJ         -0.113807        -3.28142         1.87364
LJ           5.12518        -6.00852         1.42646
LJ            4.6058         4.03108        0.434079
LJ          -3.56802        -4.21905         2.14953
LJ           -1.0926          3.7315         5.31186
LJ           5.78136         3.41348        -5.37065
LJ          -5.91527         3.36083         1.77626
LJ          -1.31611       -0.845424        -1.22043
LJ           -3.1041          5.0785         5.14657
LJ         -0.215486        -1.44676         4.53784
LJ          0.727833        -3.35459         4.74252
LJ           5.65981        -5.43086        -1.39371
LJ          -3.99875        -3.16882          5.6683
LJ          -5.12266        -5.42866        -2.70915
LJ         -0.375539         5.93664         5.66156
LJ          -5.20039        -3.64798        -3.37745
LJ           2.84862          3.8208         5.24926
LJ           1.58844       -0.417806       -0.711237
LJ           -1.8157         5.21468       -0.724174
LJ          -4.60269         5.61091         4.54765
LJ          -4.50811         3.76525        0.562036
LJ          -3.52262       -0.373036        -1.65875
LJ           5.28285         2.39276        -5.00087
LJ           4.35864         3.70364         5.75899
LJ          -3.51996         1.23317         5.29771
LJ           4.51489       -0.902171        -2.83651
LJ          -3.38859         2.28139         5.81744
LJ          0.937915        -3.82472         2.47265
LJ          -2.28326        -1.69175        -1.56255
LJ         -0.319635         4.11038         6.12128
LJ           5.82714        -2.20559        -2.32675
LJ           5.78524        -4.17089        -3.72927
LJ           4.52618        -1.77476         2.35163
LJ           5.69522        -2.94853         3.81048
LJ          -6.43426        -2.22724          1.9622
LJ           1.29293        -1.20943         6.18836
LJ          -2.88794        -4.76728         4.31804
LJ          -5.07368         2.56069         1.64205
LJ           0.30359       -0.257331         3.57226
LJ          -3.43498         5.42217        0.187817
LJ         -0.573646         0.34678        0.632233
LJ          -1.67041        -1.01966         -4.2426
LJ           5.63855         1.74467        0.193904
LJ          -2.92584        -3.35649         4.39797
LJ          -2.87709         1.89064        -1.39412
LJ           5.54562         4.85739        -3.23254
LJ          -4.11063       -0.675182        -2.84063
LJ           4.39509        -5.88521        -3.09195
LJ           4.48232         6.01045         2.61118
LJ        -0.0316871         2.20401       -0.295199
LJ           -5.9398        -5.14344         3.66169
LJ           -1.4077         2.04319         0.44944
LJ           6.00193        -1.61948         3.07101
LJ          -4.39687       -0.883325         4.01858
LJ           2.10946         3.62357        -4.47036
LJ           4.41357         5.07953         4.74234
LJ         -0.403878        0.302738        -2.59349
LJ          -2.73161        -4.89924         -5.6322
LJ           2.88579        -4.14445         5.90136
LJ           3.09178         3.28415         2.05951
LJ           1.67397         5.05797        -1.57974
LJ          -3.92805         3.09375       -0.315206
LJ          0.447417         3.18288         4.33067
LJ         -0.674479         1.80392        -1.26634
LJ         -0.498803         1.94146        -6.23343
LJ          -5.71074         2.26492         6.29741
LJ           1.79446        -6.37229       -0.356804
LJ        -0.0838539        -4.79812         5.88641
LJ          -3.41217       -0.576815        -4.48359
LJ           3.39831        -3.19393          3.5344
LJ           -4.0608        -1.12474        -1.11273
LJ          -1.31742         -3.5333        -1.65655
LJ          -3.74202        -5.42793         4.09894
LJ          -3.60219          5.9615         5.64997
LJ           -1.1757      -0.0152406         5.12782
LJ          -4.42253        -5.49677        -3.57936
LJ           4.18825         -4.3318        -3.71811
LJ          -3.42785        -3.27194        -2.02274
LJ           1.45214        -4.56835        -5.13712
LJ          -1.78327        0.622274         3.26607
LJ           -4.6993         4.27809        -6.09649
LJ          -5.45427       -0.856594        -1.45862
LJ           5.08042         4.59465         3.85108
LJ           0.94287        -6.29827        -1.47873
LJ          -5.40889         3.31439         2.86637
LJ           5.11393        -4.92384        -3.26148
LJ          -4.25299        -3.41577         2.61632
LJ          -5.88699         5.38196        -3.31809
LJ           6.00458        -1.92575        -6.40719
LJ         -0.105383       -0.588815         1.38363
LJ           1.39046         -4.2926        -1.87059
LJ           2.45468         5.29539         6.13875
LJ          -1.83136         6.21951         1.26108
LJ          -5.61296        -1.44619         0.12018
LJ          -4.98714         6.16947       -0.797643
LJ          -3.42455         -2.1714        -1.41123
LJ           2.37748        -6.26211        -2.35599
LJ          -1.31279         5.08746        -6.30887
LJ           6.30099         4.51401         1.18827
LJ          -5.22524        -2.42697         4.09578
LJ           1.69282         3.39982        -5.63461
LJ          -2.24042        -1.02154          4.0688
LJ          -5.89108        -2.10212         5.60773
LJ          -3.49322        0.182947         1.78001
LJ           1.35825        -6.03773        -3.17988
LJ          -4.39991         1.16167         2.71636
LJ          -6.12939        -4.49995        -5.45323
