108
#Comment!
LJ           4.02695         -5.0297         6.17575
LJ           1.44819        -1.80763        -6.43021
LJ            2.2811         1.23027        0.118124
LJ          -4.19372         3.03805          5.7957
LJ           6.24924         2.03932        -1.34454
LJ          0.582692         6.06023         5.42115
LJ          -4.61188         4.51365        -1.01495
LJ           2.67294        0.369036        -4.40138
LJ           5.72415       0.0142771        -4.70683
LJ          -3.05385        0.682811        -1.60497
LJ          0.531826         3.26401        -3.44697
LJ           4.37874          2.5161         1.31995
LJ         -0.236481          3.8034         -3.8591
LJ          -1.96957         1.37504        -5.74931
LJ          0.160002          6.3641         -1.9795
LJ           5.56778         6.22864          3.8296
LJ          -2.24522         4.97144         1.06356
LJ          -1.13981        -4.51758         5.45535
LJ           5.14786        -5.42901         5.20863
LJ          0.313702        -5.46156          1.2992
LJ          -2.26534        -2.16381         2.80118
LJ          0.750768        -6.25728         -5.1763
LJ           3.94227        -5.15561         3.95896
LJ          -2.79265         4.11215        0.175479
LJ          -6.04316        -4.00217        -2.22435
LJ          -3.79475         0.34305         -2.4117
LJ           2.36039         6.30136         2.89958
LJ             2.357       -0.541109        -6.04486
LJ          -2.00178        -4.88958         2.64456
LJ         -0.480523        0.706686       -0.677811
LJ           4.87653         4.19908        -2.41402
LJ          -1.76176         4.74705         6.25311
LJ           5.79296        -4.36462         4.78263
LJ          -6.33754        -6.22024        -5.89535
LJ           -2.9225          1.8681         4.95512
LJ           3.42779         5.68018         3.56056
LJ          -4.10314         5.92293          3.3962
LJ            3.7117         2.11349         5.29747
LJ          -4.73588        -4.81824        0.888225
LJ           4.45114         3.48768        0.151943
LJ          -5.34046        0.685531         -1.1881
LJ           4.55452        -5.81859        -1.28802
LJ           1.76045         2.59881        -3.25562
LJ          -5.91631         1.95078       -0.590106
LJ          -6.26979      -0.0485135        -5.39755
LJ          -3.98843        -2.13206       0.0565156
LJ            0.2926        -1.84085         2.22161
LJ          -1.73383         1.03023         5.21694
LJ          -2.97725        -4.05177         1.89196
LJ          -5.12509         5.09719        -3.89984
LJ           3.70818        -0.89356         3.29873
LJ           1.61672         2.49426         5.84964
LJ           6.05704          -3.193        -4.76993
LJ         -0.524102         5.20415        -1.55433
LJ          -3.68465        -3.29463        -5.17593
LJ           2.96429        -2.38648       -0.633291
LJ            4.2288         2.77949         4.57551
LJ          -6.23333        -4.48765        -5.69931
LJ          -5.24051         5.04043         4.35482
LJ          -2.10112        -2.54619        -3.39647
LJ          -5.15405        -3.55412         3.44749
LJ          -6.24538         4.05746        0.996239
LJ          -3.17427        -6.36748        -1.40208
LJ           4.74226         5.05409          4.2057
LJ            2.2436         4.40659         3.16312
LJ           3.46902         5.96674         2.28831
LJ           1.70827         5.84434         5.58532
LJ           2.49314        -5.27065        -2.15462
LJ          -3.79305        -1.77585         1.17276
LJ           2.18871         4.15414       -0.672441
LJ          -3.51108         5.35229         -1.8881
LJ          -5.20265         5.70317        -2.05268
LJ         -0.063668        -2.81539        -4.73307
LJ           3.00698         2.70844        -4.73716
LJ         -0.430254         3.18647        -2.57018
LJ          -4.57603         1.39023        -3.89683
LJ           5.72885        -2.04193         4.66452
LJ           -6.4027         5.49357        -1.80847
LJ           2.66359       -0.460468         4.35898
LJ           6.07572        -3.48604        -2.03172
LJ          -1.22307         3.13025        -3.66775
LJ           1.77808         5.70549        -5.93311
LJ          -3.82217         1.82727        -1.21503
LJ           3.26571        -1.45198         2.02261
LJ           2.94246         -1.4575        -4.72978
LJ        -0.0372175          6.2928       -0.639405
LJ          -2.29936        -2.99034         1.93918
LJ          -4.65171        -3.69681       -0.768664
LJ          -2.49852        -1.86497         5.92499
LJ           2.55494         6.16563        -5.52883
LJ           4.03737          4.8836         3.53429
LJ           1.78543        -3.89191          1.2341
LJ          -3.93522         2.70586        -2.72969
LJ           5.79531         2.95201         5.18406
LJ          -5.89746        -3.18577         -6.2548
LJ          -2.55805        -3.12874       -0.998854
LJ           2.16741         3.47293       0.0867479
LJ         -0.541692          3.6528        -6.22404
LJ          -2.55653        0.921662        -3.14177
LJ          -1.47083        -1.77914        -1.01207
LJ           3.05702        -2.02133         5.95105
LJ            2.1601        -1.86776         5.33837
LJ           5.28477        0.194559          -6.306
LJ          -1.36543         1.85775         4.83983
LJ           4.63099        -3.22777         -0.8644
LJ          -4.69716        -3.96452         4.27812
LJ          -0.49896       -0.278788       -0.746892
LJ          -2.21369        -6.27603       -0.194485
