108
#Comment!
LJ          -2.25284         1.28826        -1.06266
LJ           1.11358      -0.0632153       -0.156531
LJ         0.0565871        0.912753         1.42301
LJ           1.49556        -1.25825        -3.50879
LJ          0.396416         -1.3209          4.5044
LJ           5.46576         0.53229         4.55509
LJ           2.90371         3.13825         1.70017
LJ            4.5961         2.68472         1.34381
LJ          -1.09431      -0.0928569        -6.10134
LJ          -3.51542         -5.2193         3.21864
LJ           -2.6892        -3.27401         5.05849
LJ         -0.168417        -5.91479       -0.618054
LJ          -1.36152         3.94007       -0.406637
LJ           6.40817        -2.50252         2.91366
LJ          -3.29811         5.38071        -3.96382
LJ           1.01082       -0.808463         2.19862
LJ           1.64511        -3.69536         -2.7521
LJ          -6.42494         5.17734        -5.87017
LJ           1.74393        0.946239      0.00798031
LJ          -1.61698        -5.48777        -0.21959
LJ          -1.75772        -1.58895        -3.90799
LJ          -3.10584        0.155954        -4.58944
LJ           6.28727       -0.421712        -3.95553
LJ           3.61661         2.07367         6.11113
LJ          -5.06471        -6.40446         5.45569
LJ           6.20032          2.5002          2.1785
LJ          0.193416        -1.66731         2.62939
LJ          -5.43722        -2.97257        -4.29549
LJ          -5.80413         4.71623        0.281768
LJ          -3.40623         1.42626        -1.83622
LJ           3.74638        0.612381         3.91738
LJ          -2.41339         1.66142          4.4282
LJ          -6.10441        -1.83356        -2.91525
LJ           5.16687         3.24699          2.4221
LJ           6.10034         4.46476         3.12285
LJ          -4.30672         0.69691        -5.56016
LJ           5.04695         2.13184         3.30539
LJ          -1.90951        -1.99559        -6.45584
LJ          -4.79184         -5.2463        0.796354
LJ         -0.589119        -6.15246         1.45854
LJ          -1.26773         2.86409       -0.397005
LJ          -2.85157         4.18166        0.818281
LJ          0.612788         5.99235         1.67458
LJ          -2.65305         -6.1875        0.243656
LJ           1.38476        -0.63241        -4.76801
LJ           1.99417         1.53806        -3.19772
LJ          -1.22651        -4.10984         3.56612
LJ           1.71421       -0.259677         5.41544
LJ          -6.25142         5.32344        -4.58132
LJ          -1.80095        -6.25564        -3.88558
LJ           5.06368         5.01407         4.06738
LJ          -4.10775        -4.22107        -5.15237
LJ          -2.07764        -4.70907        -5.70991
LJ          -6.37303         4.83015        -2.58389
LJ          -4.55087         -4.9032        -5.92094
LJ         -0.345373        0.378871          2.7672
LJ          -2.92867         4.51976         2.01395
LJ         -0.415675         1.88398        -3.28039
LJ           2.69258        -3.71593         3.44495
LJ           2.12447         -4.3242         4.57918
LJ          0.207512         2.12351      -0.0594836
LJ         -0.157152         -5.1322        -5.94765
LJ           6.21136        -3.35284        -4.34411
LJ           3.72134         4.61016         3.84227
LJ          -1.38107         2.34921        -2.25428
LJ            4.6647       -0.897827         0.47226
LJ         -0.127616         5.96844        0.799568
LJ          -2.91402          2.8596         2.73606
LJ           3.07447       -0.657112         3.57576
LJ           0.39167        -3.30574        -6.12013
LJ          -3.11149         6.16909          3.2008
LJ          -5.53048      -0.0438341        -3.69979
LJ           4.17095         5.90797         4.33829
LJ          -4.42909        -3.25954        -4.18092
LJ          -3.26507         1.50431         -6.4528
LJ           4.02283          4.5295         2.62935
LJ          -2.91513         4.81529         3.23689
LJ          -5.36824         -2.4312        -2.13627
LJ          -1.54735         1.20068         3.49363
LJ           2.42567        -2.96663        -1.36093
LJ         0.0513457         2.90119         1.48218
LJ         -0.261774         5.94938         2.17298
LJ          0.189458         3.03745        -4.23358
LJ           -4.2134        -2.68525         2.75832
LJ          -5.59496        0.174314        -2.53094
LJ          -4.22813         1.79659         2.66651
LJ           2.34642        -3.79008        -6.39962
LJ           -3.7808        -4.91262        0.525022
LJ          -4.27562        0.301743        -2.48458
LJ          0.713577        -2.32972        -4.41959
LJ           3.52967         2.42083       -0.520079
LJ          -2.39533        -6.45073         5.69175
LJ          -1.68165       -0.050091         2.53604
LJ          -1.05883         4.37712        -3.74424
LJ          -2.25911         2.04559         2.73541
LJ          -4.89313         5.32577        -1.30882
LJ           5.23105         5.56671       -0.273836
LJ          0.780285         5.95537        -6.02912
LJ          -4.07651         1.55923        -3.11378
LJ           6.42481         3.99888         -1.4453
LJ           1.35098         4.18156        -4.96179
LJ         -0.592788        -4.38471        -4.62086
LJ           1.23162        -3.24813           4.039
LJ           5.92526          2.7174         1.17795
LJ          -1.94733        0.862981        -4.50473
LJ           2.67749         4.65492        -3.59917
LJ           4.02272         3.72536        -5.21342
LJ          -4.95667        -1.88687         -3.8258
