108
#Comment!
LJ          -0.32303        -1.50945         1.44402
LJ          -2.55187        -4.85157        -5.70919
LJ           5.52019         2.29172        -3.85344
LJ          -4.02481        -4.84379         0.22788
LJ           2.85404        -5.30802        -2.63469
LJ          -5.92749         2.30439       -0.175847
LJ           2.11467         1.20698        0.554671
LJ           3.79584         2.51122         2.54029
LJ           -5.2703        0.965745         4.08096
LJ           3.27643        -3.20402         4.00842
LJ          -2.37724         1.25167         5.32962
LJ           4.94202         4.27971        -1.34337
LJ           -3.8312        -4.97581         6.39384
LJ         -0.751036          6.3099        -2.47253
LJ           5.40543         3.37593        -3.21256
LJ           6.11067        -1.42055         3.46373
LJ          -5.70283         2.64358          2.3774
LJ           5.46086       -0.489015         1.01349
LJ          0.862391        -4.44709        -1.28487
LJ            -4.646          -1.585         2.87094
LJ          0.262717        -4.59288         -6.4294
LJ          -5.56312         6.30441         3.83363
LJ          -5.73256         3.32404        -4.44382
LJ           2.22712        -4.74268        -3.82607
LJ           2.67493         5.17416         3.80795
LJ          0.264714         2.03279       -0.563026
LJ          -3.74207         2.36613        -5.37823
LJ          -5.14678         4.14639       -0.986488
LJ          0.903864        -4.68392         1.33205
LJ           -2.2008        0.449197         0.50705
LJ            -5.391       -0.179239        -6.08566
LJ          0.406741        0.592614         2.88012
LJ          -2.18666         3.40533        -5.86977
LJ           5.01551        0.474046        -5.81435
LJ          -5.22305        -1.60457        -5.19845
LJ         -0.605552         4.37888         2.09222
LJ         -0.713583        -3.97569        -3.74799
LJ           -4.7855        -2.13652         4.69625
LJ          -4.48438         6.29334        -5.26275
LJ          -4.64353        -3.35733         6.14131
LJ           0.54129         2.95755         1.90664
LJ          -3.67956         1.22532        -1.86236
LJ           3.00901         6.11526        -4.22607
LJ           1.10852        -3.88228         3.53907
LJ          -5.60504         1.91654        -1.71981
LJ            5.1545        -6.40542         3.94628
LJ          -5.15364         2.63968         -3.5161
LJ           1.70022          -1.798         -0.7845
LJ           6.11631          4.4014        0.120185
LJ           1.02252         2.09991        -6.27592
LJ          -5.69217         2.02681         3.83966
LJ          -1.95727        -3.03673         2.25878
LJ          -5.32561         4.96746         4.86339
LJ          -2.33518        0.414836         -5.9996
LJ           3.92176         1.36164       -0.922076
LJ           2.05986        -0.11838         4.32387
LJ          -6.03523        -5.73813        -6.24809
LJ          -1.57547         4.67744        -1.28196
LJ           3.45855         -3.9414        -2.96043
LJ           4.41287        -5.01046         1.31244
LJ           2.65501        -3.92747        -4.64394
LJ          -3.50686        -1.53355         4.72138
LJ           5.64433        -4.13794         2.79076
LJ           1.86249        -5.19454         1.17771
LJ           -4.4979         2.72408         3.82956
LJ            3.0776        -4.78332         4.46453
LJ             -4.52       -0.736684        -5.52116
LJ          -4.40755         -5.6949         5.39985
LJ          -4.43601       -0.263916          4.7889
LJ           2.21723         2.29683       -0.491771
LJ          -6.12895        -1.97776      -0.0308428
LJ          -1.49751        -1.62868         3.01965
LJ          0.352881        -1.69456        -1.07868
LJ          -6.17781        -1.67256        -1.59396
LJ           5.67044         6.07065        -3.12143
LJ           5.98368         4.19678        -1.89704
LJ           1.60154       -0.323043        -3.72416
LJ           2.67781        0.970573         5.68848
LJ           2.64005        -4.97673        -5.94327
LJ           4.45452         1.78224        0.786304
LJ           4.48656         -5.7498         2.10518
LJ          -2.93252        -4.92949          5.1761
LJ          -1.28515        -2.14487        -3.27048
LJ           5.33976         5.92713         2.19423
LJ           2.02204        -6.37194        -4.97804
LJ           4.94794        -3.07628        -4.51426
LJ          -2.39485        -4.30283        -2.93497
LJ          -2.47994         -4.6248        -1.75419
LJ         -0.770004        -4.95909        -3.08524
LJ           4.72094          2.0515         1.97781
LJ           3.60954         -2.3214        -3.16035
LJ          -4.97379        -2.46717       -0.966361
LJ          -6.14264        -4.70152        -1.61488
LJ          -1.23148         5.47852      -0.0321387
LJ          -5.06032         -6.1603        -4.47757
LJ           2.85897        -3.85048         1.07436
LJ          -4.92623        0.240604        -3.26661
LJ           1.49365        -3.36308        -1.73858
LJ            4.4181          6.3251         3.02665
LJ           1.27658         5.61411        0.726269
LJ           5.28312        -3.46023        -3.46694
LJ           3.56916         4.44518         4.84664
LJ           2.36935        -1.97979         3.65269
LJ           2.08814         3.36835        -2.34675
LJ             1.372         4.58781       0.0870935
LJ          -5.85468        -3.28918        0.607386
LJ          -5.80398        -4.48948        -5.27825
LJ           3.06157         2.88004        -1.60627
