108
#Comment!
LJ          -5.57973         1.27034       -0.914754
LJ          -4.12496        -3.23452        -5.41794
LJ          -5.86512         2.76607        -2.95946
LJ           2.61151         5.56048         3.51272
LJ           1.06819         2.08993         2.64065
LJ           2.49368        0.435237         1.91068
LJ          -2.49599         4.71745         2.23211
LJ          -4.37358         2.76979         2.15644
LJ           5.12363         3.26899        -3.87799
LJ           1.38573        -2.45496         6.19685
LJ          -3.84071        0.199302         6.22263
LJ          -6.20859         5.97958        -3.86746
LJ         -0.220169         5.16073         3.82849
LJ          -4.26607         4.83648        -4.87033
LJ          0.977307         2.56961         -3.3377
LJ          -3.65055        -2.19082         2.83644
LJ          -3.91619        -5.81541         3.77714
LJ           -3.4494        0.678169         2.28509
LJ          0.383442         6.21909        -5.08353
LJ           5.61592        -2.21235         2.11228
LJ           1.77748        -5.85167          5.1564
LJ          -3.65774         5.09919        -2.27711
LJ           5.78061         5.65196         -2.4231
LJ           3.05765         3.76342       -0.513377
LJ           3.94135          5.5914         1.60685
LJ          -1.34794        0.210458        -2.60083
LJ          -1.81599        -6.02353         2.88657
LJ           5.51891         2.50442        0.780593
LJ           3.21782        -4.68148         1.14575
LJ          -4.63584         2.17151        -3.06974
LJ          -1.43536         1.27512         4.27397
LJ        -0.0976663        0.554576         4.04115
LJ          -3.55629         4.49673         3.12248
LJ         -0.186876        -3.57356         -4.0363
LJ           4.28944         2.89055        -2.89988
LJ           -1.1718         1.51938          1.4766
LJ          -3.97927        -3.96451         6.12489
LJ          -6.07767       -0.767749         2.70961
LJ          -3.00585           6.146         3.33867
LJ          -2.36453        -2.40176         5.82762
LJ          -0.37236       -0.640436        -2.31698
LJ          -5.96269         2.16266       -0.381249
LJ           5.16329         4.32137         4.57407
LJ           1.12252        -4.18909        -6.41449
LJ           5.37464         2.12027        -1.47935
LJ           5.13867        -4.75211         3.42306
LJ            5.1762        0.595031      -0.0118374
LJ          -2.12204        -3.32143       -0.815175
LJ           2.55799         -1.6493        -3.50427
LJ          -1.08034       -0.723525        -4.77813
LJ             5.867         1.29795        -3.33612
LJ          -1.07166        -5.01708         2.14792
LJ           4.91113        -3.50807        -5.19587
LJ           1.63563        0.625246         2.45594
LJ           1.12047        0.303544       -0.866069
LJ          -1.18856         1.48415         3.14058
LJ          -6.17178         5.15758         3.21418
LJ          -1.35565          1.5133        -3.58392
LJ           3.81468        -5.64529        -2.15515
LJ           4.77869        -6.40764         2.51828
LJ            2.1156         5.38915         6.14041
LJ           5.05297        -1.87665         5.07916
LJ          -4.62296         6.02536         -3.9883
LJ            3.6238        -3.96325        0.438142
LJ          -2.24112         1.24107       0.0697208
LJ         -0.909531         -4.5348        0.141951
LJ          -2.41191         1.83925         4.26718
LJ          -6.42334        -4.30337        -3.08824
LJ          -4.58521         2.90887         4.79845
LJ          -1.90181        -1.54081         -3.6677
LJ         -0.768453        -3.47327         4.31575
LJ         -0.381061        -1.43632         5.15026
LJ            2.6887        0.682818        -5.41807
LJ           5.50734        -3.38761         -1.8219
LJ           3.25367         2.73182        -3.71559
LJ          -2.13591         4.54236        -3.34687
LJ         -0.209504         2.75092       -0.833953
LJ          -3.60507         -1.1284         5.99316
LJ           3.53135        -2.11319         5.16093
LJ            6.1739         5.63506         5.58691
LJ           4.60645        -2.75582         4.88488
LJ          -4.88686        -4.14662          4.7206
LJ         -0.153875       -0.972877         -3.5221
LJ         -0.864427         5.19597         2.51637
LJ          -5.74596        -1.82293         6.39085
LJ            4.7762        0.466483        -1.41175
LJ          -1.07909        -1.94391         5.87344
LJ          -4.98672        -5.58474        -5.73651
LJ           1.12684         5.44743         2.88256
LJ          -2.46687        -3.05869          2.3813
LJ            3.6153        -4.14058        -2.73205
LJ           6.39975        -4.89387          1.7657
LJ          -6.34472        -5.12303       -0.765526
LJ           2.95522        -5.82672         1.03678
LJ          -1.97015         3.62493         5.55028
LJ           6.07144        -2.86326         6.35585
LJ          -4.94953        -2.38277       -0.663695
LJ          0.574305        -2.78967         2.96516
LJ           5.52556        -5.91721         3.15097
LJ           1.58847         3.85528         4.90286
LJ           3.34971       0.0428756        -2.68947
LJ           3.20783         6.41713         3.79129
LJ          -1.17865       -0.893466       0.0465926
LJ           3.84719         4.06407         -1.4961
LJ          0.799296        -5.12603         1.07777
LJ          -4.69152        -2.80387         2.95006
LJ          -4.58652         4.79102         6.42038
LJ          0.455238         5.12773        -2.11024
