108
#Comment!
LJ           3.84108         4.69496         -5.1751
LJ          -2.84766        -2.28799         6.36934
LJ            6.3273      0.00326061        -2.71898
LJ          -3.24131        -1.11119          6.3524
LJ          -2.52742         -4.4002         5.84543
LJ           3.63563          2.2531         3.21675
LJ          -3.61819        -4.86839        -1.08564
LJ           5.63465         4.09524          1.4122
LJ          0.151852         3.21936         5.14554
LJ           2.91885        -3.13951         1.38093
LJ            -6.459         6.19927        -3.68045
LJ          -6.25124         4.78736        -2.75184
LJ           5.42266       -0.527706        -5.81937
LJ           1.19127        0.938888         6.16529
LJ           5.19989         2.23684        -2.80719
LJ          0.417125        -6.38293         3.46472
LJ           1.76593         4.82446          4.4252
LJ           2.23056        -6.10398         4.69553
LJ           1.59995        -4.88459       -0.367164
LJ           2.29587        -3.38192         6.37747
LJ            1.5619        -5.23212         4.87004
LJ          -1.07555         -5.7494       -0.427808
LJ           1.65158         -4.0322       -0.887172
LJ           6.08845       -0.226167        -1.46147
LJ           2.07718         5.49635         3.75417
LJ          -2.10797       0.0592399        -6.02166
LJ          0.222808         -2.7658        -3.25386
LJ           0.03316         1.63107         4.87642
LJ            -3.269        -1.21625         3.53961
LJ           2.97634         0.44822        0.266957
LJ          -1.23011          3.3445        -2.33302
LJ           3.14755          1.1569         1.12902
LJ        -0.0812935         3.23534         2.85362
LJ           3.14929         3.30781         -3.4317
LJ          -1.46972        -5.33395        0.501754
LJ          -2.47662        -4.27827         -1.2643
LJ           6.00844         3.45246        -1.49532
LJ          -5.24089         6.01884        -2.76259
LJ           5.48645        -4.65432        -0.71496
LJ         -0.198335        -4.93052        -1.81739
LJ          -3.28708        -6.01729        -2.65236
LJ           2.70083         5.17711        -5.45346
LJ          -4.72915         3.98568         1.49479
LJ           3.83216         3.79075          5.0668
LJ          -4.20578         5.34545         4.32779
LJ            5.4485          -4.786         2.36637
LJ          -5.85953        0.855478        -1.29429
LJ          -5.63478        -5.81311        -1.65388
LJ           6.28879        -4.65922        -3.81667
LJ         -0.329929         2.11683         1.58474
LJ          -1.78499        -2.78852         2.90351
LJ          -4.40976        -1.32046        -1.18336
LJ         0.0431225        -4.63587         1.95702
LJ           3.48279         2.40611         1.06361
LJ          -5.17981        -1.30255       0.0138242
LJ           -3.2205         5.39322        -2.62649
LJ          -0.52692        -3.94813        -2.26939
LJ           4.91392        0.662069        -3.18671
LJ           5.57311         5.01244        0.197516
LJ          -4.25579         5.89089        -4.61019
LJ          -6.11148         5.65724        -2.20333
LJ           3.20347         1.11978         4.65921
LJ          -1.98801        -2.65313        -5.68508
LJ          -2.35699        -1.90492        -2.62817
LJ            1.8199        -3.56579        -3.29947
LJ           -5.1652        0.653892          5.0061
LJ          -4.88371        -5.94602        -4.51017
LJ           1.26183         1.75962         2.73209
LJ            5.6393        -5.98715         2.12598
LJ           4.00499        -3.97185        0.552048
LJ          -6.05428        -6.29201        -2.77978
LJ          -1.55038         5.84162        -3.29965
LJ            2.4463        -4.95059        -4.23384
LJ           5.11397         -2.7328        -5.21755
LJ          -4.57714        -5.81627         1.76388
LJ             3.085        -1.88035         5.41441
LJ           1.29164        -5.74625         2.41089
LJ           3.65438        -4.05361          5.8224
LJ          -2.54466        -3.33816         1.94556
LJ         -0.323119       0.0310584          2.1364
LJ           1.10732        -6.46171         4.26885
LJ          -6.15124         5.33797       -0.123654
LJ         0.0109402         5.75888         6.45485
LJ           4.96802         5.44851        -4.76195
LJ         0.0800363         4.07843        -5.80132
LJ          -4.23038         1.53987        0.801937
LJ           6.14635         -6.0212         5.99056
LJ          -4.06646        0.690436         5.18366
LJ          -1.40252         4.74106         4.28222
LJ           5.31446         1.72157         5.08545
LJ           -3.6818         3.83607       0.0895369
LJ          -6.45873        -5.49956         3.27695
LJ           1.71408        -3.77644          1.2151
LJ           -3.4867        -1.77047         2.34625
LJ          -2.61486         1.94581         4.03223
LJ           5.53631          5.8367        -5.98438
LJ          -5.19069         4.63495         4.16201
LJ         -0.676413        -5.73223        -2.33796
LJ          -4.44363        -3.59776         5.38174
LJ          0.421335        -1.82969         4.95217
LJ           1.45327        -4.98523        -4.96487
LJ         -0.541391        -1.09142        0.639344
LJ          -5.06016         1.35083        -5.22392
LJ           3.86865         2.89222         4.66128
LJ          0.554958         1.15449         2.51217
LJ           2.45364         1.03402         3.10127
LJ         0.0614005         4.36623          5.3492
LJ          -3.45226        -1.86742        0.737807
