108
#Comment!
LJ           2.72904         1.48293        -5.15247
LJ          -5.06272        -5.03052        -3.40494
LJ           2.27841       -0.635827        -6.12315
LJ          -2.84211         5.12808         5.48728
LJ           -4.6665        -4.94507        0.495352
LJ          -3.19977         2.65045         6.35582
LJ         0.0391457        0.931099         -2.8769
LJ           5.38317         4.83033        -3.97028
LJ          -1.38015        -1.31741        -3.60339
LJ            6.1253        -6.13918        -1.18799
LJ         -0.925795          4.6177         -1.8495
LJ           3.26011        -1.53484         3.06339
LJ           3.00642        -5.83636         -3.0154
LJ          -3.97016       -0.729843        -4.55025
LJ         0.0268586        -4.57071      -0.0919542
LJ          -6.37648         1.05088         -5.2015
LJ          -2.28303         4.92309        -2.69953
LJ          -2.13067        -3.97373       -0.075507
LJ          -4.16473        -2.81583         2.99661
LJ         -0.584373        -3.02347         1.85518
LJ            1.6425       -0.317574         5.92626
LJ          -3.88435        -3.38517           4.456
LJ         0.0828637       -0.646285        -2.07215
LJ          0.562906        0.166889         3.41186
LJ          -5.53508       -0.438682          -1.116
LJ           3.23451         -1.5752        -2.20042
LJ          0.223258         1.99645        -6.14594
LJ          -3.82283         3.38301        -1.40633
LJ         -0.580179        -2.23956         4.95988
LJ           3.31558        -2.78671         -6.0736
LJ          -5.67384          2.3597        -4.09456
LJ           -3.2724         2.82956          2.4538
LJ          -1.07238        -4.28503         2.44902
LJ           2.95038         1.66009        -3.81297
LJ           0.91059        -2.63199         -3.5778
LJ            5.1425         0.57053        0.701246
LJ          -4.79177         1.42182        -4.24471
LJ          -5.30483        -1.24544        -3.87799
LJ          -1.83962         5.46941         5.68021
LJ          -3.78325          1.5701         3.19811
LJ          -2.68707        -1.12647          4.7704
LJ           3.11006        -1.37305        0.630506
LJ           5.17051        -3.19236        -2.55459
LJ           6.26861        -6.25283         -6.4067
LJ         -0.529003        -1.88907       -0.488015
LJ           3.24278         5.50916         4.44478
LJ          -3.84099        -5.92199        -1.55616
LJ            1.5512        -3.78495        0.401139
LJ          -3.50855        -5.25568         4.05466
LJ           1.58616          5.2588         5.58297
LJ           0.44693         3.40915        -3.16009
LJ          -3.05215        -1.26591        -3.88217
LJ           1.95748        -2.21429         -4.7697
LJ           3.22323        -5.09915        -3.90326
LJ            1.3779        0.872332        -4.45818
LJ            5.8358        -3.34043        -1.45727
LJ          -6.04327        -1.66531         6.03541
LJ           2.19658        -5.40277        -4.63045
LJ         -0.308171        -5.10208          6.0854
LJ          -4.40278        0.218801         3.36513
LJ          -3.18555         2.97865        -2.40799
LJ          -5.19221         5.14713        -4.46632
LJ          -3.29402         -2.0813        -1.09887
LJ           -6.1796         5.30393        -5.40211
LJ          -2.84889         4.90017      -0.0541523
LJ          -3.51692        -5.58052        -2.74042
LJ           2.09114        -0.19762         3.54566
LJ          -2.51829       -0.241082        -4.34239
LJ          -3.27116       -0.987616         2.41634
LJ          -1.76791        0.823969        -0.97225
LJ          -6.04523         3.54733        -4.26082
LJ           2.94641         -1.7889       -0.881965
LJ          -2.22857         2.73031         -1.8652
LJ           3.73834        -2.63958        0.489674
LJ          -3.50696        0.622763         6.33838
LJ          -6.29193          4.9503        -4.07227
LJ          -4.98276        -2.34749        0.996248
LJ           4.23522         -3.1698         5.67905
LJ          -4.29088         1.33535        -6.39322
LJ           2.76389        -4.47865         5.15045
LJ          -1.94944        -6.22639        -3.33228
LJ           5.00737         1.11968         3.87465
LJ           3.92051        -6.38734        -1.47835
LJ          0.605826         2.71076        -4.15912
LJ          -3.08278        -5.64785         3.28481
LJ          0.598552        -2.33017         2.63666
LJ           1.38056        -5.83205        0.752521
LJ          -6.39631        -4.62494        -1.19152
LJ           2.46789         1.50101        0.185638
LJ           4.69944         4.06579        -1.80396
LJ           1.06161      -0.0728874         4.19816
LJ          -3.35293        -1.24833        -2.76017
LJ          -2.23948         4.18842        -4.90632
LJ           -6.2708        -1.91079        -2.47808
LJ          -1.80148        -5.45719        -6.03735
LJ           6.07763         4.78251        -6.24124
LJ           3.68039        -2.35368         5.87658
LJ           4.73681        0.215818         3.27049
LJ           2.65386        -5.75043        -6.08616
LJ           1.36977        -2.94582         2.60376
LJ         -0.091448         5.22165        0.413939
LJ          -1.37755       -0.239638         3.93569
LJ           5.44598        -2.30327        -2.07197
LJ           -2.7304        -5.06906      -0.0748281
LJ         -0.690988        -2.67755        -3.89114
LJ           2.67865        -4.70065         6.38647
LJ           5.62971       -0.346795         3.26404
LJ          -5.75332        -6.31402        -0.70373
