108
#Comment!
LJ           -2.4242        -2.98065         2.48757
LJ           3.56413        -1.25697        0.120981
LJ          -3.54755          2.3342       -0.334892
LJ          -2.88542         4.13907        -2.42454
LJ          -4.02523         4.13798         1.90923
LJ          -1.67076        -3.63842         2.10237
LJ         -0.136175        -5.16267        -2.35745
LJ          -2.79998        -3.32988         0.71395
LJ            1.9351        -2.37531        0.155892
LJ           6.08251        -4.00987        -4.14909
LJ           3.96801         4.87177        -2.63971
LJ           4.99715        -4.70429       -0.675501
LJ          0.562321         -3.4011        -5.82702
LJ           1.20738        -5.00481        -1.93413
LJ          -5.44344         4.33499         5.82192
LJ           2.92289          3.1511         3.08808
LJ           2.70967         1.02198        -5.94134
LJ          -4.32203         1.24427         3.04644
LJ           1.56127         2.67279        -5.16914
LJ         -0.786237        -4.25538         4.26784
LJ          -3.94533        -3.10805        -5.32751
LJ           1.16593         6.43592          4.6101
LJ         -0.049251        -1.90823         5.51361
LJ           5.62529        -3.63864         6.15819
LJ          -4.25197         4.99518        -4.57276
LJ           6.31544        -1.11226       -0.878042
LJ          -1.46569        -6.44081       -0.217949
LJ            2.7056         4.28504       -0.189873
LJ          -3.09948        -2.26189         1.43425
LJ           1.19008        -6.25653        -1.77968
LJ           -1.6046         1.47663        -4.58698
LJ            2.2238        -4.89102        -1.87734
LJ           2.90426         -1.8276         3.39368
LJ          -3.12395          1.5055         5.46916
LJ          -5.74694        -2.78034        -4.05383
LJ           5.40106         2.92323         3.41026
LJ          -6.39961         1.37808        -3.15558
LJ           5.52156         -4.5865        -5.22614
LJ          -5.61276         5.36531        0.237601
LJ          -2.14487        -2.37889        -5.60727
LJ           4.79608        -3.67896        -2.99099
LJ           5.60219        -5.52938       -0.835881
LJ          -2.46985        0.394616        -5.05179
LJ          -5.23473         6.12777        -1.55615
LJ          -5.96865         1.01475         4.93571
LJ          -2.93014         5.94724        -3.33091
LJ          -4.66483        -4.90416         1.72357
LJ          -5.02044        -1.33999       -0.552281
LJ          -1.65568        -6.43115        -1.84394
LJ           3.67029        -3.54509        -5.85118
LJ          -1.16702        0.849603         6.29312
LJ          -6.24796        -3.03827        -1.43367
LJ         -0.414646        -2.51101         4.14147
LJ          -1.94892         4.03856       0.0737701
LJ          -2.29857         5.92871        0.219242
LJ           2.98932         2.97917        0.948189
LJ          -2.90275        0.445477        -3.33866
LJ          -5.60572         5.71624        -5.23343
LJ          -1.15829         3.07678        -1.99942
LJ           -6.3191        -4.64342        -4.67569
LJ           1.62677       -0.976769        0.308282
LJ          -5.92881         3.83177        -4.53357
LJ            4.5476        -4.35728        -3.89663
LJ           5.72375         3.49551        -3.08688
LJ          -3.82126         3.41923        0.211998
LJ           -1.5013        -4.06151         5.12999
LJ            4.6778         4.52217         5.66024
LJ          -1.62027         2.79969         5.30723
LJ           3.70177        -1.26161         1.25286
LJ          -6.30092         5.65836         3.55706
LJ           -5.1647        -2.26115        -5.27574
LJ          -3.83926        -4.77246        -4.33754
LJ           1.84529         -2.6115          5.9221
LJ           3.09557        -1.35995         4.24746
LJ         -0.280815        -6.08036         -4.8629
LJ            6.0519         3.50051         2.39668
LJ          -4.62256         3.59516         5.10913
LJ          -6.43843         4.36728        -3.74139
LJ          0.401168         2.50997         2.90094
LJ           4.79186         5.96042        -5.24585
LJ          0.832932         6.24725        -4.48958
LJ           2.99498         4.53551         4.26695
LJ          -6.31944       -0.701764         1.61335
LJ           5.66627        -4.29003         4.83169
LJ          0.348736        -5.46735        -4.01883
LJ           1.17245         5.52162       -0.991078
LJ          -1.79478         4.80297         -5.6605
LJ           0.62187         -1.5548         3.66135
LJ            6.2509        -5.05547        -1.83214
LJ           4.54546         5.25384         3.96358
LJ           3.80778        -6.43186        0.255407
LJ           4.03116        -3.71746       -0.984142
LJ          -4.94458        -5.24543        -1.62255
LJ           2.20139          3.6518        0.178207
LJ           4.24998        -4.63234        -4.82382
LJ           3.06469        0.329647        -1.19496
LJ          -6.34002         6.10789         2.24282
LJ           -2.7315         3.66545         -3.8638
LJ           5.99942        -4.68423         3.40632
LJ            4.9363          3.2699        -5.31262
LJ          0.908075        -1.82942         6.02721
LJ         -0.881691         -4.8568        -3.10708
LJ          -5.56273         4.44306        -5.92842
LJ           2.89776         -2.8588        -1.97704
LJ           1.09393        -2.66633         1.92893
LJ           1.46499         3.46583         2.72762
LJ            5.9619       -0.786526         5.50442
LJ          -2.47655        -1.22064        -5.26098
