108
#Comment!
LJ          -4.53725       -0.374936       -0.374782
LJ          0.592417        -4.20805        0.764995
LJ           3.26098        -4.63771         2.36363
LJ           3.81116        -4.51499        -1.10904
LJ           -2.1521        -4.09074          4.2205
LJ           1.54242         2.69343         4.71718
LJ            4.2729         2.77591          5.1316
LJ           6.41578       0.0471103         2.42277
LJ          -2.87702        -1.68454        0.534503
LJ           3.04144          6.2352        -2.81087
LJ         -0.503168        -1.46109        -2.89749
LJ       -0.00276398        -3.91795        -4.71195
LJ          -3.84041        -1.60764        -1.57783
LJ           -4.5698        -2.57713         4.92306
LJ           -3.7218         4.69012         6.20462
LJ          0.302853        -5.40239         5.31908
LJ           4.80615        -3.97389         -4.4116
LJ           6.01124          3.1652         5.70581
LJ          -5.55179        0.603458       -0.231009
LJ         -0.848723        -5.43448        0.278618
LJ           2.38926        -4.20842         5.29672
LJ          -4.24462         3.20909        -1.63747
LJ          -5.61859        -1.89046        -1.62264
LJ           4.21122         1.86494        -5.74112
LJ         -0.331789       -0.572544         6.18535
LJ          -5.36854         0.66411         4.06421
LJ           -1.8508        -1.32175        -2.15166
LJ          -3.79838        0.366734         4.92457
LJ         -0.106414        -3.44735       -0.233201
LJ           -1.7134        -3.19557        -1.98113
LJ           1.42856         2.44367         5.85976
LJ           -6.0825        0.950528         6.33318
LJ           4.81284        -2.80574        -3.34636
LJ          -5.92522        -3.10521       -0.816502
LJ           4.92474         5.84779         4.36259
LJ          -5.72366       -0.841609         4.62976
LJ           3.36925        0.646804         4.69008
LJ          -1.35958         -2.7436          3.9125
LJ          -5.05771         5.28924         1.16181
LJ         -0.818485         6.21707         2.88753
LJ           -1.5585         4.11222        -4.98709
LJ            3.8608         2.21787       -0.301238
LJ         -0.231973        -4.26035         -2.2352
LJ          -4.91591         4.92382         3.00312
LJ          0.272554        -1.23691        0.541768
LJ         0.0152754         1.34058        -2.90208
LJ          -4.34542        -5.37881        -6.24767
LJ          -2.91007         -0.4743        -5.56289
LJ           2.58201        -5.69174       -0.542018
LJ        -0.0992601        -6.05851         3.83361
LJ           1.43439         3.23662          -4.087
LJ          -6.01971        -3.77221         6.34345
LJ          -2.29885         4.49804          4.2345
LJ           4.77952         4.65789         3.64029
LJ          -3.45001         -2.0359         2.94802
LJ          0.697902        -4.30687         5.26918
LJ           -5.1714         5.23439          4.0567
LJ          0.662956         2.35109        -1.96811
LJ          -0.56458        -2.33327         -4.6542
LJ           4.01584         5.15694         3.93462
LJ          -4.07801         2.63808         1.24703
LJ          0.680509        0.237062        -4.30626
LJ          -4.81913      -0.0642631         -2.7058
LJ           3.35732         4.40303         3.91398
LJ          -1.34097         1.43238        -1.29794
LJ          -4.03819         1.15739        -3.54482
LJ          -1.77856        -1.35563        -3.30314
LJ          0.845175         6.40083        0.480775
LJ          -4.26333        -3.49977        -2.24616
LJ          -6.25605        -2.83535        -5.48967
LJ           4.57048        -1.93075         1.65853
LJ          -6.44342       -0.373724         -1.3332
LJ           2.14928        -4.92549        0.384469
LJ          -4.85823        -4.18548        -6.20902
LJ          -3.66998        -2.18151         -6.4633
LJ          0.651046        0.961557         3.50486
LJ           -4.6205         4.47673        -5.94643
LJ           5.62933        -4.03249         -3.1112
LJ          -3.27723         6.24054        0.508939
LJ          -4.18446        -4.75946        -5.39436
LJ          -1.16573         1.99183        -4.66259
LJ          -6.20782           4.622         4.16737
LJ           -4.7587        -4.87105       -0.874539
LJ          -4.16576         3.78996         5.02034
LJ          0.841947        -2.30571        -1.17845
LJ          -4.95896         2.38915         4.08728
LJ           1.92995        -3.65626         1.21498
LJ          -2.54791        -5.36989          3.0837
LJ           1.82648        -4.77065        -1.53718
LJ           3.47298         -2.0412        -5.47568
LJ           3.71961        -1.92659         1.11453
LJ          0.525133        -5.19803        -4.56294
LJ           2.51842        -5.07648         2.87905
LJ           -1.6086         6.36949        -5.82877
LJ          -3.84795       -0.952876          2.3605
LJ          -4.55614         4.79414        -1.66662
LJ           -2.4145        -3.22683        -0.56139
LJ           1.80382        -5.66887        -3.82668
LJ          -1.81479        -0.13075        -2.82822
LJ          -4.87675         4.85448       -0.567463
LJ          -1.99715        -5.88086         6.12721
LJ          0.756152        -6.29776         5.67782
LJ         -0.353814        -3.15302         3.79835
LJ           6.42898        0.881546         5.44119
LJ          -4.04281        -5.40995        -3.55979
LJ           1.87141         5.19761        -3.29353
LJ          -5.23098        -5.99268       -0.920165
LJ          -4.15868         5.65595        -3.67992
