108
#Comment!
LJ           4.02995         5.28125        -5.73361
LJ           -1.8584         -2.2929          6.1867
LJ          -5.71376       -0.793055        -3.31675
LJ          -1.93174        -1.43417        -6.04373
LJ          -4.00487        -3.46268         6.07575
LJ           3.99567        0.760738         3.38504
LJ          -4.63142        -4.74643        -1.45058
LJ           6.43284         4.39072        0.446982
LJ          -1.05346         3.70043         5.91595
LJ           3.90005        -3.87671         2.72401
LJ           5.46083         6.39296        -4.61905
LJ          -5.99397         4.54672        -2.92192
LJ           4.25563       -0.692143        -5.61062
LJ           0.41419        0.119647        -6.36756
LJ           4.13633         1.92712         -2.6841
LJ          0.792494        -5.79115         1.89501
LJ           2.14884         3.59615         4.99642
LJ           3.25125        -5.38568         5.18839
LJ           1.62461        -4.50513        -1.07465
LJ           2.24414         -4.2268         5.54371
LJ          0.789281        -4.51975         5.43099
LJ         0.0220525        -6.25619        0.696977
LJ          0.730994        -3.09117        -2.04833
LJ          -5.93354       -0.624264        -1.65014
LJ           1.40138         5.71277         4.38451
LJ         -0.795659        0.484268        -6.03549
LJ          0.251147        -3.02438        -3.43126
LJ          0.485865         1.42638         5.21628
LJ          -4.14681       -0.356015         4.23096
LJ           3.61863        0.801277       -0.394725
LJ          -2.72225         3.38278        -2.67163
LJ           4.53074         1.47182        0.163428
LJ         -0.893484         2.92221         3.43093
LJ           2.06148          2.8535        -3.78139
LJ          -2.19154        -6.08664         1.77688
LJ          -2.20169        -3.04336        -1.70304
LJ           5.32485         4.13027        -2.00364
LJ          -4.30534         6.37889        -3.26021
LJ           4.24961        -4.10211        -0.38019
LJ        -0.0349134        -4.96207        -1.16777
LJ          -4.42433         -5.8126        -2.03761
LJ           3.15356         5.90522        -5.03971
LJ          -4.32015         4.30992         1.13686
LJ           3.81036         4.42736         5.08062
LJ          -4.40784         5.56355         5.12758
LJ           5.21828        -4.85574         2.53982
LJ          -5.61506         1.85439        -1.18242
LJ          -5.16571          -6.029        -1.03099
LJ           4.84234        -4.08168        -3.64569
LJ          0.451956         2.34167         2.91852
LJ          -1.56904        -4.35054         2.56995
LJ          -3.05555         -1.0278       -0.820748
LJ           -0.3258        -4.26914         1.27922
LJ           3.90602          2.3906        0.750397
LJ          -5.99584        -1.20672      -0.0676945
LJ          -4.66104         4.50643          -2.273
LJ          0.167095        -4.05073        -3.91164
LJ           5.96698        0.654085        -3.06574
LJ           5.19975         4.71597        0.371652
LJ          -3.18932         6.34378        -3.40363
LJ          -5.42226         5.38677        -1.77981
LJ           4.73784         1.35061          4.1349
LJ          -2.17752        -3.61197        -4.49552
LJ          -1.38354       -0.691181        -3.04045
LJ            2.6768        -4.72857        -3.02394
LJ          -5.03456         1.96391         3.91832
LJ          -5.50927         6.23411         -6.0274
LJ           2.32865         1.63905         1.91193
LJ           6.26197        -6.32352         2.51623
LJ           3.65487        -3.31626       -0.105517
LJ           6.31919         6.24585        -2.61137
LJ          -1.18502         5.31032        -2.94875
LJ            2.0591        -5.40324        -5.70783
LJ           5.00822        -2.82331        -4.07554
LJ          -3.69545        -5.52029          2.4172
LJ           3.02056       -0.315161         5.01101
LJ           1.97056        -5.54565         2.81032
LJ           3.67761         -4.2712         4.82526
LJ          -2.36373        -3.44789         1.78517
LJ           1.09159       -0.876067         2.51426
LJ          0.151892         6.13742           3.939
LJ          -6.18406         6.31628         1.72395
LJ         -0.314573        -5.69276         5.61175
LJ            5.9654         5.91839        -5.60009
LJ         -0.780476         4.20642        -5.78667
LJ          -3.45948         1.04495         1.22149
LJ           5.11267         5.85579         6.36416
LJ          -3.09493       -0.102152         4.72778
LJ          -2.11794         3.99448         3.92478
LJ           5.65705        0.468764         5.41582
LJ          -4.67514         3.29491        0.610589
LJ           6.24892        -5.62088         3.31694
LJ          0.676321         -3.1069         1.42781
LJ          -3.52663       -0.538978         2.19475
LJ          -2.94203         1.81545         3.85344
LJ           4.50734          4.8931         6.25226
LJ          -4.66445         3.92464         4.71481
LJ         -0.207431        -6.43491        -1.39436
LJ           -4.0543        -4.57742         5.25714
LJ          0.231418         -2.5316           4.771
LJ           1.36178         -3.9597        -5.48162
LJ          -1.21626       -0.451411        0.248983
LJ          -5.72161          1.6825        -5.82227
LJ           4.33671         2.15338         4.70289
LJ         -0.491519        0.737488         2.59991
LJ           2.43425         1.67519         3.20645
LJ          -0.68781         4.78585         5.40427
LJ           -3.3808        -1.48077         1.63875
