108
#Comment!
LJ           1.60602         2.93713        -3.68722
LJ           5.76775         5.89663        -5.64973
LJ          -1.24854       -0.214258         5.91629
LJ          -6.40802         6.33446         5.12889
LJ          -4.04547         2.32498          1.2505
LJ           -1.9458        -2.77434        -4.70231
LJ          -2.49265         -1.5807        -3.06982
LJ           6.26833         3.48398       0.0294967
LJ          -3.06709         2.93041         2.29228
LJ           5.90771         -5.2397       -0.539612
LJ          -1.25457        -2.08749        -2.91955
LJ             3.143        -3.77048         2.73814
LJ           4.20954         5.87032        -4.68311
LJ          0.440732        -2.73529         4.96385
LJ           4.21615        -5.85844         3.64657
LJ          -4.51505         3.39882         6.22314
LJ           1.06142         1.92514        -2.66259
LJ          -2.46387        -4.19821        0.518234
LJ           -5.3073         6.00212         4.79778
LJ          -4.27429        -2.49138         1.16472
LJ          0.259652       -0.116832         6.39296
LJ          -4.91814        -5.90811         6.42029
LJ         -0.215957        -1.99013        -2.13864
LJ          -3.94935         4.07903         1.53205
LJ          -4.96067        -1.84064        0.152051
LJ           2.73578        -5.28937        -2.16035
LJ           1.80711         4.84506        -6.26815
LJ           6.18945         2.15864        0.482597
LJ           2.04373        -3.80738         3.47076
LJ            3.5464        0.958517         6.16623
LJ          -3.16964         3.07644        -4.15122
LJ           -1.1735         3.15445          2.5567
LJ          -0.22279          5.5596         4.51935
LJ           3.89971        -1.65811       -0.739021
LJ           3.69705          2.1106        -5.09491
LJ          -1.28493        -3.79299         2.96184
LJ          -5.94086         3.28731         5.81646
LJ          -3.26092        -0.69156        -3.41832
LJ         -0.539227         1.24717         5.98197
LJ          -4.21194         1.36459       0.0638895
LJ           1.26343        -5.41222         1.27821
LJ          0.890181         1.78741         3.94349
LJ          -6.37597         1.37817        -2.86773
LJ           5.15926         5.04873        -6.11916
LJ          -2.14311        -1.23157        -1.93468
LJ          -6.19709        -1.76448         2.95152
LJ           6.35655          6.3204       -0.656466
LJ           5.42896        0.203378       -0.756971
LJ           6.20037         6.05742          3.9927
LJ          0.474455         4.35931        -6.30141
LJ           1.71997        -3.98124       -0.578178
LJ           2.07707          -2.308          6.2864
LJ           2.29827         -2.3185        -3.36519
LJ           4.36133      -0.0190039        -2.26239
LJ          -1.92311       -0.373561        -2.42093
LJ           4.27091       -0.842611        -1.59924
LJ           4.58019        -2.36118        -5.40715
LJ           2.35967        -3.74666        -3.59969
LJ           2.93917        -2.61319        -5.38357
LJ          -4.64082          5.2519         4.99924
LJ          -3.78421         4.05975         5.89231
LJ          -6.02936         5.25959        -3.23698
LJ         -0.649229        -4.14727       -0.276163
LJ          -6.11795        -5.13331        -1.83002
LJ         -0.327643         4.88965        -3.02648
LJ           -4.2859        -5.44475        -1.90297
LJ           3.59841        -1.52058        -3.74221
LJ          -3.65785          2.3146        -3.03708
LJ          -3.60153        -1.47569         5.63306
LJ          -6.18353          3.1854        -3.20821
LJ          -3.55741         1.98647        -4.05552
LJ           4.20807         3.06188        0.780459
LJ          -1.51859         4.83199        -2.85344
LJ          -5.88672        -3.17906         1.87881
LJ         0.0569233         -3.5248       -0.126837
LJ          -4.47774          4.5304        -2.24587
LJ         -0.242736        0.787055         1.81032
LJ           1.91144        -3.50053         1.30898
LJ          -5.25991        0.493534        -2.43992
LJ           2.53676        -3.00727         4.56774
LJ           -3.7654         5.27956         6.39493
LJ           2.24201        -1.72842         4.90351
LJ          0.870684        -5.66378        -1.57141
LJ           2.87324         4.16149         6.25219
LJ          -3.51793        -5.05133        -1.33551
LJ          -2.00702        0.800806         5.13117
LJ        0.00442998           4.007        -1.77167
LJ           -4.8168        -6.40725       -0.290146
LJ           2.77866        0.284387        0.252995
LJ          0.143061         3.12375        0.548328
LJ            2.7865        0.107005         2.84172
LJ          -1.24231        -4.03173         1.44529
LJ         -0.527213        -5.85565        -2.64783
LJ          -3.72804       -0.711647        -5.72151
LJ           6.09038          4.2675        -5.89364
LJ           3.14084         4.14807        -4.83456
LJ           2.86733       -0.956378          5.3193
LJ           3.06779         -1.0395         2.77001
LJ           2.95846        -5.18434         4.18126
LJ           1.04014         -5.0345           4.586
LJ           3.69405         2.86039        -1.92824
LJ         -0.141037         2.69893         4.59131
LJ          -5.10025       -0.909887         0.58726
LJ          -2.27893         5.37674        -1.17194
LJ          -2.69918        -6.39427         4.15909
LJ         -0.314543        -5.44642         5.82092
LJ           3.66223        -2.25247           3.607
LJ          -5.69432        -5.24959       -0.837264
