108
#Comment!
LJ          -5.78509       -0.752082       -0.269347
LJ          0.348819        -3.63862        0.942361
LJ           5.23566         -5.1779         3.03875
LJ           4.39269         5.84945          -0.129
LJ          -3.11731        -4.68551         3.41323
LJ           0.36546         3.96113         5.41117
LJ           5.10451         3.10256        -6.31738
LJ          -5.60815         2.59203         3.07133
LJ          -3.02125          -2.735        -2.47683
LJ          -6.07449         5.74382        -5.72871
LJ         -0.214386        -1.40123        -6.13305
LJ            0.4442        -3.57756         6.18039
LJ          -5.73237        -4.02931        -1.72483
LJ          -4.06326        -2.38599         5.10723
LJ          -4.41048        -6.23841        -4.16944
LJ         -0.457418        -6.35163         5.44962
LJ            -6.304        -3.74129        -4.06687
LJ           4.24965         3.74229         5.12333
LJ           4.00571      -0.0284835       -0.574375
LJ          -1.36786         6.08109       -0.228753
LJ           5.67834        -5.86468         4.18202
LJ          -4.45486          3.6212       -0.224955
LJ          -4.06329        -1.03854        -1.70572
LJ           4.77209         1.98118        -5.12572
LJ           2.05603         2.37857        -6.38539
LJ          -4.36163        0.479605         4.84652
LJ           1.60676        -1.26156          -2.955
LJ          -4.19399          1.9542         4.39029
LJ           1.33462        -3.65228         1.66313
LJ          -1.78664        -2.94212        -2.10979
LJ          0.286918          3.1774          6.2263
LJ          -5.86957       -0.805558        -4.00853
LJ           4.24037        -4.02241        -2.54602
LJ           5.46413        -2.55257         1.13012
LJ           5.54857        -5.09769         5.36812
LJ            -6.223        -1.58022         3.19559
LJ           2.19372       -0.427006         5.55128
LJ          -2.17447        -3.68211         4.26073
LJ          -4.86573         3.87195         1.20743
LJ         -0.501994         1.88513          3.3381
LJ          -1.96375        -5.76645        -1.52701
LJ          0.828802         1.18389       -0.467848
LJ          -1.01763        -2.42005        -3.36259
LJ          -6.33096         2.98592         1.72003
LJ          -1.52766        -1.82534         3.21344
LJ          -1.44148         2.04277        -2.32882
LJ            5.9206         6.36421        -5.76907
LJ          -4.59333       -0.525022        -3.98044
LJ            3.3929        -6.07415        -1.54565
LJ           2.70762         6.41597         3.27303
LJ          0.311461         2.31814        -1.86444
LJ           6.31939        -4.71051         3.88852
LJ          -1.92553         3.11476         2.08189
LJ           5.53314        0.934928          3.1871
LJ          -4.06333         -1.6308         4.09286
LJ           1.93078         5.05538        -6.24164
LJ           5.77048         5.24858         4.34824
LJ          0.349029         1.32189        -1.41161
LJ          -2.77425        -3.50067        -3.95797
LJ           2.87814        -5.69769         4.57109
LJ          0.104592         2.99895         1.62587
LJ           1.50383         3.78494        -3.10487
LJ          -4.33812         1.80919        -1.29054
LJ           1.73937         3.66851          4.0714
LJ         -0.799067         1.45882        -1.03486
LJ          -2.02315         1.59605        -5.07101
LJ          -4.33692         1.37257         6.44802
LJ           1.51749        -5.92888       -0.374698
LJ          -1.64849        -4.24235        -4.98441
LJ           -4.5824        -1.69287        -5.09422
LJ           4.23888        -2.47895          2.3889
LJ          -5.39257       -0.699843        -1.31456
LJ          -1.18499        -5.06096        -1.41779
LJ          -4.17291        -4.89567         4.59021
LJ          -3.73482        -4.78021         6.23889
LJ         -0.736813       -0.192339         4.04619
LJ          -4.56548         5.76519        -4.76693
LJ           4.68573        -4.36002        -3.76928
LJ          -3.12948        -5.22102        -1.03984
LJ          -0.53078        -5.13464        -5.73282
LJ          -1.62022         1.33098         5.37726
LJ          -5.37259         4.26245         5.86239
LJ          -5.63683        -2.45249       -0.902204
LJ          -5.98255         3.65632         3.47105
LJ         -0.254304        -4.36234        -1.15992
LJ          -5.03373         2.35824         4.94116
LJ           3.38878        -4.37235         -1.8931
LJ          -3.71816         -4.0908         2.50879
LJ           4.95895        -6.38875        -2.60547
LJ           4.89872         -1.9775        -5.99395
LJ           1.06993        -2.34237        0.922285
LJ           1.06814        -4.65219         -3.0279
LJ            3.4686         6.14412         5.41387
LJ          -1.60676          -6.322         4.13558
LJ           -5.0805        -1.20734         1.17523
LJ          -4.38064         5.51692        -1.09453
LJ          -2.13036        -2.80506       -0.982452
LJ           2.68426        -5.23082        -2.47836
LJ          -1.52561         2.81426        -4.73235
LJ          -5.83111         4.39836        0.549487
LJ          -3.79409         -3.8368         4.89705
LJ          0.996421         4.48243         6.07122
LJ         -0.527267        -1.64291          3.8183
LJ          -6.19279        -0.82886         5.56736
LJ          -3.76385        -2.20267       -0.277147
LJ           1.59786         5.76503        -3.09313
LJ          -4.16719        -2.36005         1.22777
LJ          -3.59467         -3.6409        -3.46856
