108
#Comment!
LJ           1.46558         2.61611         -3.7269
LJ           5.95978         6.14101          -5.437
LJ         -0.980845       -0.269276          6.0055
LJ          -6.13983         6.35651         5.19775
LJ          -4.02056         2.99351         1.02957
LJ          -1.99364        -2.26436        -4.67494
LJ          -2.05237        -1.59807        -3.15812
LJ           6.25514         3.38945       -0.238141
LJ          -3.00868         2.74525         2.65982
LJ           5.99802        -5.53123       -0.803032
LJ          -1.44395        -2.43346        -2.89045
LJ           2.95745        -3.48611         3.00231
LJ           3.87595         5.69899        -4.70302
LJ         0.0453716        -2.56607         5.25096
LJ           3.86925        -5.77498         3.29063
LJ          -4.59057         3.06943         6.24056
LJ          0.930904         2.31276        -2.94892
LJ          -2.54856        -4.19582        0.536811
LJ          -5.09814         6.41431         4.56633
LJ          -4.21742        -2.36093        0.952713
LJ          0.474325     -0.00692851         6.44381
LJ          -4.90625        -5.81184         6.19345
LJ         0.0363278        -1.74947        -2.13593
LJ          -3.47727         3.49882         1.94446
LJ          -4.83797        -2.00928        0.286666
LJ           2.55505        -5.20007         -2.0811
LJ           1.73536         4.56055        -6.09605
LJ           6.44181         2.51051        0.183147
LJ           2.09296        -3.32628         3.43021
LJ           3.69361        0.601952         6.25004
LJ          -3.31832         3.07121        -4.08731
LJ          -1.28548         3.21879         2.55576
LJ         -0.296514         5.82095         4.33613
LJ           3.48203        -1.41361       -0.993993
LJ           3.46463         1.71005        -4.95187
LJ         -0.687754        -3.41022         2.88253
LJ          -5.99206         3.16264         6.09601
LJ          -3.20646       -0.821398        -3.14742
LJ         -0.603033         1.64775         5.86414
LJ          -4.17977         1.36169        0.326632
LJ          0.948367         -5.0073         1.62712
LJ           1.02798         1.44337         3.76617
LJ           6.29851         0.90255        -2.88551
LJ           5.35557         5.25382         -6.4052
LJ          -2.30721         -1.2264        -2.22426
LJ           6.43452         -2.2487          3.1244
LJ          -6.45662         6.40904       -0.723434
LJ           5.10098       -0.160407       -0.667352
LJ           6.31789         6.09998         4.26657
LJ          0.470609          4.4597        -6.44416
LJ           1.49833        -4.38959       -0.767747
LJ           1.61561        -2.13597        -6.31246
LJ            2.2538        -2.31328        -3.47187
LJ           4.35484       -0.361668        -2.44609
LJ          -1.65232       -0.225775         -2.6396
LJ           4.61933        -1.03555        -1.49492
LJ           4.69637        -2.25271        -5.54262
LJ           2.36783         -3.9488        -3.66357
LJ           2.66308        -2.82924        -5.48951
LJ          -4.61548          4.8082         4.84677
LJ          -3.64646          4.1262         6.37774
LJ          -5.93993         5.27053        -3.40804
LJ          -0.91767        -4.23844       -0.380372
LJ          -6.29344        -5.38361        -1.86406
LJ         -0.503958         4.81317        -2.56809
LJ          -4.15936        -5.42604        -1.98497
LJ           3.44515        -1.39594        -4.21467
LJ          -3.65607         2.17663        -3.04577
LJ          -3.58524         -1.4337         5.34887
LJ          -5.74521         2.94028        -3.04199
LJ           -3.8922         2.14863        -4.18069
LJ           3.99953         2.82538        0.584728
LJ           -1.5637         4.81362        -2.55238
LJ          -6.32635        -3.18855         1.81805
LJ          -0.17506        -3.20679        0.412142
LJ          -4.60379         4.53841        -2.31493
LJ         -0.657875        0.523403         1.73399
LJ           2.13513        -3.54866         1.56704
LJ           -5.1046        0.555687        -2.74417
LJ           2.77943        -2.93365         4.48715
LJ           -3.6088         5.06826        -6.29342
LJ           2.22635        -1.71463         4.55934
LJ           1.31126        -5.70578        -1.69009
LJ           2.87815         4.30573        -6.24438
LJ           -3.5023        -5.14815       -0.949976
LJ          -1.64744        0.673967         4.85116
LJ          0.108471          4.4171        -1.82398
LJ          -4.81264        -6.17664       -0.258062
LJ           2.70989        0.373733        0.283244
LJ          0.676181         3.02691        0.380461
LJ           2.77757     -0.00941204         3.08525
LJ          -1.39811        -3.70342         1.10467
LJ         -0.641442        -6.11036        -2.97023
LJ          -3.97111       -0.823043        -5.46583
LJ          -6.36608         4.52607        -5.87723
LJ           3.49361         4.11696        -4.91791
LJ           2.96079        -1.12423         5.24104
LJ           3.17147        -1.09639         3.02923
LJ           2.96033        -5.26202         4.44129
LJ           1.17192         -4.8565          4.3148
LJ           3.37647         3.14608        -1.73784
LJ         -0.292764         2.33338         4.70637
LJ          -5.36277       -0.895511        0.377454
LJ          -2.23888         5.39722        -1.27586
LJ          -2.52693         -6.0703         4.58345
LJ        -0.0697121        -5.39546         5.86801
LJ           3.50939        -1.98175         3.63276
LJ          -5.77452        -5.20244       -0.887779
