108
#Comment!
LJ           4.08713         -3.7212        -3.66653
LJ         -0.823951        -3.76647         5.35389
LJ           5.10185          2.4013        -0.33324
LJ           6.31047         1.82084        -1.71361
LJ          -5.59976       -0.403766       -0.440454
LJ         -0.600466          4.9744         5.69642
LJ          -5.38522         3.66091        -3.07669
LJ           4.27575        -4.12556        -1.78406
LJ          -3.78531        0.907555         4.03734
LJ           4.27448         3.10314        0.601607
LJ          -0.12603       -0.175745        -3.00097
LJ            2.2473       -0.833598         2.13579
LJ         -0.781741         4.38526        -4.08457
LJ          -3.42098         5.37239         5.41519
LJ          -2.23491         -3.8935        -3.22069
LJ           2.74862         5.10226         4.23414
LJ          -3.79998        0.755272       -0.980761
LJ          0.314862         0.55766         5.90319
LJ          -4.34921        -2.60428        -3.61155
LJ           -2.7646         4.93671        0.181528
LJ           1.00633        0.809653        0.902345
LJ          -1.39688         6.18687        -1.99348
LJ          -6.09404         4.93399        0.980333
LJ           6.42438         3.88695        -2.09132
LJ          -6.08448         6.33524         -6.1932
LJ          -3.11438         2.74475        -4.20836
LJ          0.222936         2.08604       -0.871228
LJ          -1.19814        0.878522        0.276907
LJ          -1.26425        -5.66867         3.48057
LJ          -1.88259       -0.304378       -0.305092
LJ          -5.55901         5.66025         3.27613
LJ           2.32828        -5.78015         3.03056
LJ          -5.14819         -1.9708        -6.23938
LJ           3.90025         1.29777         5.52999
LJ           1.74583         5.52671         4.31208
LJ           4.89102        -5.66555        0.311095
LJ          -1.56103        -3.71867        -4.99459
LJ            5.9483         3.63068         4.92733
LJ          -4.41029        -1.87613         3.20137
LJ           3.10592        -4.34794          2.4429
LJ          -4.94838        -0.47617         6.17097
LJ           5.09654         1.44916         1.09564
LJ          -1.92893         2.53988         4.58825
LJ           4.50698       -0.823204        -2.82379
LJ          -3.91639        -1.17929         4.91206
LJ          -6.31169        0.679622       -0.320565
LJ           3.32804        -6.36946         1.83299
LJ          -2.89758       -0.666027         1.68301
LJ          -4.78645        -4.03433         5.64861
LJ           -3.7297         4.28863        -1.44782
LJ          -3.65904         0.99251         1.87143
LJ          -1.60886        -6.34153         4.12521
LJ          -2.15988        -3.41172         -4.1871
LJ          -3.38139         2.61005        0.691189
LJ           -5.1744        -1.13017         5.16312
LJ            2.6425        0.516553       -0.472999
LJ          -1.27039         4.31112        -5.12586
LJ          -3.48817        -2.36911        -5.18062
LJ          -5.06315         4.56035         3.08284
LJ           1.33739        -0.72804        -3.60323
LJ          -1.76238         3.63115         2.81249
LJ            3.7002         3.42097         2.82654
LJ          -2.02853          5.3251       -0.750939
LJ          -3.59202         4.30883          4.6588
LJ           1.51828         3.59825          1.9059
LJ           3.67155         4.49409         3.51728
LJ           4.84632         4.39559         6.38467
LJ           3.33154         4.73038          5.6083
LJ           2.07134        -5.56432        0.981857
LJ          -1.57599         2.33466        -1.71864
LJ         -0.646922        -5.91944        -4.63761
LJ          -3.82496         3.03418        -2.95033
LJ           -0.8556        -3.28376        -2.65478
LJ          -1.15425         5.02726        0.644313
LJ          -1.97062         2.81918        -3.70436
LJ          -2.72754        0.448185        -6.03668
LJ          -5.76181        -3.99076          1.8771
LJ           5.40656        -6.18966        -2.52998
LJ          -2.01969        -1.51447         5.61353
LJ           5.50441        -2.98268        -2.58775
LJ          -1.22039       -0.202295         -2.1122
LJ          -1.62254         5.24563        -5.45033
LJ          -2.74744         1.99361        -1.97027
LJ          0.153517         5.84801         2.38458
LJ           2.65497         1.58581         -5.0539
LJ         -0.159019         -5.9261        0.794301
LJ          -5.22455         -5.0773         5.49405
LJ          -4.38708        -3.02526         1.27204
LJ         -0.373881       -0.150904        -4.07861
LJ           3.61314        -2.30226        -5.94198
LJ          0.708567         2.37418         3.52573
LJ           2.45108        -3.80691         1.63523
LJ          -0.34602         3.17555         -4.6295
LJ          -3.59783         3.05922         5.75976
LJ          -5.93749        -2.16073        -3.28421
LJ           2.19355        -5.24333       -0.808679
LJ         -0.890405         2.02568       -0.353077
LJ           3.00179        0.208727        -6.05416
LJ          -1.74622        -3.00793         1.59246
LJ          -6.40205        -4.89367        0.704109
LJ             4.451       -0.108405         4.29147
LJ           2.61836          1.2185        0.620552
LJ           3.66466       -0.209567         5.08045
LJ            -3.832        -6.42461          5.4587
LJ          -1.03808        -5.62712        -6.03063
LJ           4.49682         -2.1762         -4.6312
LJ           3.97067        -4.41725        -5.45659
LJ           1.57523        -4.68872         2.71114
