108
#Comment!
LJ           2.63757         5.39109        -2.59143
LJ           3.83911         4.49516        -6.19192
LJ          -2.93614          1.8041         5.74233
LJ          -6.40157         3.99724         3.94592
LJ          -2.70811       -0.999344         4.60652
LJ          -1.55646          6.0757        -4.85463
LJ          -6.38887       -0.228922         -2.9489
LJ          -6.20587         3.72764         2.15913
LJ          -3.46534         4.49579       -0.756955
LJ            5.9633        -3.50498         1.20693
LJ           0.22928        0.412411        -3.54192
LJ           4.27572        -5.94584         1.41559
LJ          -5.82053        -6.00158        -4.91368
LJ          0.778801        -4.07678         1.79615
LJ           4.09173        -3.96474         5.67687
LJ          -5.39012         5.34107          5.9188
LJ           1.09704       -0.667998        0.124256
LJ          -1.38735        -3.85537        0.600586
LJ           5.12447         3.56377         5.24369
LJ          -1.83297        -2.20539         1.81345
LJ         -0.780635        -3.51606         6.28166
LJ          -4.58068         5.85061        -4.97882
LJ          -2.08385        -3.87959       -0.866997
LJ           6.14736        -4.84695        0.954646
LJ          -6.06081       -0.888281        -1.36762
LJ           4.11517        -5.96558        -2.77781
LJ           2.36878         -6.3787          5.0551
LJ           4.13585       -0.399328         2.74964
LJ           1.74063         5.93181         4.43572
LJ           2.34111         3.90924          5.4645
LJ          -2.28269         1.95504        -3.74487
LJ         -0.312827         2.66389         2.40287
LJ          0.290539         3.84982         -6.4294
LJ          -5.37583        -3.09234        0.835395
LJ            2.4308         2.77438           -4.25
LJ          -5.86823        -6.16283         1.95139
LJ          -4.94438         4.73952         4.10135
LJ          -3.41733       -0.151615        -5.12133
LJ          -2.27776        0.218058           6.073
LJ          -4.51003         1.34284        -1.84976
LJ           3.80968         4.34118        -1.55843
LJ          0.217703         3.39357         4.81619
LJ          -4.04074         5.23889        -2.61498
LJ           2.13045         5.43865        -4.39895
LJ          -1.45173        -3.04053         1.26603
LJ          -4.47466         2.02503         1.28617
LJ           4.46552         6.31376          -1.393
LJ           -4.7829         2.73718        -1.75239
LJ           5.51853         5.84024          3.6193
LJ          0.801447         3.89942        -5.43842
LJ           2.64503        -1.34087        0.824848
LJ           5.67053        -4.33759         4.01352
LJ           3.36718        -1.20281        -2.06995
LJ           4.31764         2.90633       -0.972523
LJ           -3.8146       -0.347002        -1.89262
LJ           2.76453       -0.362611        -2.26326
LJ           5.01048        -3.75507        -4.17333
LJ           2.33214        -3.00356        -3.23887
LJ           3.55571       -0.295952        -4.72655
LJ          -4.77181         6.03028         4.35099
LJ          -4.37017         4.69518         1.87326
LJ           6.23026         5.07268        -1.82492
LJ          -2.09665        -5.50528       -0.256942
LJ          -4.71655        -4.33538        -1.81156
LJ          0.542303         4.92121        -6.35234
LJ            5.7431        -5.45491        -1.85342
LJ           4.11831        -2.68335      -0.0129473
LJ          -3.13633         3.54818        -3.48662
LJ          -3.44686        -1.06256        -4.63404
LJ           3.94237         4.91506        -4.30334
LJ          -1.24701         1.75953        -3.32839
LJ           5.58133         5.21177         2.47582
LJ          -0.16985         4.98113        -5.39722
LJ          -5.00221        -4.34312         3.67359
LJ           5.24795        -3.36682        -3.30147
LJ          -3.55591         4.40458        -1.70344
LJ           3.11112          2.9428         2.47983
LJ          0.392697        -3.04873        -1.21994
LJ           6.03636        0.665039       0.0651055
LJ           4.37108        -3.17772         6.26217
LJ          -3.72695        -5.88113        -4.69488
LJ           1.25568        -2.67656         6.20258
LJ         -0.188443        -6.26024         1.71954
LJ           2.37611         3.27171         3.17933
LJ           -2.2585        -3.65658        -3.03406
LJ          -3.77645        0.770667        -5.75086
LJ           -0.9242         0.82824        -1.56809
LJ          -4.66124         6.08039        -2.50473
LJ           3.14354       -0.489165        0.312899
LJ          -3.81015         3.13946         2.10601
LJ           3.09385        0.659602        0.634395
LJ         -0.466318          6.3728         4.40854
LJ          -1.15431        -3.73291        -2.79289
LJ          -2.01551       -0.458298         5.01657
LJ           5.96906         3.02286         4.47891
LJ          0.135084          4.7131        -4.12186
LJ           2.80576        0.946937        -6.34067
LJ           2.13233       -0.013627        0.723786
LJ           4.01079        -4.65363         1.40455
LJ         -0.225901        -6.45659        -6.16594
LJ           6.31518        0.516658        -3.49104
LJ          0.282578         6.12061         3.37922
LJ          -3.88079        -2.49964         0.96522
LJ          -2.70026         5.10413       -0.404218
LJ          -4.63008         4.60468        0.405269
LJ          -1.91096        -5.85828         5.31681
LJ           4.33862        -4.57362         3.31674
LJ          -5.39282          6.3401      -0.0241029
