108
#Comment!
LJ           4.03373         2.64938        -2.68736
LJ          -4.95969        -2.80372        -5.95335
LJ           5.78475         3.24915        -2.06543
LJ            5.4458         2.40284         5.17086
LJ         -0.820759        -2.95476         5.49193
LJ           3.78183        -3.47827          1.5403
LJ          -3.77645         5.76454         1.20396
LJ          0.344285         4.42331         3.83678
LJ           2.88838         4.45145        0.297946
LJ         -0.609877        -1.26606        -5.01495
LJ          -4.20855        -2.74613        -4.73546
LJ           -6.0109          4.4568        -3.54475
LJ           3.93225         2.71909         5.13354
LJ           4.76465         4.72004        -5.94562
LJ          -2.53776         2.94443         -3.1963
LJ            -2.349        -4.18501         3.05347
LJ          -1.38629        -6.06219         3.80425
LJ          -4.04525         1.75612         3.75152
LJ          0.470936         4.70436         5.81975
LJ           4.16396        -2.06299        -2.43451
LJ           2.32685         6.28211         3.50502
LJ          -1.71779         4.74209         3.02108
LJ           4.49486        -5.34227       -0.684145
LJ           4.04913         1.97878       0.0857652
LJ           4.55166        -6.40968        0.987231
LJ          -1.58418       -0.825961        -4.67696
LJ          -2.17111        -3.92804       -0.467764
LJ         -0.422865         3.44811         3.02864
LJ           5.36425        -4.12135        0.883758
LJ          -1.75874          1.0821         5.71553
LJ           1.12655         2.78109         1.30981
LJ         0.0109175         1.62705         3.59368
LJ           5.15701         4.33698          1.7314
LJ          -4.69688         6.24286         -2.8922
LJ           2.25044         5.83953        -1.85145
LJ           -1.5592         -1.0924        0.797258
LJ          -5.21654       -0.974638         3.14681
LJ          -6.08469         1.37364        0.512034
LJ          -3.52238        -5.79446         1.02084
LJ          -1.50907        -3.18124         6.23734
LJ          -1.34712        -3.31928        -3.12195
LJ           5.11081         2.37844        -3.08727
LJ          -5.92545         3.55172         2.25151
LJ           4.16591         5.89009         6.13336
LJ          -6.29064         3.14246        0.419871
LJ           5.66912        -4.17344         2.60913
LJ           3.55491        -1.15984        -1.33168
LJ          -4.19445        -4.96484       -0.867236
LJ          0.421112         3.56542         6.24295
LJ          -3.89508       -0.150381        -3.15429
LJ           3.42819        0.236313         0.10931
LJ           2.49597        -4.24621        0.229539
LJ            2.8246        -3.92416         5.08706
LJ          0.491785        0.422629         2.70532
LJ           -1.4643       -0.502588       -0.919478
LJ           0.33814         3.01167        0.112763
LJ          -5.44904         2.92862         1.02949
LJ          0.821835         1.05719        -3.10668
LJ          -6.20207         5.11455        0.166281
LJ           4.60282         5.76309         3.95047
LJ           4.08399        -6.46116        -5.23915
LJ          -3.79871       -0.436651         4.77915
LJ          -3.32353         2.60309        0.462919
LJ           5.47044        -3.37047       -0.359679
LJ         -0.631896        0.359842        -3.87573
LJ          -4.34166         -4.1586        -2.90065
LJ          -1.26208         3.80086         2.61052
LJ           4.64142        -1.39032       0.0863433
LJ          -5.21584         4.28163         2.37321
LJ           -4.6122        -3.53428         5.48099
LJ           3.32209        -4.20027        -5.82493
LJ          0.355562        -1.97772         6.22166
LJ           3.10504        -2.53133         2.85688
LJ           5.69413        -2.55509          2.1281
LJ           4.79066          4.7246        -1.94596
LJ           1.05116         5.06435        -4.75617
LJ         -0.720602         4.96586        0.743466
LJ          0.996201        -1.77804         -4.0874
LJ          0.834908        -2.74639         3.75954
LJ          -4.99532          5.5528        -1.97084
LJ           2.76319         1.06404         5.72764
LJ          -6.01184      -0.0865141          6.2925
LJ         -0.290865         1.30563        -4.55019
LJ           2.43898         3.61019       -0.757069
LJ          -6.24196        0.349518        -4.53861
LJ           3.30687         3.04429        -1.04455
LJ          -2.93051        -1.34059         3.91213
LJ           5.99046         5.16617        -6.36199
LJ           1.30371         4.79667        -3.21729
LJ          0.934757        -6.22643         3.87925
LJ          0.635234        -6.06019         -1.7653
LJ           6.30162         -5.2533         1.86453
LJ           4.82371        -4.93649        0.454663
LJ           6.12356        -5.61021          3.1481
LJ          -1.48176         2.12179         5.28893
LJ          -3.79819        -2.33442        -3.36797
LJ          -4.99893        -4.38491         1.27942
LJ         -0.128392        -2.93591        -5.96168
LJ           5.73749        -3.98194         4.70274
LJ          0.863677         2.49786         5.35993
LJ           2.73694         2.98851        -1.98965
LJ           2.71202        -4.01881         2.81734
LJ           -2.0813       -0.267207        -2.17911
LJ           2.90189         3.06246         1.36965
LJ          0.443306        -2.34857         1.09106
LJ           -1.3532        -1.81482          4.2086
LJ          -1.53156         2.27555         6.36897
LJ          -1.91077        -5.33655           -1.93
