108
#Comment!
LJ           2.03336        -3.87173         2.18142
LJ          -1.20799         4.57434        -5.77628
LJ          -5.14173         4.40211        -4.12821
LJ          0.831425       -0.596659        -5.38648
LJ          -5.34612         3.71595        0.847024
LJ          -3.22461       -0.217983        -3.02988
LJ           3.07911       0.0237379        -3.48028
LJ           -3.4154         6.26386        0.724845
LJ           1.78675         3.03805        -1.14961
LJ         -0.268736        0.925017        -4.53764
LJ          -1.35435         1.57276        -6.42517
LJ            4.5216         4.97247       -0.461987
LJ            1.2328        -5.28955        -3.72389
LJ           1.74459         6.14501        -2.44388
LJ          0.104713         1.36767        -5.82449
LJ           5.11223        -2.07693         6.43835
LJ           5.60316        -2.95348        -3.10607
LJ          0.481548        -2.87458        0.657779
LJ           3.38821        -2.48026        0.917533
LJ          -2.12348       -0.617715         2.45357
LJ          -2.07823       -0.696012        -5.83984
LJ          -5.75439        -4.24273        -2.09823
LJ              5.35         2.73131         3.31382
LJ           3.16871         -3.3749         4.91412
LJ           4.93331         2.69119        -4.85067
LJ           5.68939         5.74489         1.03962
LJ           6.42608        -1.83407         5.84195
LJ         -0.856638        -4.53528        -5.68303
LJ          -3.05107        -5.21806         2.91869
LJ           1.15484         2.51173          4.3446
LJ           2.34297       -0.781307        -2.86878
LJ           1.90593         1.78968         1.86707
LJ          -1.75702         4.39268        -2.04196
LJ          -1.88179         5.58952         4.91727
LJ          -1.62038         6.35864         2.21042
LJ          0.383686        -6.30507         5.94411
LJ          -1.17777         1.67335       -0.402773
LJ          -3.06133        -1.19127        -6.28229
LJ          -4.07871        -4.79614         1.83684
LJ          -4.07645       -0.963761        -5.83949
LJ          -2.75829        -4.22807         6.07695
LJ          -2.19393         1.48115        0.211226
LJ         -0.211973        0.179813        -3.85895
LJ           5.86815         -5.3672         4.35658
LJ         -0.207179         2.74977        -4.05269
LJ          -6.26492         5.88352         1.64742
LJ         -0.345876        -1.93416        -5.51545
LJ          -5.60435        -4.90516       -0.495478
LJ        -0.0839865        -4.12774         4.37065
LJ         -0.122701        0.776022         2.38382
LJ           3.36184       -0.575479         1.72966
LJ          -4.27689        -3.58394         1.21477
LJ           5.21793         1.85187        -6.32611
LJ           6.35338        -3.68107        0.643328
LJ           6.34356        0.586876       -0.510374
LJ           3.48304       -0.148209        -5.22673
LJ           6.17319        -6.03507        -4.91424
LJ          0.438544        -4.36215        -1.72955
LJ           4.08921         5.32803        -2.82932
LJ           5.99478         5.06548         3.51083
LJ           5.20626         2.02541        -3.64941
LJ           1.43485        -5.89211         2.18396
LJ           1.33546        -4.34844        -3.24993
LJ          -1.25502        -5.64995       -0.470463
LJ          -1.82199         4.46622          4.4854
LJ          -2.70692        -4.32301        -4.48529
LJ           4.85658         -3.3998        -5.81832
LJ          -1.27694         3.00622         1.56036
LJ          -1.92817        -2.22149         2.99626
LJ          -0.36669         5.72736         5.50741
LJ           2.49673         1.04805        -4.62263
LJ          -2.76496        -3.41659         1.99567
LJ           4.83563          1.1022           2.535
LJ          -6.15229         3.47102         -4.6433
LJ          -3.59597        -1.12275        -3.17784
LJ         0.0849838         3.48859        -2.25161
LJ          -1.28221        -4.53113         4.84951
LJ          -1.25233       -0.176396         -3.1629
LJ           2.76786         1.56711        -5.81182
LJ          0.719784         -1.0677        -1.79981
LJ           5.84105        -5.77964       -0.771048
LJ         -0.130918        -5.25929        -5.13696
LJ          -2.59527        -4.75704        -1.34902
LJ           2.50562         2.23056       -0.616874
LJ            6.1005        0.999576         2.89206
LJ          -6.07415         5.06279        -6.07981
LJ          -2.27128        -3.17021        -1.40771
LJ          -2.56981        -4.03336         3.21791
LJ           1.27642         4.15345      -0.0428837
LJ           3.51166         1.66215         1.50686
LJ           4.50363        -1.10094        -4.90708
LJ          -3.23518         2.11683        -2.27007
LJ          -1.21496        -2.75667         3.32096
LJ           6.44455         3.36912         3.84283
LJ           5.29791        -2.32279       -0.438981
LJ          -5.35351        -3.64674         3.67224
LJ           3.27755         3.68982        -4.84036
LJ            1.4649        -1.04343        -2.49351
LJ          -2.62819        -6.29849        -5.01924
LJ          0.394499         4.87652        -2.60704
LJ           6.08478         5.20565         6.10617
LJ           3.27299         3.87169        -5.90824
LJ           2.87843        -1.82532          1.6078
LJ          0.781146         -1.8316       -0.281055
LJ          -4.15621         3.51726        -4.64791
LJ          -4.31958        -6.10087         3.91803
LJ           5.84223         2.05961       -0.851404
LJ            5.3178         3.91123        0.379999
