108
#Comment!
LJ         -0.810183        -1.09542         1.31047
LJ          -2.89922        -4.32292        -5.67029
LJ           5.38103         2.59052        -3.53469
LJ          -2.39837        -5.48167         1.07485
LJ           2.45903         6.22072         -1.3292
LJ           6.02828          2.6412        0.443324
LJ           1.31983         2.11964         1.05634
LJ           4.67675         1.76452         3.19805
LJ          -6.39241         1.38766         5.28977
LJ           2.33728        -2.82828         4.46171
LJ          -2.83609         1.30345         4.88208
LJ           5.79864         5.15194        -2.35887
LJ           -2.7918        -5.72938         5.65294
LJ          -1.54383         5.93658        -3.10095
LJ            3.9811         3.11518        -3.06559
LJ          -6.17499        -1.38095         3.10662
LJ          -5.40103          3.8818         2.85597
LJ            6.3046       -0.245376         1.06564
LJ           0.40353        -5.20459        -3.03162
LJ          -5.30225        -2.46093         3.14736
LJ          0.737289        -4.96149         6.23352
LJ          -5.29392         5.77822          5.2062
LJ          -6.04073         3.84651         -4.0344
LJ           2.69832         -6.0531        -3.16438
LJ            3.3686          5.5049         3.61763
LJ         -0.423771         1.65297        -1.16017
LJ          -3.43298          3.5218        -6.32809
LJ          -6.00883         3.28005        -0.19433
LJ           1.40192        -4.67554         1.29472
LJ          -2.66593        0.841289       -0.366086
LJ          -4.40908       -0.113378         6.19112
LJ         0.0678331        0.356197          3.0961
LJ          -2.29859         3.49877         5.87088
LJ           3.87594       -0.435197        -5.35802
LJ          -6.08481       -0.525179        -4.63612
LJ         -0.852423          3.6484         1.97163
LJ          -1.56024        -4.33779        -4.50008
LJ          -5.19535        -2.01232         4.44807
LJ          -4.45467         6.11273         6.34699
LJ          -4.48515        -3.96419         6.39664
LJ          0.183622         2.04278        0.632488
LJ          -4.16895         1.33308        -1.44525
LJ           3.54686         5.60603        -5.20661
LJ           1.06207         -3.5023         4.48775
LJ           6.38202         2.00522        -1.76672
LJ           4.59404         6.40769         3.85132
LJ          -5.44278         2.34871        -2.07631
LJ          0.643887        -2.06165       -0.789417
LJ           5.16392         6.11365       -0.628349
LJ           1.22538      -0.0654792        -5.60722
LJ          -5.35709         2.13224         5.23761
LJ           -1.7643        -3.53662         2.24207
LJ          -5.66185         6.10697         -6.4158
LJ          -1.35336         1.17039         5.59619
LJ             3.307         1.07389       -0.875229
LJ           1.48961        0.440385         4.02707
LJ          -6.14351        -5.89403          5.9877
LJ          -1.53495         3.92456        -1.87294
LJ           2.73762        -3.44203        -4.18802
LJ           4.31827        -5.03437         1.68373
LJ           2.36745        -4.98453        -4.98656
LJ          -4.82234        -1.11713         5.13202
LJ           6.00937        -4.49473         4.31639
LJ           2.41892        -4.90273        0.886783
LJ           -3.8481         1.99774         3.74144
LJ           2.05292        -4.75186         3.48678
LJ          -3.66119         0.10033        -5.87227
LJ          -4.81904        -4.81443        -6.21819
LJ          -4.60043        0.317585         4.66478
LJ           1.36278         1.16417        -1.11563
LJ          -4.73015        -2.26598         1.13971
LJ          -1.24379        -1.60246         3.57872
LJ           0.98615       -0.581965        -1.82061
LJ          -6.35873        -2.57922        -1.03881
LJ           4.95906         4.83177        -3.44341
LJ          -5.71585          4.2758        -2.15632
LJ           1.13113        0.501291         -3.1517
LJ            4.3859         1.10012         4.50053
LJ           2.65688        -3.83901        -5.82968
LJ            5.0528         2.77266         1.30868
LJ           4.50977        -5.16202         2.78632
LJ          -3.43206        -4.84975         4.83125
LJ         -0.963703         -1.8727        -3.37022
LJ          -5.95558         5.96572         2.39779
LJ           3.91876        -5.29619        -6.19662
LJ           5.14978         -1.9656        -3.93258
LJ          -2.84752         -4.1692         -3.2414
LJ          -3.71355        -4.51604         -2.7237
LJ        -0.0499586         -5.4179        -3.97867
LJ           6.43753        0.936735         2.24923
LJ            3.6436        -2.79518        -3.03432
LJ          -5.20816        -3.32911        -0.39465
LJ          -4.58912        -4.64666        -2.16799
LJ         -0.265877         5.99731       -0.116403
LJ          -4.50401         6.36381        -4.96115
LJ           3.87194         -3.7998          2.3094
LJ          -4.92679       -0.421751         -2.6295
LJ            1.3715        -3.31877       -0.572895
LJ           5.06748         6.34873          2.6919
LJ           1.23991         4.70798         1.96753
LJ           4.88084        -2.67432        -3.09421
LJ           3.35533         4.94986         4.54221
LJ          0.844935         -1.6399         2.49417
LJ           2.83971         4.09063        -2.32286
LJ           1.27799         5.23418        0.461596
LJ          -6.04735        -2.74702      -0.0149081
LJ          -5.17003        -5.50901        -5.54242
LJ            2.5902         2.91204         -1.8927
