108
#Comment!
LJ          -1.72662          5.7006         5.61789
LJ           4.06831        -3.17535         6.01201
LJ          -1.41797        -4.60564        -5.30333
LJ           4.13665        -5.69277         -5.0343
LJ           2.68516        -4.59109         -5.9663
LJ           -4.2105         -4.1988        -6.41026
LJ           2.07138        -5.08279        -2.69562
LJ          -4.76259        -6.00823        -4.70292
LJ           6.23253        -6.32132         5.21597
LJ         -0.388623        -4.94728        -5.40355
LJ          -5.95269        -5.46143        -4.95923
LJ        -0.0101793         6.01904        -3.59656
LJ          -2.37454         -1.5931        -5.12916
LJ           3.86851        0.259237         -6.0456
LJ          -1.99006        0.848973        -3.49405
LJ           3.82936        -1.66425        -5.03641
LJ           2.13692        -1.19875        -6.24982
LJ          -4.15782        -1.44986        -6.40942
LJ           1.24206       -0.996409         -5.0191
LJ           1.01134        -4.52356         6.14454
LJ          -4.86194        -2.74836         6.09485
LJ           1.61479         1.44567         5.93022
LJ          -5.23429        0.406063        -6.38886
LJ         -0.771492        -2.54907        -3.46491
LJ           -1.4213         5.14483        -6.42061
LJ           4.75867         3.74066        -6.35151
LJ         -0.814554         4.27366        -4.05069
LJ           4.45459         2.62605        -4.34642
LJ           2.72796          1.7444         5.61157
LJ          -5.31917         3.21491         -5.4529
LJ           2.04365         4.47886        -3.79165
LJ           -4.7865         4.05115        -4.00238
LJ          -6.06186          2.6031        -6.14988
LJ         -0.184932         3.72043         5.85532
LJ          -6.01638         4.63141        -4.72636
LJ         -0.264154         3.46938        -3.92612
LJ          -1.13388         5.76402        -1.84538
LJ           2.60719         -4.0277        -3.18603
LJ          -1.12915         -4.1952       -0.723796
LJ            3.8066         6.34421        0.869563
LJ           1.95383        -6.28629        -1.55167
LJ          -4.73842        -5.11422        -3.29231
LJ           -3.0614        -6.40887        0.336937
LJ          -5.48894         5.74598        0.477773
LJ          -6.19321         5.83513        -2.39465
LJ            4.7638        -4.44223         -5.6655
LJ          -5.92195        -6.44476      -0.0842045
LJ          0.315132        -5.62189        0.268202
LJ          -2.19552        -1.51325        -2.63694
LJ           4.58173         1.48132        -2.52495
LJ           -2.5336        0.733746       -0.201234
LJ            3.6466        -1.84989       -0.422218
LJ           -2.0777        -0.85424       -0.653856
LJ          -3.69004          1.0847        -1.88256
LJ           2.35542       -0.392678        -1.01175
LJ           1.40076       -0.366962       -0.509594
LJ           3.05758        -3.94235          1.9404
LJ         -0.675375         0.37074        -2.32697
LJ           4.74557         1.81883       -0.100135
LJ           0.55979        -4.05515        0.401494
LJ          -2.16364         2.95447        -1.66573
LJ           5.83541         3.07635      -0.0454492
LJ          -2.03327         4.09357        0.913249
LJ           4.40625         2.13072        -1.62891
LJ            3.0354         3.41568        -2.45069
LJ          -5.19862         5.47852        -1.85112
LJ           2.55319         3.99712         1.12338
LJ          -4.19449          1.6394        0.316548
LJ           4.48722         3.48727        -3.44093
LJ         -0.561183         3.02513        -1.55854
LJ            -6.252         4.46463        0.179272
LJ          0.866662         2.60508       -0.978057
LJ           -1.9103        -6.34836         1.64165
LJ           3.74062        -4.68334         1.88441
LJ          -1.99495        -5.59807         4.41088
LJ            4.2218        -6.30923         3.94367
LJ           2.63728        -5.35546         2.37583
LJ           -4.4112         -4.7023         2.47861
LJ          0.469396        -3.23742         2.89199
LJ           -5.1032        -5.74427         4.63764
LJ          -6.13949         5.87384         2.83442
LJ         -0.522352        -4.68892         2.20588
LJ          -5.71974        -4.12854         4.50285
LJ         -0.437695         -6.2293         6.17547
LJ          -4.04662        -4.42717       -0.276057
LJ           2.85504       -0.394914         2.08015
LJ          -1.84636         1.94221         4.35117
LJ           3.59018        -2.54888         3.76771
LJ          -3.55152       -0.219288         1.97438
LJ           2.45875        -1.05616         2.81126
LJ           3.09986        0.998504         3.31368
LJ          -3.45242        -2.87564         3.95757
LJ          -5.93264        -2.38824         1.62655
LJ         -0.517687        0.729531         2.71419
LJ          -5.80474         0.31384         5.71963
LJ           2.44976        -1.24131         5.54131
LJ          -3.39456         1.17738         4.22014
LJ           3.53677         4.45125         2.97737
LJ          -2.93751         4.22129         4.32733
LJ           4.56883        0.709348         3.97447
LJ          0.743499        0.498893         2.58945
LJ          -4.12108         4.24339           1.277
LJ           2.70195         3.96114         3.80522
LJ          -4.51159           1.782         5.03906
LJ           6.09918        0.277699         2.52918
LJ         -0.633036          3.9549         1.44688
LJ           5.97718         4.46435         5.11801
LJ         -0.830696         1.12273         4.05639
