108
#Comment!
LJ          -3.86411         5.43489          6.1888
LJ           6.40401        -3.50526         5.96358
LJ          -3.77132        -4.43448        -5.32191
LJ           6.42389        -6.15224        -5.18658
LJ          0.476139        -4.91905        -6.42963
LJ          -1.89593        -3.82746        -6.31912
LJ         -0.142029        -4.86624        -3.34036
LJ          -2.44937        -6.16666        -4.75784
LJ           4.03769        -6.24945          5.9647
LJ           1.93058        -4.99298        -5.36535
LJ           4.65676        -5.11771        -4.41834
LJ           2.31759         6.12577        -3.71055
LJ          -4.65726        -1.77219        -5.43594
LJ           6.13348        0.283688         6.40885
LJ          -4.32377        0.789073         -3.7362
LJ           6.06425        -1.62201        -4.52196
LJ          -0.17231         -1.3779         6.20216
LJ          -1.92658        -1.09467           -6.01
LJ          0.276323        0.201197        -4.96165
LJ          0.373334        -2.94861        -4.57268
LJ           5.74898        -2.37135         6.24533
LJ           2.93292        0.586286        -6.15697
LJ           5.59151        0.259938         -5.2242
LJ           1.12624        -2.69088        -3.91672
LJ           -3.3133         3.53642        -6.36048
LJ          -5.98395         4.10539         6.41182
LJ          -3.13431         4.64447        -3.99603
LJ          -6.18659         2.72611          -4.159
LJ          0.467889         1.70451         5.95668
LJ          -3.47848         4.70911         -6.1142
LJ         -0.238338         4.76091         -3.7687
LJ          -2.46586         3.43444        -4.02396
LJ           4.53841         2.42511        -6.07997
LJ           2.09856         3.76655         6.02678
LJ           4.61362         4.69392        -4.78487
LJ           2.04403         3.15229        -4.02078
LJ          -3.40715         6.23477        -1.91915
LJ           5.15585        -3.84808        -2.91284
LJ          -3.18698        -4.45793       -0.465153
LJ           6.13635         6.05676        0.670126
LJ         -0.347417        -6.35816        -1.51051
LJ           -2.5424         -4.9831         -2.6728
LJ           -2.4095        -4.96694        0.123265
LJ          -2.63163         6.39407        0.336957
LJ           4.43298         5.84614        -2.24568
LJ           4.34824        -4.31554        -3.50944
LJ           4.78934        -5.73136        0.282567
LJ           2.49569        -6.13136       -0.188181
LJ          -4.50713        -1.54213        -2.58116
LJ           6.27878         1.05797        -1.74439
LJ          -4.47547       0.0928795       -0.352625
LJ           5.93738        -1.87037       -0.535035
LJ          -1.48212        -1.45355        -2.15693
LJ          -1.63892        0.822234        -2.83621
LJ          0.212929       -0.315549         -1.0088
LJ        -0.0960325        -2.38851       -0.180015
LJ           3.33166        -4.07233        -0.37917
LJ           1.62151        0.414209        -2.50162
LJ           3.57958        0.167733       -0.638405
LJ           2.17824        -2.44286      -0.0155415
LJ          -4.43465         2.75683        -1.83994
LJ            6.2149         3.52146         -1.5016
LJ          -4.28481         4.04878        0.716396
LJ           6.34898         2.12566      0.00701316
LJ          0.501429         2.51812        -1.62072
LJ          -2.95269         4.86451        -1.75024
LJ          0.286966          4.1462        0.633779
LJ          -1.97028         1.94229       0.0456403
LJ            4.1595         3.19239        -2.18057
LJ           1.57137         3.90685        -1.43599
LJ           4.27448         4.22741        0.184188
LJ           1.46994         1.80224        0.124722
LJ          -4.30206        -6.27654         1.80576
LJ            6.0878        -4.56928         1.92641
LJ          -4.26144        -4.95942         4.29141
LJ          -6.38937        -6.41153         4.02414
LJ          0.350523        -5.75202           2.483
LJ          -2.09505        -4.63854         2.47159
LJ          0.429503        -2.89628         3.89921
LJ          -2.84088         -6.1702         4.75376
LJ           4.47119         5.95175         2.69439
LJ           1.74246        -4.36934         2.15557
LJ           4.90349        -4.24404         4.44446
LJ           1.73223        -6.40707          5.3759
LJ          -4.38171        -2.48941        0.997225
LJ           5.21937       -0.394701         2.05293
LJ          -4.17666        0.922616         4.07915
LJ           5.88589         -2.4588          3.7477
LJ          -3.33366        -1.86868         1.38635
LJ          0.203449        -1.44218         2.17854
LJ          0.963793        0.530448         3.62001
LJ          -1.27628        -2.17604         4.15484
LJ           4.71561        -2.40492         1.63822
LJ           1.55764        0.174279         2.26916
LJ           4.72811        0.102417         5.31426
LJ           2.62895        -2.27899         4.32185
LJ          -4.91657         1.54019         2.60933
LJ           5.78567         4.34079         2.61088
LJ          -4.71478         4.16433         3.61144
LJ          -6.20745         1.55582         4.09494
LJ          0.526578         1.45145         0.75431
LJ          -2.35098         4.24083         2.49597
LJ          0.397039         4.01432         3.98791
LJ          -2.26433         2.11739          5.0263
LJ           3.84017        0.674423         2.76921
LJ           1.62988         3.81855         1.97558
LJ           3.66483         4.52402          4.8084
LJ           1.46846         1.73848         4.05324
