108
#Comment!
LJ           4.69388        -5.40325         5.24049
LJ           2.03091        -1.03347          5.3951
LJ          0.989936         1.30619       0.0751655
LJ          -3.27226         3.38084         3.93539
LJ           6.42694          2.2742       -0.950128
LJ         -0.490045          -6.149         4.94077
LJ          -4.43215         5.84158       -0.536649
LJ           1.97639        -1.07614        -3.51567
LJ           4.77593       -0.465696         -3.3954
LJ         -0.715047       0.0159929        -2.48463
LJ           1.60111         3.48256        -3.27759
LJ           5.16023         3.90305         1.19517
LJ         0.0926009         5.14322         -4.4639
LJ          -1.35007       0.0672339        -5.09863
LJ           1.42212         6.03661        -3.21036
LJ          -5.21613         6.10979         2.08104
LJ           -2.0228         4.18169         2.31799
LJ           -1.4547        -6.32103          5.2523
LJ           4.53669          6.2746          6.1601
LJ          0.930836         -4.4788         1.92029
LJ          -3.19008         -2.2741         4.05584
LJ           1.65466        -6.36041          6.3416
LJ           2.17431        -4.14566         4.11054
LJ          -1.10827         2.89127         2.17636
LJ          -4.83089        -4.61805        -2.16757
LJ          -4.51329        -0.10959        -2.47462
LJ           2.46333        -6.32096          2.9158
LJ           2.88581        -2.36297        -4.98813
LJ          -2.25889         -4.6255         2.45492
LJ        -0.0616778         2.31725       -0.710484
LJ           3.46049         3.53417        -4.05056
LJ          -3.25036         5.23255        -5.53936
LJ           4.90805        -4.43647         3.71257
LJ          -5.13797        -4.33356        -5.92398
LJ          -4.05272        0.834962         5.43983
LJ           4.41917        -6.12493         4.62091
LJ          -5.42014         4.80811         2.03781
LJ           3.76983        0.841749         6.11975
LJ          -4.76578        -5.75047       -0.030801
LJ           3.04787          2.2647        -1.38094
LJ           6.35278       -0.271455         1.55841
LJ           4.56447        -4.16742        -2.14922
LJ           3.95891         2.53542        -5.66637
LJ          -5.91628         3.11686       -0.386334
LJ          -6.26072      -0.0370078        -3.05914
LJ           -1.9913        -2.55688        0.375455
LJ          0.178512       0.0277249         2.10897
LJ          -2.66178        0.416787        -5.64825
LJ          -2.78951        -3.60103        0.800754
LJ          -6.24873         5.99378        -4.23609
LJ           1.74376        -1.42978         3.69909
LJ           2.73982         1.15749        -6.12005
LJ           4.54489        -3.22671        -5.27975
LJ         -0.176207         5.76752        -1.47025
LJ          -3.32681        -3.99069        -4.00065
LJ           1.24915        -1.97432       -0.375905
LJ           2.55313         2.70457         2.77497
LJ           5.91963        -4.59846        -5.97679
LJ          -4.31351          4.9759         5.74835
LJ          -3.19011        -3.40615         -2.8633
LJ          -6.45024        -5.73865          2.9247
LJ          -5.42985         4.23961       -0.438181
LJ          -4.30844        -5.80925        -2.97857
LJ           4.97075         4.55777         5.64388
LJ           1.47617         3.73737         2.40724
LJ            1.6365        -6.18784         2.02543
LJ           1.57155         5.26054         5.20462
LJ           1.90598        -3.62095       -0.208219
LJ         -0.951513        -1.41448          1.4296
LJ            3.4034         4.84033       -0.574295
LJ          -4.23823          5.7528        -2.45346
LJ          -4.67851         6.41176        -1.44644
LJ          0.191139        -2.40615         -5.4463
LJ           4.28216         1.67065        -6.40653
LJ         -0.258781         3.31905        -3.25545
LJ          -5.22332         1.76233        -2.76054
LJ           5.53881       -0.676218         4.71849
LJ          -6.30278         5.26643        -1.72624
LJ           4.71564       -0.599887         4.21887
LJ           5.16946        -2.86897        -2.46485
LJ            -1.165         4.24064        -3.50882
LJ           1.75228         5.45563        -6.35181
LJ          -4.00321         1.11818        -1.14276
LJ           3.67595        0.591181         2.59946
LJ           2.88465        -2.39917        -3.93856
LJ          -0.37851         5.47694       -0.447821
LJ          -1.63105        -3.67679        0.118613
LJ          -3.97897        -3.50765       -0.671927
LJ          -4.04683        -2.00653         4.61543
LJ           3.06791         5.93963        -3.46614
LJ           4.03865         5.83661         2.89143
LJ           1.91302        -4.20508         1.46724
LJ          -3.99229         3.78617        -2.23774
LJ           4.78378         2.61922        -6.41437
LJ          -5.95577        -4.42101         6.02692
LJ          -4.24747        -1.98841       -0.949311
LJ           3.19006         3.77789        0.318309
LJ          -1.86124         3.70593        -5.81766
LJ          -3.08289         2.36998        -4.56684
LJ         0.0538735       -0.768418        -1.30172
LJ           2.49095        -2.62584          5.5106
LJ           1.00641        -2.97035         6.45493
LJ           6.26045        0.574713        -6.16798
LJ         -0.451051        0.793105         3.60575
LJ          -5.91499        -3.13377        0.381858
LJ          -2.97973        -5.46201         4.08597
LJ          -2.02586       -0.417745        0.639416
LJ          -2.15757        -5.06108         -1.2071
