108
#Comment!
LJ         -0.632093        -1.17926       -0.191374
LJ           4.44782        -1.83334       -0.391163
LJ          -5.23126          2.8422        -0.60374
LJ          -2.38641         4.85478        -1.06778
LJ          -3.31494         4.90099         2.56526
LJ         -0.142228        -1.27863         1.84656
LJ          -2.26741        -4.02048        -1.75307
LJ          -5.23957         -5.7263         1.36819
LJ            1.7567        -6.03708        0.283589
LJ            4.2165        -4.37812        -4.72752
LJ           3.27843        -6.13433        -2.53446
LJ           4.73005        -3.50559         -1.0749
LJ         -0.175917        -2.14995         5.97942
LJ           2.13848        -4.50643       -0.352602
LJ          -3.94592         3.57794        -6.01012
LJ           5.07267         3.10624         4.58597
LJ           5.15147       -0.670255         -3.4849
LJ          -4.89354        0.625458         0.41488
LJ           1.98381         2.86425        -4.41857
LJ          -3.06447        -4.89682         5.18293
LJ          -3.51385        -3.78293        -4.53968
LJ          0.918425        -5.71891           5.096
LJ           1.24958        -1.35955        -6.34257
LJ          -2.65371        -6.12163         5.53947
LJ          -4.66592         4.33893        -6.33819
LJ           -6.1247        -1.37755        0.624856
LJ          -2.50337        -4.93178        -1.27606
LJ          -5.87666        -5.66458        -1.15707
LJ          -3.13842       -0.812993         2.85032
LJ         0.0882139         3.28861        -2.84695
LJ          -4.29258          1.0337        -1.15028
LJ          0.824524        -3.44515        -1.17959
LJ             5.801       -0.793203         2.41693
LJ          -5.24535        0.745484         6.01315
LJ          -3.73541        -2.25237        -3.04571
LJ           4.53104       0.0821767          5.8237
LJ           6.39229       -0.260127        -3.99087
LJ           4.40685         5.31833        -3.88121
LJ          -3.43069         2.63134         1.18548
LJ          -4.97745        -2.56297         5.33615
LJ           2.99191        -5.12433        0.207143
LJ          -6.00056        -5.44389        -2.19674
LJ          -4.37523        0.168327         6.09029
LJ          -3.74275        -5.22329        -2.65806
LJ           3.92971         1.19909        -6.36057
LJ          -3.31993         3.04125        -4.07716
LJ           5.82383         -4.8572         2.15934
LJ          -4.55983        0.141309         2.49608
LJ          -1.34165          4.5539        -2.69545
LJ           3.41868        -2.06667        -6.44289
LJ          0.186245       -0.838169         -3.3643
LJ          -4.29464        -5.43452         -1.1434
LJ          -3.08704        0.176588          3.5751
LJ          -3.16448         3.36655      -0.0606978
LJ          -2.51037         3.58751         1.90282
LJ           4.38144         5.47276         1.41562
LJ          -5.78897        0.566068        -5.77309
LJ          -5.20371          4.2679        -3.39689
LJ        -0.0344363         1.81602         0.24618
LJ          -6.05501         5.24695        -5.88795
LJ         -0.736917        -3.39694        -1.43293
LJ          -5.31046          3.5524        -5.93868
LJ           2.30628        -5.44872         -1.0425
LJ           5.78846         2.56635        -2.89747
LJ           5.46836         3.56966     0.000990086
LJ          -2.59347        -5.30003         6.24306
LJ           6.12816         6.40733         6.19973
LJ          -1.71981        -5.53503         5.60495
LJ          -5.21514       -0.306276       -0.835325
LJ            -5.462          6.0128         4.07753
LJ          -6.12238        -1.11846        -5.43698
LJ          -5.78035        -4.48826        -5.47455
LJ          0.710393        -2.68468         5.30134
LJ           1.60957        -1.75297         4.87105
LJ          -1.09136        -6.25547        -6.45013
LJ          -6.20623         5.11925         2.67545
LJ           -1.6118         4.49329         3.46969
LJ          -5.69949         4.59164        -4.43787
LJ         -0.333573          5.2515         2.02466
LJ           3.62854        -2.83981         5.80804
LJ         -0.446253        -5.26841        -6.27657
LJ           4.99248         3.22192         2.24109
LJ           4.85427        -1.05844         4.39125
LJ           6.45884      -0.0476064         5.95903
LJ           2.67023        -4.30022        -4.86636
LJ            3.0016         5.53277       -0.993359
LJ          -1.89002         1.74161          4.1739
LJ          0.778983        -1.62678         3.94572
LJ          -5.49441         5.35136        -3.82667
LJ            3.8426         5.81623        -6.10269
LJ           3.90609         5.58341        -1.77057
LJ           4.06157        -2.77929        -1.52678
LJ          -5.52998        -4.36133        -2.50031
LJ           3.71017        -1.19211        0.979766
LJ           4.21353        -3.62405        -6.19156
LJ          0.531206         1.15844        -1.48564
LJ           6.42101        -6.35793         4.60961
LJ          -2.79649          2.9275         -5.2591
LJ           4.47629        -1.82138        0.635391
LJ           6.42519         3.88592         5.84469
LJ          0.860924       -0.213169        -1.33531
LJ          0.266992        -4.89625        -1.77226
LJ          -4.53443         3.37313         5.95619
LJ           4.81494        -2.00849        -4.54302
LJ            3.5118       -0.519879         1.99639
LJ           2.77075         1.17672        0.725126
LJ           3.72398       -0.253402        -5.21451
LJ          -2.00111      -0.0838742          5.2334
