108
#Comment!
LJ           5.10926         1.01492        -3.56803
LJ           -1.5712         5.99561       -0.472608
LJ           6.33142        -3.33413          5.6509
LJ         -0.551889         1.04566          5.6809
LJ           3.55923        -1.97714         3.07247
LJ          -4.63104        -3.84923         4.14932
LJ           3.03792          5.3061        -0.10104
LJ           4.49462         4.81858         4.99958
LJ           1.69894         3.85783         6.44809
LJ           -5.4605        -5.52097        -1.88454
LJ          0.542552        -2.56968        0.445712
LJ           2.76623        0.195443         2.81106
LJ           3.30752        -4.04009        -1.90216
LJ           4.71064         -1.7578       -0.313109
LJ          -2.75716        -3.26347       -0.488263
LJ           6.07286         1.56407        -1.23515
LJ          -2.44023        -5.17975       -0.821942
LJ          -3.62641        -4.55167        -1.22622
LJ         -0.104447        -4.19385        -2.30927
LJ         -0.638182         4.63726        0.321146
LJ           3.23741        -1.50391          6.2802
LJ          -5.41702        -1.17836        0.928578
LJ           -3.9133         1.80751        -1.85875
LJ           2.16769        0.152338        -2.17943
LJ          -6.13988         1.49934       -0.387903
LJ           5.00223            3.25        -1.43949
LJ          -3.23373         2.33526         2.54276
LJ          -5.36818         6.15449       -0.761204
LJ          -4.42158        0.821439        -4.21244
LJ           4.15513         5.87892         -4.8518
LJ          -5.34295        -1.20485         3.77409
LJ           5.54076        0.534404          3.1367
LJ          -3.03504         -3.6158        0.675312
LJ           6.09724         1.45268        -2.44002
LJ          -3.76756         3.97398        -2.01024
LJ          -5.86747         3.80689         3.47768
LJ          -5.84872         3.32236        -5.46734
LJ           6.37785        -2.46669        -4.26565
LJ           -2.4806        -3.00676         1.26523
LJ          -3.31635         3.28285         4.98436
LJ           4.22044         2.46082         -4.5364
LJ          -5.49823        -2.28692         -1.1142
LJ           2.77121         2.87639        -2.87144
LJ          -6.37953        -5.99582         -4.2967
LJ           2.17949        -1.81077         2.19003
LJ          -3.16112        -1.30155        -6.02341
LJ          -2.60579        -4.34797        -2.30366
LJ          -3.27035          5.1549         3.03311
LJ          -2.71052        0.254271         4.76327
LJ           4.43285         5.34209         3.75898
LJ          -2.76967         2.91121         1.52791
LJ          -6.31218         -3.3747        -5.12237
LJ          0.681334        -2.03755         -5.7294
LJ          -1.87206       -0.078547         5.62086
LJ           4.00647         1.65153         5.22718
LJ          -4.81889         5.26016        -1.50422
LJ            -2.007        -1.78154         -5.3798
LJ           -0.2565        -3.06896        -3.55169
LJ          -5.23461         4.80825           2.549
LJ           5.57468       -0.875678         3.16138
LJ           1.22536         3.74938         1.38738
LJ            4.4976         4.68032        -5.78804
LJ           2.71741         3.99971        -2.49287
LJ         0.0684054         4.78859         3.75868
LJ           5.31651        -6.43719         3.70607
LJ          -2.35124        -4.39501           -5.29
LJ            0.7756         5.91053        0.691706
LJ           3.09768       -0.322458        -4.78225
LJ          -2.55037       -0.754674        -1.08851
LJ           3.46043       -0.722074        -3.58555
LJ           4.94624         5.45043         6.39251
LJ           4.25377         3.41366        -2.71241
LJ           1.48872       -0.966615        -4.82877
LJ           5.50646        -2.59695        -5.26303
LJ          -3.49653         2.13999        -6.30036
LJ           5.08652         4.44995          3.4465
LJ           2.62089         6.25704        0.616068
LJ          -5.95066        -2.67904        -3.07488
LJ           3.26273        -5.03549      -0.0101775
LJ            2.5443        -4.47543         3.25927
LJ          -1.08741        0.137759        -5.53356
LJ          -2.35082         3.54018         4.43537
LJ          -5.97202        -4.32707         1.68328
LJ          -3.73862         3.51565        0.652657
LJ          0.539548         4.80702         5.65991
LJ          -2.00036       -0.577554         1.64534
LJ           1.44436        -3.80229         1.50834
LJ          -6.43087        -5.94277         -2.1694
LJ           2.45281         3.18613       -0.654843
LJ          -3.41928        -4.95507        -4.45145
LJ           3.58461         -3.9833        -4.84739
LJ          -5.81534         2.12194         0.65602
LJ          -4.53964         2.45402        -1.40138
LJ           2.58045        -6.27438         1.55083
LJ           1.53438        -3.66342         2.49967
LJ          -5.48675         5.24624         3.84943
LJ           1.22118        -3.78495        -3.44823
LJ          -3.04931         4.02739         3.46276
LJ           4.96566         6.46145        -4.47673
LJ           2.93179        -4.97969        -4.62356
LJ          -5.18469        -6.41376         3.93751
LJ           -2.4091       -0.973804         4.57996
LJ            4.2812         5.55428       -0.845226
LJ           -3.6775         -1.8103        0.638841
LJ           2.31619         -1.9783        0.997093
LJ           3.66651        -5.81443        -5.40229
LJ          -4.23916         3.00191         3.71696
LJ          -5.73696         -5.5543       -0.433823
