108
#Comment!
LJ          -2.81731         1.04727        -1.07303
LJ          0.967568        -1.34085      -0.0107415
LJ           1.14756       -0.559647         1.40297
LJ           2.15307       -0.872832        -2.81898
LJ        -0.0039841        -1.91822         4.79451
LJ           4.30881        0.891481         4.49514
LJ           3.34371         2.81046         2.48223
LJ           4.90746        0.555653         1.28367
LJ          -1.95968       -0.222567         5.45492
LJ          -2.04869        -5.53344         1.46002
LJ           -1.3891        -2.50543         3.46847
LJ         -0.379034        -5.26841        -1.73083
LJ          -1.95517         2.57436       -0.605517
LJ          -5.99253        -2.51483         3.48983
LJ          -3.13554         5.22191        -4.87863
LJ          0.268822        -1.95325         2.95024
LJ           2.47898        -3.84604        -3.20701
LJ          -6.38052         4.28325        -6.23276
LJ           -0.2813        0.708765        0.280971
LJ          -1.25767        -4.99151     -0.00724075
LJ          -2.27716        -2.09946        -5.17019
LJ          -3.62087         1.10976        -4.05582
LJ           6.37483       -0.255892        -3.69345
LJ           3.55374         1.95757          6.2209
LJ          -3.86121        -4.80367         5.70056
LJ           5.98686         2.09039         3.09082
LJ          -1.16586        -2.47896         2.08635
LJ          -3.63376        -2.11281        -5.28166
LJ          -3.70061         6.15017      -0.0181099
LJ          -2.72659       -0.150996        -1.80565
LJ           3.13729         1.22364         4.78315
LJ          -3.70147         1.52922         5.09183
LJ           6.44321        -1.67492        -2.88594
LJ            5.7039         5.13327         1.29539
LJ           5.85827         4.89051          3.4891
LJ          -4.60455        0.463384        -6.08019
LJ           4.78708         2.73997         3.71365
LJ          -1.52555        -1.14043         4.70439
LJ          -5.02861        -5.92319        0.943465
LJ         -0.910146        -4.93974          2.1197
LJ          -1.25237         1.12906         2.31961
LJ          -4.54641         3.61073        0.438628
LJ           0.57176        -6.30349        0.540741
LJ          -3.02786          6.2453          1.3003
LJ           0.93977       -0.935293        -3.44326
LJ           1.73416        0.367141        -3.02024
LJ          -1.11946        -4.43588         4.77858
LJ          0.306486       -0.704172         5.18677
LJ           5.53302         5.98428        -3.38776
LJ          -1.17056        -5.92593        -5.64669
LJ           4.11692         4.56871         5.55693
LJ          -4.81605        -4.19335         -5.7162
LJ          -2.19184        -5.80286        -6.17366
LJ           6.06599         5.10627       -0.729994
LJ          -3.45838        -4.02072         4.82736
LJ         -0.117839       -0.438531         3.87729
LJ          -3.59623         4.92636         3.48622
LJ          0.223573         3.11485        -3.97787
LJ           1.80009        -3.01442         4.67731
LJ           2.10397        -5.28906         4.89747
LJ           2.57589         2.30391        0.362839
LJ         -0.897964        -4.70778        -5.68118
LJ          -5.78227        -2.43561        -4.22874
LJ           4.37785         3.58015         3.84896
LJ          -1.79936         1.65103        -1.87058
LJ           5.85119       -0.268767       -0.637603
LJ         -0.235568        -5.36203       -0.597763
LJ          -1.77313         3.93773         2.00712
LJ           4.55383       -0.854026         1.62744
LJ           2.30364        -3.18053        -5.71415
LJ          -4.60926        -5.11068         2.84018
LJ          -5.89502       -0.847503         -2.8887
LJ           3.60493         6.31945         3.24984
LJ          -4.42454        -3.58012        -4.37534
LJ          -3.02075           0.843        -6.00329
LJ           2.86318         3.70081         2.86734
LJ          -3.35525         4.27514         4.52539
LJ          -6.10083        -2.64707        -2.58797
LJ          -1.92108          2.5742         2.86108
LJ            4.1647        -3.15355        -1.57144
LJ         -0.214183         2.78541       -0.179342
LJ          -2.17684         5.65645         2.47747
LJ          -1.37726         4.08301        -2.97049
LJ          -4.09578       -0.823756         3.53683
LJ            5.6464        -0.94701         -2.1088
LJ          -4.48938         2.05743         2.96452
LJ           2.47943        -3.76639         5.23622
LJ          -3.39466        -5.24604         1.43724
LJ          -3.05636        -1.62027        -1.59166
LJ           1.39687          -2.235        -4.68042
LJ           3.86687         1.10561       0.0989902
LJ          -1.40838        -5.16922         5.87664
LJ         -0.840725        -1.47807         1.69455
LJ          -1.29937         5.13392        -4.22192
LJ          -2.86218            1.08         2.47008
LJ          -4.65051         5.23492        -1.76136
LJ          -6.15315        -5.90393       -0.413465
LJ           1.11633         6.25431        -5.37643
LJ          -3.29226         1.28225         -2.8963
LJ          -5.77681         4.19305        -1.14848
LJ          0.375264         3.80624         -4.6144
LJ          0.613119          -5.018        -5.84025
LJ         -0.157678        -4.04828         4.26393
LJ           5.82624         2.38493         2.05112
LJ          -3.04747         2.71357        -5.67938
LJ           2.46611         4.79433        -3.49377
LJ           5.01731         4.48648        -4.10352
LJ          -4.93394      -0.0966165        -4.09914
