108
#Comment!
LJ           6.03292        0.847295         -3.1152
LJ         -0.755444          4.5256       -0.284882
LJ          -5.04783        -4.09221         4.44523
LJ         -0.218418       -0.228487         5.85891
LJ           2.45788        -1.44451         3.77112
LJ          -4.86713        -2.46576         3.76455
LJ           2.91055         4.65363       -0.298066
LJ           4.39048         4.96329         4.06419
LJ           2.14012         1.85151        -4.32897
LJ          -4.85867         -5.6355        -2.05022
LJ           2.74655        -3.21472       -0.260784
LJ           2.72681        0.989444          2.7564
LJ           2.92035        -3.73658        -1.66533
LJ           3.89627        -2.04545        0.225058
LJ          -2.53736        -4.56389       -0.621838
LJ           6.00948         1.97008       -0.578116
LJ          -1.39829        -4.45559        -1.32528
LJ          -4.56949          -4.648        -2.57699
LJ          -1.15213        -5.41974        -2.45265
LJ         -0.897643         3.15796        0.131824
LJ           5.12707        -1.84131         5.02692
LJ           6.00231        -1.18474       -0.266266
LJ          -4.30108         1.82822        -2.24525
LJ           3.29025        0.671849        -3.46478
LJ           6.05801         1.55688          1.1858
LJ           6.00251         3.53781       -0.512277
LJ          -4.79128         1.79071          2.6033
LJ          -5.45262        -5.99168         -1.1249
LJ          -5.88195         2.03511        -3.55294
LJ           4.99158         5.25032        -4.73595
LJ          -4.77064        -2.00037         2.27598
LJ           4.50075        0.717875         3.17784
LJ          -3.80126        -4.13899         -0.1563
LJ           5.79462         1.38234        -1.53574
LJ          -5.02288         2.68306        -1.45119
LJ          -5.75616         3.80148         5.09916
LJ          -5.83195          4.3571         6.06496
LJ          -5.75458        -2.57214        -3.80951
LJ          -3.70878         -2.7719         1.43172
LJ          -3.05472         3.79502         4.37327
LJ           2.28011         3.05739        -3.87279
LJ          -4.26425        -3.02071       -0.156186
LJ           2.38431         1.39326        -2.95468
LJ          -6.41622        -5.98021         -3.7418
LJ           2.52297       -0.422172         2.85447
LJ          -5.05667        -3.17292        -5.83371
LJ          -2.61462        -3.71247        -1.82668
LJ          -4.45859         4.41557         3.73632
LJ          -2.81041         1.00985          4.9193
LJ           5.64236          5.2588         3.24927
LJ          -3.23683         3.51282         1.81596
LJ          -5.74425        -3.49344         -4.6539
LJ           0.18522        -2.10729        -5.74045
LJ          -2.72843        0.238496          6.1491
LJ            3.7511         2.28888         3.57104
LJ          -4.45342         4.00595       -0.626252
LJ          -1.30394        -1.54329         -4.2624
LJ         -0.629085        -2.65792        -3.12255
LJ          -6.42835         5.72143         1.93629
LJ           4.72414        -1.40572         3.25599
LJ           2.56431         4.13325         1.74471
LJ           4.01957         5.52046        -5.94974
LJ           5.49496         4.42536        -2.90876
LJ           1.74872         4.81298         2.84674
LJ           4.08765        -4.72452         4.70072
LJ          -1.26829        -3.58196         -6.2522
LJ          0.445044        -4.99746        0.862828
LJ           4.26498       0.0343955        -5.49006
LJ          -2.14886       -0.492597        -2.17624
LJ           4.64954        -1.50077        -4.35871
LJ           4.01714         5.12868         5.47669
LJ           4.28932         2.55448        -3.55975
LJ            1.7615        -1.01222        -4.29783
LJ          -6.33666        -2.56811        -5.18335
LJ           -3.4528         2.33829         5.49571
LJ           4.28229         3.84427         3.12585
LJ           1.45221        -6.36323        0.741506
LJ          -5.41755        -2.31876        -2.80977
LJ           1.63523        -3.53741        -1.55311
LJ           2.00507        -4.05174         2.30412
LJ         -0.940739        0.827251        -5.99291
LJ          -2.05788         4.17751          4.7331
LJ           6.14991        -3.06302         2.64323
LJ           -4.0533         5.53585       -0.493647
LJ            1.4956         4.14011         6.13828
LJ          -2.28837       -0.216238         1.65312
LJ           1.27729        -4.09802       0.0323561
LJ          -5.75913        -6.31812        -2.20529
LJ           2.37862         3.74064       -0.895875
LJ          -3.13207        -4.40596         -4.4018
LJ           3.34078        -4.65861        -4.00792
LJ          -5.80601         2.63955          1.1301
LJ          -5.06567         3.22944       -0.329285
LJ           1.79712         5.76916         3.24377
LJ           1.01867        -5.09822         2.62266
LJ          -5.28488          5.3973         2.65753
LJ           1.27117        -2.34353        -3.13017
LJ          -1.84801          4.6022         3.59788
LJ           5.85646         5.84968        -3.76447
LJ           3.41706          -6.174        -3.81253
LJ          -6.39438         6.24781         4.75737
LJ          -2.33556        -2.24845         3.88419
LJ           5.03147         4.08377        0.117978
LJ           -4.4449        -1.22221         1.28619
LJ           2.81719         -2.2173       0.0473402
LJ           3.53525        -6.44123        -5.07512
LJ           -2.9875          2.3563         4.64427
LJ          -5.84811        -5.03636       -0.378807
