108
#Comment!
LJ           6.24341         1.52687        -1.77696
LJ          -4.47275        -3.23838        -5.56201
LJ          -5.90465          2.9608        -2.85444
LJ           3.54509         4.51991         4.04652
LJ          0.591779        0.494614         3.88261
LJ           3.31405       -0.710071         1.06573
LJ          -3.07917         5.41094         2.18445
LJ          -2.85734         3.50759         2.66679
LJ           4.66211         3.66114        -2.40141
LJ          0.837443        -2.37156        -6.30593
LJ          -3.87029       -0.610771        -6.07385
LJ          -6.24281         5.38914        -3.66379
LJ           1.16474         4.56066         4.06906
LJ          -5.40971         4.60668        -5.27257
LJ         -0.141551         2.73664        -3.28438
LJ          -3.11499        -2.81851         2.69091
LJ           -3.0108        -6.02048         3.56573
LJ          -2.59146         0.84601         2.80179
LJ          0.402324         5.74436        -5.73127
LJ           4.94573        -2.00314        0.793377
LJ           1.92782        -6.11042         4.61881
LJ          -2.81567         4.90351       -0.736146
LJ           5.41971         6.29801         -1.9528
LJ           3.28321          3.1368      -0.0408351
LJ           4.19625         5.85923         1.16147
LJ          -1.47546         -0.2076         -3.3188
LJ          -2.04326        -5.50334         2.20345
LJ           3.61672         2.75721         2.03164
LJ           3.81551        -4.54691         1.06441
LJ          -3.99294         1.92545        -4.30782
LJ         -0.753054         2.11846         3.92945
LJ         -0.283489         1.10638         4.19908
LJ          -4.58303         4.74446          2.6853
LJ          -1.64242        -4.60648        -3.66376
LJ           3.45101         4.10058        -2.56037
LJ          -1.32348        0.887192         1.44029
LJ          -4.19767        -2.96682          5.0663
LJ          -6.07517      -0.0870201         2.01201
LJ          -2.70887        -6.15283         2.46751
LJ          -2.14545        -2.31263         5.72796
LJ         -0.620134        -1.61734        -2.61005
LJ           -6.1079         2.35344       -0.942557
LJ            5.7751         4.03027         3.51876
LJ            2.0993        -5.05854         6.41732
LJ           5.40392         1.87871        -1.20936
LJ           5.37804        -4.18034         3.09738
LJ           4.40679       -0.264772       -0.164897
LJ          -2.92786        -3.77063       -0.777021
LJ           1.91203      -0.0277681        -4.61922
LJ          -2.20964      -0.0387057        -4.13578
LJ           5.10646         1.12744        -1.89977
LJ         -0.127695        -4.98813         1.66818
LJ           4.23422         -2.9825         6.40655
LJ          0.257108       0.0862545         2.76388
LJ          0.363539        0.060457       -0.899516
LJ          -1.54543         1.47134         2.28639
LJ          -6.32069         4.61818         2.36623
LJ          -1.02593        0.985399        -3.74722
LJ           4.86987         6.18936        -1.00962
LJ           4.74486         6.17235         2.91675
LJ            2.4715         5.13153         6.22255
LJ           6.35104        -1.36098          4.8313
LJ          -4.19297         4.94052         -2.5615
LJ           3.93937        -3.59696        0.284565
LJ          -1.69762         1.07016        -1.19296
LJ          -1.85408         -4.4816       -0.890842
LJ          -2.15355         2.22104         3.45574
LJ           6.03494        -3.39294        -2.17204
LJ          -4.47953         3.60672         4.70798
LJ          -2.67977        -2.27165        -4.86368
LJ          0.515282        -3.81063         5.28447
LJ       -0.00154884        -1.32985         5.59887
LJ           2.77449       -0.272904           5.955
LJ           5.69845        -3.09552       -0.495209
LJ           3.70378          3.1925        -3.45516
LJ          -1.12601         4.71554        -3.80255
LJ         -0.598711         3.51804       -0.213855
LJ          -2.00936        -1.49671        -6.10744
LJ           2.59421         -2.3298         4.65676
LJ          -6.22583         5.77933        -5.60996
LJ           4.18473        -2.23289         5.73234
LJ           -5.3504        -2.92835         5.34546
LJ         -0.253987       -0.486102         -3.8614
LJ          0.125615         4.73198         1.54952
LJ          -5.44664        -1.14994        -5.58512
LJ           4.36583         1.43516        -1.09954
LJ          -1.39016        -1.03025          4.5347
LJ          -5.56584        -6.10496        -6.06019
LJ           1.70211         4.88497        0.878793
LJ           -1.6458        -4.34129          2.5588
LJ           2.65889        -4.74487        -2.42849
LJ           6.15545        -5.16371         2.21014
LJ           6.00338        -5.24893       -0.330997
LJ           3.85435        -5.83154         1.86177
LJ          -1.19662         2.66029         4.71481
LJ          -5.93811        -2.32708        -5.48013
LJ          -4.96162        -3.01035      -0.0324674
LJ          0.266782        -2.70354         4.14681
LJ             5.254        -5.32508         3.32073
LJ           1.57098          3.8611         5.25708
LJ           3.06019        0.951558        -2.53416
LJ           3.69161        -5.56697         3.66015
LJ          -1.51899       -0.766053       -0.600146
LJ           3.10071         4.15023       -0.636061
LJ          0.720506        -4.19049         1.05329
LJ          -3.75494         -2.5881         3.91129
LJ          -3.88496         3.75859            5.74
LJ          -0.29194         5.91726        -2.04657
