108
#Comment!
LJ           3.91003         5.02756        -5.52762
LJ          -2.27239        -2.32871          6.2393
LJ          -6.07815       -0.459462        -3.08971
LJ           -2.5104        -1.25075        -6.25698
LJ          -3.34041         -3.8593         6.00225
LJ           3.67855         1.37906         3.25794
LJ          -4.19506        -4.76701        -1.27556
LJ           6.07757         4.25464        0.866703
LJ         -0.512344         3.53759         5.83626
LJ           3.47729        -3.55493         2.15555
LJ           5.88886         6.32759        -4.19881
LJ           -6.3745         4.42512        -2.62665
LJ           4.75671       -0.620955        -5.70019
LJ          0.756632        0.464496          6.3979
LJ           4.58703         2.07161        -2.73416
LJ          0.663231        -6.03761         2.57929
LJ           1.98458         4.11054         4.75315
LJ           2.82559        -5.71271         4.97696
LJ           1.63047        -4.67973       -0.760954
LJ           2.25984         -3.8462         5.91371
LJ           1.10025        -4.81852          5.1871
LJ         -0.438656        -6.04941        0.206557
LJ           1.12414        -3.47798        -1.54982
LJ          -6.33216       -0.459171        -1.54596
LJ           1.55566         5.69918          4.1068
LJ          -1.36018          0.3078        -6.02616
LJ          0.253309        -2.86197        -3.36732
LJ          0.289099         1.51674         5.06267
LJ          -3.73757       -0.709151         3.97093
LJ           3.30964        0.612169       -0.149448
LJ          -2.08075         3.36403        -2.52591
LJ           3.98202         1.30526        0.598133
LJ         -0.561316         3.08036         3.20607
LJ            2.5272         3.04859        -3.63118
LJ          -1.89581        -5.76246         1.24092
LJ          -2.31602        -3.57014        -1.51494
LJ           5.86522         4.01759        -2.02932
LJ          -4.74699         6.23294        -3.07671
LJ           4.77336        -4.32218       -0.523917
LJ        -0.0991281        -4.91339        -1.42568
LJ          -3.89949        -5.88928         -2.2991
LJ           2.99679         5.56976        -5.21748
LJ          -4.50485         4.16858         1.30401
LJ           3.82175          4.1687          5.0755
LJ          -4.30088         5.50369         4.79251
LJ            5.2922        -4.78814         2.45568
LJ          -5.71592         1.43323        -1.22832
LJ          -5.37873        -5.92333        -1.26462
LJ           5.46443        -4.33671        -3.71425
LJ          0.126123         2.26426         2.30481
LJ          -1.62499        -3.68732         2.76171
LJ          -3.63327         -1.1528       -0.981783
LJ         -0.175998        -4.43012          1.5695
LJ           3.71369         2.46607        0.899453
LJ          -5.64866        -1.25174      -0.0225209
LJ            -4.025          4.8645        -2.41985
LJ         -0.152503        -4.04454        -3.21245
LJ           5.50757        0.653694         -3.1242
LJ           5.35349         4.83823        0.291566
LJ          -3.60638         6.14042        -3.94771
LJ          -5.71568         5.52318        -1.92742
LJ           4.08288         1.21396         4.39839
LJ          -2.09133        -3.20682        -4.99295
LJ          -1.80151        -1.21118        -2.86379
LJ           2.31369        -4.22801         -3.1405
LJ          -5.10379         1.40634         4.38206
LJ          -5.24226        -6.36345        -5.38421
LJ           1.84468         1.70545         2.21562
LJ           5.98732        -6.20272         2.34454
LJ           3.81686        -3.61579        0.168872
LJ          -6.37751         6.39878        -2.66769
LJ          -1.34193         5.53562        -3.10347
LJ            2.2381        -5.23117        -5.07717
LJ           5.05234        -2.77521        -4.57047
LJ           -4.0751        -5.64714         2.13736
LJ           3.04804       -0.987904         5.18418
LJ            1.6667        -5.63698         2.63574
LJ           3.69411        -4.16954         5.24513
LJ          -2.47986        -3.39434          1.8107
LJ          0.487621       -0.518863         2.34711
LJ          0.673703         6.19568         4.06791
LJ          -6.14975         5.90532          0.9231
LJ         -0.179126        -6.32227         5.98007
LJ           5.50568         5.73724        -5.35451
LJ         -0.443304         4.04333        -6.00329
LJ          -3.79025         1.25742          1.0412
LJ           5.63788          6.3305         6.30291
LJ          -3.53562        0.218733         4.90802
LJ          -1.82004         4.31921         4.07524
LJ           5.52272         1.00237         5.28174
LJ          -4.23606         3.52919        0.373922
LJ           6.37163          -5.578         3.32514
LJ           1.12958        -3.38356         1.33496
LJ          -3.51075        -1.06691         2.27186
LJ          -2.79966         1.87432         3.92838
LJ            4.8883         5.25678        -6.36751
LJ          -4.91082         4.19619         4.46945
LJ         -0.419855        -6.18084        -1.81692
LJ          -4.25597        -4.16973          5.2829
LJ          0.312573        -2.22953         4.84846
LJ           1.38643        -4.38053        -5.25685
LJ         -0.926699       -0.726665        0.414014
LJ          -5.43719         1.54041        -5.56482
LJ           4.14496         2.49295         4.69236
LJ        -0.0511105        0.904164         2.58139
LJ           2.62383          1.4089         3.20796
LJ         -0.356951         4.66616         5.34926
LJ           -3.4113        -1.64991         1.22438
