108
#Comment!
LJ          -4.78357         1.09558        -0.28977
LJ           -3.8852        -3.27945        -5.41848
LJ           6.12153         3.07634        -2.74417
LJ           1.58131         6.00223         2.99489
LJ            1.3857         2.99988         1.75299
LJ           3.12343        0.951611         1.68648
LJ          -1.62289         4.17862         1.92128
LJ          -5.40253         2.28842         1.82201
LJ            5.3333         2.92521        -4.77682
LJ           1.73794        -2.54488         5.90207
LJ          -3.79242         0.56309         5.75711
LJ          -6.11229         6.37948        -3.98619
LJ         -0.929102         5.59402          3.9332
LJ          -3.52315         5.06575        -4.58535
LJ           1.75444         2.45274        -3.37573
LJ          -4.15933         -1.9534         2.95729
LJ          -4.43171        -5.79447         3.91348
LJ          -4.20116        0.479927         1.96369
LJ           0.37443        -6.38306        -4.64422
LJ           6.09738        -2.33494         3.02416
LJ           1.69264        -5.70134         5.52871
LJ          -4.21194         5.22358        -3.36679
LJ           6.02178          5.2323        -2.76486
LJ           3.05185         4.26758        -1.03361
LJ           3.80268         5.53355         1.99573
LJ          -1.21169        0.529527        -2.25271
LJ           -2.1838         6.11806         3.64359
LJ           6.36897         2.55277        0.193211
LJ           2.79509           -4.67         1.27273
LJ          -4.15238         1.87136        -2.49821
LJ          -1.91971        0.725476         4.69094
LJ        -0.0680479        0.261427         3.88122
LJ          -3.29665         4.14812         3.68166
LJ          0.806854        -2.85821          -4.294
LJ           4.82689         2.09255        -3.27985
LJ          -1.11159         1.94741         1.57423
LJ          -3.90095        -4.61216        -6.05705
LJ          -6.09516        -1.26695         3.17842
LJ          -3.17456         6.15699          3.9998
LJ          -2.80182        -2.73254          5.9531
LJ         -0.252183       0.0111182        -1.87376
LJ          -5.57903         1.79744       -0.359028
LJ            4.7804         4.56316         5.28649
LJ          0.463694        -3.55824        -6.36737
LJ           5.44381         2.26119        -1.65175
LJ            5.0245        -5.33886         3.56922
LJ           5.77885         1.07855        0.357396
LJ          -1.53012        -3.04572       -0.822813
LJ           3.00645        -2.74735        -2.73531
LJ          -0.46661         -1.5822        -5.23485
LJ           6.37228         1.42734        -4.28068
LJ          -1.26355        -4.70487         2.19918
LJ           5.39258        -3.84996        -4.31563
LJ           1.33821          1.4259         3.12223
LJ           1.62708        0.467259       -0.849592
LJ         -0.615919         1.42586         3.22769
LJ          -6.10239         5.53556         3.82739
LJ          -1.40424         2.08788        -3.24229
LJ           3.14002          -4.827        -2.98006
LJ           4.74733        -6.15054         2.21087
LJ           2.10352         6.04262         6.41336
LJ           5.15653         -1.6723         5.24627
LJ          -4.98294        -6.21314        -5.01718
LJ           3.45997        -4.10094        0.435368
LJ          -2.57929         1.35654        0.969631
LJ         -0.290174         -4.5494         0.86401
LJ          -2.58348         1.66269         5.03584
LJ          -6.12814        -4.91339         -3.6793
LJ          -4.70764         2.39385         4.72985
LJ          -1.26562       -0.972325        -2.88405
LJ          -1.63331        -3.20467         3.63202
LJ         -0.568594        -1.48335         4.79596
LJ           2.63168         1.34292        -4.34445
LJ           5.37168        -3.62602         -2.7684
LJ           3.10617         2.44134        -3.78017
LJ          -2.85793         4.43729        -3.02602
LJ         0.0559527         2.22129        -1.25979
LJ          -4.72206       -0.637081         5.54118
LJ            3.5976        -2.28816         5.57689
LJ           5.82005         5.51681         4.37736
LJ           4.51696        -3.38849         4.29114
LJ          -4.50724        -4.96109         4.35877
LJ         -0.192977        -1.22143         -3.5708
LJ          -1.78603         5.51986         2.88283
LJ          -6.05033        -2.40644          5.7338
LJ           4.99522    -0.000787364        -1.94665
LJ         -0.651521        -2.40881        -6.21777
LJ           -4.5849        -5.24698        -5.50811
LJ          0.767595         5.83375         4.28001
LJ          -3.13099        -2.14039         2.30507
LJ           4.28841        -3.79908        -2.90808
LJ          -6.22821        -4.61952         1.26209
LJ           -5.9585        -5.02809        -1.07023
LJ           2.33009         -6.0978        0.532537
LJ           -2.4992         4.25813          6.0925
LJ           5.51386        -3.09767         5.58758
LJ          -4.94263        -1.95581        -1.09589
LJ          0.763899        -2.86849         2.19128
LJ           5.47315        -6.31485         3.28844
LJ           1.35496         3.41547         4.29125
LJ           3.56464        -0.57997        -2.78525
LJ           3.18291          6.0306         4.01757
LJ         -0.945233       -0.968388         0.48124
LJ           4.23078         3.90279        -1.92428
LJ          0.829749        -5.76621         1.10091
LJ          -5.09014        -2.83393         2.24892
LJ          -4.99891          5.5476        -5.85695
LJ          0.964885         4.58281        -2.15536
