108
#Comment!
LJ           3.87543         5.93843        -5.76745
LJ          -1.01854        -2.19899         6.12691
LJ          -5.00927        -1.43466        -3.70143
LJ         -0.763298        -1.81328        -5.66777
LJ          -5.34917        -2.76521         6.14196
LJ            4.6922        -0.33575          3.7673
LJ          -5.56628        -4.60518           -1.72
LJ          -5.90113         4.68918       -0.391222
LJ          -2.14122         3.98744         5.45807
LJ           4.81038        -4.63078         3.88144
LJ           4.76556         6.46229         -5.6359
LJ           -5.1412         4.84648        -3.28833
LJ           3.25228        -0.83447        -5.43411
LJ         0.0432592       -0.898078        -6.17832
LJ           3.24016         1.63336        -2.57759
LJ           1.21393        -5.09663          0.6151
LJ           2.50055         2.57775         5.47725
LJ           4.02741        -4.59767         5.59517
LJ           1.55361        -4.15376        -1.71941
LJ           2.28533        -5.08851         4.77966
LJ          0.168113        -3.98342         5.89751
LJ          0.841249         6.11197         1.63084
LJ        -0.0742944        -2.29059        -3.02567
LJ          -5.13808       -0.968236        -1.87902
LJ           0.98306         5.77596         4.89926
LJ         0.0141082         1.16953        -5.95452
LJ           0.27237        -3.56218        -3.69058
LJ          0.872931         1.22882         5.54575
LJ          -5.07941        0.228476         4.58507
LJ           4.39883         1.34174       -0.747549
LJ           -4.0183         3.43176        -2.96142
LJ           5.30961         1.88748        -0.65129
LJ          -1.56917         2.62308         3.87041
LJ           1.13137         2.46125        -4.08152
LJ          -2.84671         6.31694         2.89467
LJ          -1.97055        -1.97973        -2.07747
LJ           4.28507         4.37275        -1.96793
LJ           -3.3723        -6.20801        -3.48932
LJ           3.62352        -4.14808       -0.325648
LJ          0.137715        -5.17349       -0.660067
LJ          -5.45771        -5.93375        -1.84132
LJ           3.67172          -6.454        -4.83563
LJ          -4.01968         4.51496        0.791271
LJ           3.43167         4.99944         4.57704
LJ          -4.67507          5.6416         5.81135
LJ           5.12405        -5.02662          2.8801
LJ          -5.41588          2.7064        -1.08979
LJ          -4.71626        -6.24277        -0.47874
LJ           3.62426        -3.43799        -3.54332
LJ           1.06214          2.4831         4.17985
LJ          -1.54777        -5.61518         2.07419
LJ          -1.88521       -0.833152       -0.514129
LJ         -0.571502        -3.87207        0.755427
LJ           4.43592          1.9954        0.267277
LJ           6.24335        -1.09658       -0.213098
LJ          -6.07186          3.9168        -2.03581
LJ          0.847965        -3.89007        -5.24985
LJ          -6.02121        0.634393        -2.93852
LJ           5.04411         4.44169        0.521188
LJ          -2.42896        -6.17277        -2.30131
LJ          -4.85447         5.08368        -1.63554
LJ           5.95434         1.38635         3.48885
LJ          -2.34424        -4.42142        -3.49875
LJ         -0.545907        0.346587        -3.39421
LJ           3.40421         -5.7215         -2.7898
LJ          -4.87281         3.08621         2.99913
LJ          -6.13827         5.56106         5.69962
LJ           3.32484         1.52244         1.51197
LJ           5.88103         6.20094         3.66203
LJ           2.89908        -2.23276       -0.423099
LJ           5.93438         5.87083        -2.47477
LJ         -0.876382         4.86672        -2.63323
LJ           1.67351        -5.65945         5.92146
LJ           4.88081        -3.06163        -3.04483
LJ          -2.82524        -5.34978         2.93284
LJ           2.98464         1.04896         4.64678
LJ           2.49424        -5.38127         3.11955
LJ           3.56781         -4.5489         3.98282
LJ          -2.03692        -3.65448         1.81189
LJ           2.29454        -1.58321         2.85009
LJ          -0.78792         5.99619         3.73651
LJ          -5.35854        -6.23366         1.90293
LJ         -0.462264        -4.33278         4.89294
LJ          -5.88295         6.22716        -5.51494
LJ           -1.3911         4.77755        -4.88116
LJ          -2.66213        0.691938         1.45922
LJ           3.87882         5.18093         6.03625
LJ          -2.09261        -0.60458         4.51058
LJ          -2.63183         3.27021         3.62786
LJ           5.89992       -0.576512         5.65676
LJ          -5.51168         2.91336         1.08156
LJ            5.8637        -4.98359         3.80234
LJ         -0.311861        -2.66485         1.58744
LJ          -3.68357        0.409208         2.23113
LJ          -3.23296         1.70099         3.70305
LJ           4.25732         3.90805         5.85899
LJ          -4.15927         3.42042         5.20756
LJ          0.231242         6.12211       -0.520639
LJ          -3.63186         -5.2974         5.28602
LJ         0.0699503        -3.16965         4.63998
LJ           1.30252        -3.21727        -5.90749
LJ          -1.81342        0.148534      -0.0593675
LJ           -6.2944         1.96531        -6.34185
LJ            4.6954         1.56946         4.75038
LJ          -1.35887        0.431728         2.64056
LJ           2.06033         2.19081         3.01068
LJ          -1.41366         4.82592         5.62338
LJ          -3.31729        -1.10576         2.41713
