108
#Comment!
LJ         -0.736203        -1.15787         1.32868
LJ          -2.84089        -4.39848        -5.66855
LJ           5.41658         2.52626        -3.59582
LJ          -2.64505        -5.38542        0.946552
LJ           2.51988         6.42975        -1.52121
LJ           6.28943         2.70318        0.265081
LJ           1.46008         1.97448        0.988987
LJ           4.53648         1.88152         3.10254
LJ          -6.24516         1.30213         5.11063
LJ           2.43082        -2.81321         4.35176
LJ          -2.72042         1.26964         5.01238
LJ           5.68199         5.01911        -2.19935
LJ          -2.93457        -5.61982         5.75474
LJ          -1.42456         5.99142        -3.00559
LJ           4.18036         3.16787        -3.07982
LJ           -6.2857        -1.37863          3.1604
LJ          -5.44769         3.69602         2.78086
LJ           6.17612        -0.28427         1.05541
LJ          0.478358        -5.08993        -2.75359
LJ          -5.19192        -2.33815         3.08732
LJ          0.663784        -4.90619         6.27305
LJ          -5.33365         5.86099         4.96621
LJ          -5.99276         3.77051         -4.1023
LJ           2.63276        -5.83439        -3.29208
LJ           3.25933          5.4306         3.68183
LJ          -0.32473         1.71072         -1.0718
LJ          -3.49442         3.34367        -6.17594
LJ          -5.98478         3.29955       -0.224745
LJ           1.29555        -4.66668         1.30966
LJ          -2.59476        0.781371        -0.23264
LJ          -4.56342       -0.117367         6.29702
LJ          0.115808         0.39322         3.06146
LJ          -2.26657         3.48892          6.0432
LJ           4.04854       -0.297194        -5.42726
LJ          -5.95862       -0.692776        -4.71834
LJ         -0.817321         3.76041         1.99147
LJ          -1.42903        -4.29354        -4.38126
LJ          -5.15116        -2.05775         4.49201
LJ          -4.55614         6.10294        -6.41885
LJ          -4.52164         -3.8928         6.36832
LJ           0.21911          2.1857        0.826277
LJ          -4.09189         1.31614        -1.50715
LJ           3.46865         5.67396        -5.05278
LJ           1.05661        -3.56247         4.34537
LJ          -6.42222         1.97861        -1.74765
LJ           4.68177         6.42198         3.85204
LJ          -5.37784         2.39975        -2.30898
LJ          0.797428        -2.01359       -0.779696
LJ           5.30779         5.85732         -0.5084
LJ           1.19445        0.262889        -5.70881
LJ          -5.34887         2.15622         5.01178
LJ          -1.79423        -3.46287         2.24374
LJ          -5.50129         5.93268         6.31045
LJ          -1.54483         1.08109         5.73592
LJ           3.40491         1.11389       -0.881918
LJ           1.57867        0.355488          4.0743
LJ          -6.12168        -5.81278         6.15102
LJ          -1.54198         4.03689         -1.7839
LJ           2.84279        -3.52272        -4.00154
LJ           4.26924         -4.9356         1.68193
LJ           2.38875        -4.86022        -4.88698
LJ             -4.62        -1.10303         5.06667
LJ            5.9558         -4.4384         4.08656
LJ           2.35952        -4.96019        0.919189
LJ          -3.98586         2.09372         3.76562
LJ           2.21079        -4.76233          3.6349
LJ          -3.78239      -0.0257178        -5.81472
LJ          -4.77378        -4.94226        -6.39148
LJ          -4.55492        0.171639         4.68558
LJ            1.4908         1.33436        -1.02572
LJ          -4.93414        -2.20907        0.978829
LJ          -1.28283         -1.6052         3.49681
LJ          0.890761       -0.742353        -1.71353
LJ            -6.303        -2.47825       -0.975124
LJ           5.06057          5.0253        -3.41254
LJ          -5.90918         4.26584        -2.11084
LJ           1.20275        0.377325        -3.24022
LJ           4.12715         1.07999         4.68334
LJ           2.65785        -3.98994        -5.87976
LJ           4.95338         2.62645         1.22283
LJ           4.50675        -5.26453         2.66501
LJ          -3.35398        -4.86145          4.8813
LJ          -1.01263        -1.91284        -3.35515
LJ          -6.23566         5.97356         2.38839
LJ           3.63476        -5.46686         -6.0223
LJ           5.12278        -2.11443        -4.05369
LJ           -2.7752        -4.18533        -3.19802
LJ          -3.68515        -4.55318        -2.49906
LJ         -0.162718        -5.33939        -3.86523
LJ           6.18797         1.10136         2.21438
LJ           3.62601         -2.7019        -3.03875
LJ          -5.15792        -3.20502       -0.487253
LJ          -4.67537        -4.63954        -2.15545
LJ         -0.414085         5.92057       -0.103243
LJ          -4.58632         6.42207        -4.85896
LJ            3.7906        -3.90572         2.09474
LJ          -4.92676         -0.3227        -2.72626
LJ           1.39757        -3.33927       -0.751036
LJ            4.9998         6.35591         2.72414
LJ           1.24477         4.84851         1.80746
LJ            4.9625        -2.81579        -3.12161
LJ           3.38654         4.89312         4.55423
LJ           1.13442        -1.75529         2.71085
LJ           2.71528         4.01369        -2.34503
LJ           1.29572         5.13263         0.37737
LJ           -6.0687        -2.79859      -0.0791796
LJ          -5.28108         -5.3603        -5.59983
LJ           2.67036         2.88063        -1.83303
