108
#Comment!
LJ           -1.0237         5.83492         5.32809
LJ           3.32618        -3.06546         6.04159
LJ          -1.73577        -4.25625        -5.11813
LJ           3.43731         -5.3312        -4.98995
LJ           3.33301        -4.47708        -5.74654
LJ          -4.96678        -4.26268         6.45856
LJ           2.82768         -5.0916        -2.50718
LJ          -4.95786        -6.28099        -4.32172
LJ          -6.00328        -6.42999         4.95415
LJ        -0.0291283         -5.2924         -5.7239
LJ          -5.82001        -5.25772        -5.49347
LJ         -0.778848         5.89978        -3.55864
LJ          -1.63256        -1.49543        -5.14291
LJ            3.1635        0.234318        -5.88135
LJ          -1.19575        0.852443        -3.28358
LJ           3.14998        -1.72863        -5.10646
LJ            2.8364        -1.26877        -5.97227
LJ          -4.90874        -1.69106        -6.44941
LJ           1.21952        -1.53894          -4.579
LJ           1.26571         -5.1627         5.49486
LJ          -4.09542        -2.86867         6.07772
LJ           1.59644          2.0723         5.28416
LJ          -4.26231        0.507157        -6.40067
LJ          -1.41346        -2.47738        -3.31006
LJ         -0.788274         5.73627        -6.32685
LJ           4.06807         3.58234        -6.30616
LJ         -0.503388         4.95514        -4.18792
LJ           3.78981         2.26554        -4.86602
LJ            3.3605         1.67256         5.56672
LJ          -5.75074          2.9401        -4.85093
LJ           2.78205         4.35643        -3.78328
LJ          -5.37495         4.06729        -3.73326
LJ          -5.44562         2.53802         6.42379
LJ         -0.941666         3.71228         5.79593
LJ          -5.42487         4.75415        -5.04902
LJ         -0.570227         2.86604        -3.74125
LJ         -0.403005         5.58558        -1.83192
LJ           1.73987        -4.23359         -3.2518
LJ         -0.450564        -4.13267       -0.778385
LJ           3.06894        -6.44865        0.931291
LJ           2.71038        -6.19818         -1.5994
LJ          -5.46065         -5.2157        -3.57109
LJ           -3.2314         6.20721        0.196422
LJ           -6.3943         5.51333        0.913878
LJ          -6.04232         6.11936        -2.97579
LJ           4.87513        -4.57889        -6.30728
LJ          -5.30896         6.44761       -0.389115
LJ         -0.433273        -5.47059        0.388345
LJ          -1.40606        -1.51335        -2.66498
LJ           4.28149         1.62543        -3.28456
LJ          -2.32582         1.59046        0.134541
LJ            2.8837        -1.81892       -0.388869
LJ          -1.87277        -1.26566       -0.483309
LJ          -4.34903         1.16273        -1.60961
LJ           3.00944        -0.48973       -0.975827
LJ           1.94846        0.351176       -0.660018
LJ           2.72682        -3.69987          2.7697
LJ          -1.45504        0.365393        -2.29113
LJ           4.95268         2.47681        0.348194
LJ         0.0378694        -4.56363        0.542409
LJ          -1.96074         3.11579        -1.65471
LJ           5.91589         2.73385        0.485521
LJ          -2.04553          4.2344        0.684763
LJ           3.70674         2.07701        -1.94558
LJ           3.75393          3.8615        -2.80702
LJ          -5.31242         5.42497        -1.33214
LJ           3.26574         3.93213         1.36325
LJ           -4.9027         1.51533         0.38295
LJ           4.36236          3.8743        -3.77761
LJ          -0.59162         2.51268        -1.51582
LJ          -5.38193         4.43417         0.18547
LJ          0.580637         2.84934        -1.20395
LJ          -1.12621        -6.40701         1.75072
LJ           3.64859        -4.63827         1.42452
LJ          -1.28896        -5.89361         4.48865
LJ           3.48238        -6.30042         3.90803
LJ           2.92475        -5.46302         2.69828
LJ          -5.16784        -4.74086         2.48855
LJ           0.12876        -3.53815         2.35638
LJ          -5.78883         -5.4167         4.53602
LJ           -5.3991         5.85671         2.92245
LJ          -1.22262        -4.83603         2.22782
LJ           -4.9549        -4.12649         4.54194
LJ          -1.19044        -6.21486         6.44863
LJ          -4.00346        -5.14206       -0.727333
LJ           2.11553       -0.244973         1.95229
LJ          -1.07352         2.33454         4.56849
LJ           2.83246        -2.57633         3.76582
LJ          -3.54843        0.393895         2.20142
LJ              3.18        -1.05212         3.20097
LJ           3.75174          1.1832         3.14105
LJ           -4.1739        -3.11446         3.89883
LJ          -5.19086        -2.38359         1.62633
LJ          -1.14373        0.762199         2.58135
LJ           -5.3474        0.370292         5.43279
LJ           2.79578       -0.647349         5.71297
LJ          -2.96335         1.15203         4.79795
LJ           2.89849         4.71557         2.80161
LJ          -2.48036         4.23075         4.85713
LJ           3.85723        0.359517         3.93456
LJ          0.798904        0.125663         3.26927
LJ          -4.53995         4.25875         0.52534
LJ           3.36322         3.73841         4.03373
LJ          -5.17296         1.54856          4.8886
LJ           -6.1187        0.166367         2.50211
LJ         -0.636146         3.90164         1.54678
LJ          -6.19411         4.44478         5.26109
LJ          -1.63649         1.01555         4.33902
