108
#Comment!
LJ          -4.56738         1.00266        -1.99488
LJ            0.6769         2.63993         -0.3946
LJ          -2.66889        -6.41701         2.38036
LJ          0.647774        -1.84788        -6.09406
LJ           1.04319        0.131928         4.68448
LJ          -5.56239       -0.501132         3.57097
LJ           2.60217         4.25354        0.739877
LJ           4.19661          4.4731         2.22496
LJ           1.20075       0.0776385        -4.00018
LJ          -4.90523        -4.77372        -4.66978
LJ          -6.13832        -5.31239        -2.46195
LJ           1.75898         4.11033         2.62567
LJ           1.26228        -4.44331       -0.705508
LJ           4.85199        -2.33412         1.21986
LJ          -2.37488         5.93797        -1.51853
LJ           3.92757         2.57498        0.657601
LJ         -0.454297        -3.26945        -1.97427
LJ          -6.24741        -5.69921        -4.62757
LJ          -4.91218         4.60803        -1.52964
LJ          -1.16444        -1.06071        0.250381
LJ           -4.0506         -2.1661         1.74648
LJ            2.6347        -1.25318        -2.59477
LJ          -4.99478         0.51559        -3.39209
LJ           4.26503         1.97311        -6.31749
LJ           5.19249         2.50672         4.15754
LJ           5.60357         3.80936        0.501864
LJ           4.57862        0.479196         2.97551
LJ          -5.52123        -4.26573        -2.26553
LJ           3.86883         4.24551        -1.96318
LJ          -5.91032         4.44766        -4.02747
LJ          -6.34101        -1.42539         2.08074
LJ           1.92838         1.13342         3.24725
LJ          -4.60008        -3.48283        -2.36877
LJ           5.47293         1.91491        0.604248
LJ          -6.37198         2.73263        0.647253
LJ          -5.10938         2.14436         6.07429
LJ           6.45179        -4.41718         4.90099
LJ          -4.39903        -2.79645        -3.55563
LJ          -4.34403        -3.70876        0.974569
LJ          -1.73482         4.84966         3.12453
LJ          -1.56708         5.17124        -1.99028
LJ         -0.624118        -6.09063       -0.176216
LJ           2.98019        -2.82314       -0.411283
LJ          -5.51843        -5.81139        -1.87148
LJ           2.20093        -0.48486         4.61129
LJ           3.69884         6.31722        -4.31436
LJ          -2.22236         -3.3708        0.136954
LJ           6.05108         2.68956         5.62003
LJ          -2.97887         2.87848         6.15344
LJ          -4.80092         5.35796         1.12689
LJ          -4.09399           5.086         2.04965
LJ          -4.33261        -3.83521        -4.18034
LJ          -1.26881        -2.58883        -5.71123
LJ          -4.21008         2.57199         -5.9905
LJ           4.84378         4.62734       -0.290922
LJ          -3.05131         2.12992        0.779102
LJ         -0.972108        0.324122        -1.78173
LJ          -1.19802        -1.46969        -2.38438
LJ           4.74903        -5.90436         1.93623
LJ           3.32802        -2.40913         3.59339
LJ          -6.09225         3.71897         1.38851
LJ           3.33593        -5.36988        -5.97573
LJ          -1.91218         5.52748        -4.02018
LJ            3.1567         3.88089         1.71181
LJ           1.48595         -1.2245        -6.16405
LJ           1.06412        -2.35212         4.45376
LJ          0.370075       -0.741198        0.999634
LJ          -6.40968        0.958333         5.61296
LJ          -1.04053       -0.212566        -4.41307
LJ          -5.51976        -3.31805        -5.50784
LJ           1.87179         4.42816         3.56411
LJ           5.44429         1.51617        -3.84348
LJ           3.43681          -3.476        -5.39976
LJ          -3.79506        -2.88022        -4.44562
LJ          -4.34411         2.44197         5.19177
LJ           3.63054         4.19774         3.43434
LJ          -1.18334        -5.50896         1.20604
LJ           -4.3445        -1.87069        -2.52991
LJ          0.118723        -1.01717        -5.03535
LJ         0.0938275        -3.63721        0.183029
LJ         -0.560255         2.03586         5.42525
LJ          -1.80545         5.37864         4.15336
LJ            4.3738       -0.296335         4.88071
LJ           -4.7385        -6.04166         -1.2477
LJ           3.54808         2.73442         -5.8092
LJ          -2.92801        0.512643         1.65648
LJ           1.47976        -4.14828        -2.78476
LJ          -3.95502        -5.69643        -2.16538
LJ           1.54108         3.90724        -2.39973
LJ          -2.65205         -3.2197        -4.26902
LJ           3.06242         6.30125        -2.29695
LJ           -5.2133         3.22935         3.91989
LJ          -4.01336         2.60543         1.42845
LJ          0.423723         5.29225        -6.03354
LJ          0.673363         5.17244         2.54696
LJ          -5.68144         5.57042        0.275406
LJ           1.97795        0.768735        -1.40022
LJ         -0.285107         5.14352         4.94079
LJ          -6.17082         3.56884        -3.08701
LJ            4.1599         4.80736        -2.95877
LJ           4.40479         5.35488         6.41036
LJ          -1.57166        -4.66963        0.899426
LJ           5.65284        0.969292         1.63164
LJ          -6.22629        0.468399           1.785
LJ           1.00404        -1.65309        -1.55431
LJ           3.74564         4.91797        -4.01659
LJ            0.6175         1.08596          4.8628
LJ          -5.66904        -4.13453       -0.895332
