108
#Comment!
LJ         -0.708258        -1.18142         1.33571
LJ          -2.81916        -4.42714        -5.66805
LJ           5.42878           2.503        -3.61811
LJ          -2.73792        -5.34911        0.898254
LJ            2.5428        -6.41805        -1.59386
LJ           6.37453         2.71505        0.207864
LJ           1.50936          1.9202         0.96281
LJ           4.48375         1.92525         3.06692
LJ          -6.18681          1.2722         5.04282
LJ           2.46465        -2.80843         4.31022
LJ          -2.67546         1.25673         5.06238
LJ           5.63781         4.96828        -2.14142
LJ          -2.99002        -5.57617         5.79105
LJ          -1.37956         6.01215        -2.96967
LJ           4.25637         3.18744        -3.08533
LJ          -6.32546        -1.37937         3.18087
LJ          -5.46527         3.62604          2.7526
LJ            6.1278       -0.298519         1.05202
LJ          0.505132        -5.04736        -2.65153
LJ          -5.15184         -2.2898         3.06699
LJ           0.63625        -4.88527         6.28796
LJ           -5.3488         5.89296         4.87978
LJ          -5.97495         3.74182        -4.12743
LJ           2.60793        -5.75192         -3.3402
LJ           3.21725         5.41252         3.69082
LJ         -0.286905         1.73242        -1.03824
LJ          -3.51545         3.27675        -6.11994
LJ          -5.96364         3.31816       -0.245758
LJ            1.2576        -4.66386         1.31454
LJ          -2.56811        0.758889       -0.182558
LJ          -4.62098       -0.119367         6.33555
LJ          0.134391        0.407017         3.04872
LJ          -2.25667         3.48491         6.10933
LJ           4.11357       -0.245263         -5.4533
LJ          -5.91104         -0.7559        -4.74926
LJ         -0.803934         3.80255         1.99885
LJ          -1.37984        -4.27726        -4.33618
LJ          -5.13338        -2.07238          4.5077
LJ          -4.56387         6.10582        -6.35175
LJ          -4.52953        -3.84865         6.35313
LJ           0.23592          2.2391        0.899657
LJ          -4.06314         1.30991        -1.53058
LJ           3.43922         5.69977        -4.99482
LJ           1.05621        -3.58475         4.29154
LJ          -6.37301         1.97007        -1.74179
LJ           4.71492         6.42719          3.8488
LJ          -5.35632          2.4179        -2.39488
LJ          0.856223        -1.99646       -0.776574
LJ           5.36205         5.76061       -0.463516
LJ           1.18282        0.386559        -5.74702
LJ          -5.34808          2.1626         4.92668
LJ          -1.80548        -3.43503         2.24438
LJ          -5.47296          5.8648         6.22593
LJ          -1.61889         1.04777         5.78742
LJ           3.44138         1.12916       -0.884538
LJ           1.61168        0.323478          4.0917
LJ          -6.10989         -5.7846         6.21429
LJ           -1.5446         4.07927        -1.75038
LJ           2.88313        -3.55305        -3.93099
LJ           4.24786        -4.89383         1.67579
LJ           2.39791        -4.81114        -4.85109
LJ          -4.54498        -1.09688         5.04053
LJ           5.93552        -4.41733         3.99991
LJ           2.33541        -4.98119        0.932328
LJ          -4.03789          2.1296         3.77535
LJ           2.27007        -4.76575         3.69081
LJ          -3.82887      -0.0733236        -5.79402
LJ          -4.75052        -4.99614         6.45448
LJ          -4.53801        0.114143         4.69534
LJ           1.53891         1.39856       -0.991815
LJ          -5.01173         -2.1882        0.917423
LJ          -1.29744        -1.60624         3.46578
LJ          0.854833       -0.803252        -1.67284
LJ          -6.29976        -2.41992        -1.02097
LJ           5.10013         5.09801        -3.39843
LJ          -5.98326         4.26224        -2.09393
LJ           1.22967        0.330409        -3.27316
LJ            4.0299         1.07272         4.75156
LJ            2.6579        -4.04909        -5.89627
LJ           4.91715         2.57123         1.18984
LJ           4.50764        -5.30701         2.62632
LJ          -3.32351          -4.868         4.90292
LJ          -1.03103          -1.928        -3.34946
LJ          -6.34172         5.97659         2.38503
LJ           3.52709         -5.5307        -5.95616
LJ           5.11193        -2.17207        -4.09716
LJ          -2.75014        -4.19248        -3.18024
LJ          -3.60192        -4.55839        -2.44845
LJ         -0.204239         -5.3089        -3.82005
LJ           6.09373          1.1631          2.2009
LJ           3.62198         -2.6677        -3.04196
LJ          -5.13549        -3.15953       -0.524731
LJ           -4.7778        -4.64453        -2.11857
LJ         -0.469567         5.89149      -0.0981851
LJ          -4.61827         6.44523        -4.82288
LJ           3.76145         -3.9494         2.01311
LJ          -4.92677       -0.285282         -2.7627
LJ           1.40651        -3.34519       -0.818155
LJ           4.97287         6.36102         2.73904
LJ           1.24659         4.90181         1.74532
LJ           4.99037        -2.86742        -3.13375
LJ           3.40017         4.86262         4.57385
LJ           1.24333         -1.7987         2.79254
LJ           2.66864         3.98115        -2.35215
LJ           1.30203         5.09414        0.347356
LJ          -6.06178        -2.83653      -0.0300402
LJ          -5.33467        -5.31971        -5.60264
LJ           2.70102         2.87193        -1.81207
