108
#Comment!
LJ          -4.30314       -0.186223       -0.553875
LJ          0.625623         -3.6037        0.667956
LJ           2.91697        -4.16781         1.76862
LJ           3.48702        -3.69228        -1.46822
LJ          -1.76027        -3.80977         4.37154
LJ           1.91736         2.23833         4.55404
LJ           4.16734         2.80246         4.57423
LJ            5.8734       -0.742127         2.06146
LJ          -2.74845         -1.2919         1.62045
LJ           1.73444         6.37921        -1.88175
LJ         -0.723535        -1.54682         -1.5002
LJ        -0.0967542        -4.16714        -4.03014
LJ          -3.36538       -0.733671        -1.37327
LJ          -4.88584        -2.56946         4.61039
LJ          -3.41721         4.60289         6.15604
LJ          0.378511        -4.39274          5.0224
LJ           4.22227        -4.02346        -4.17576
LJ           6.44693         2.82653         5.95545
LJ          -4.35429        0.780876     -0.00716019
LJ         -0.624157        -4.92734         0.44228
LJ           1.22328        -3.88458         5.70338
LJ          -4.06863          2.7627        -2.11801
LJ          -5.67537        -1.42104        -2.15549
LJ           4.03263         1.85285        -5.99666
LJ          -1.13005        -1.52034         6.07062
LJ          -5.62058        0.814255         3.87107
LJ          -2.38627        -2.35709       -0.611173
LJ          -3.68201       -0.229559         5.35507
LJ          -1.03165        -3.60169       -0.751728
LJ           -1.4667        -3.09729        -1.41749
LJ           1.82592         2.20823         5.63987
LJ          -5.90631         1.57341         6.17416
LJ           5.16631        -2.73892        -3.66085
LJ          -5.92987        -3.88294       -0.780908
LJ           5.10432         5.53985         4.11051
LJ          -5.50847       -0.477219         5.09432
LJ           3.75475         1.01803          4.4134
LJ           -1.1175        -2.56594         3.78743
LJ          -5.09698         5.69083         1.09622
LJ          -0.95351        -5.22412         2.83491
LJ          -1.47492         3.06392        -6.13914
LJ           4.85654         2.55591       -0.231592
LJ         -0.035935        -4.75917        -1.85484
LJ          -4.38113         5.31555         2.65605
LJ          0.798633        -1.34845        -0.55109
LJ          0.412678         1.06246        -2.95102
LJ          -3.62541        -5.23195         6.25775
LJ          -2.16507       -0.438166        -6.05702
LJ           3.24857        -5.95921        -1.14716
LJ          -1.10624        -5.94473         3.99018
LJ           2.02458         3.53009        -4.81358
LJ          -5.97778        -3.63893        -6.18619
LJ          -2.38171         4.95284         4.94043
LJ           5.78853         4.86811         3.07255
LJ          -3.06825        -2.50936         2.87976
LJ          0.273272        -3.28757         4.77695
LJ          -4.78088         5.25764         4.62605
LJ          0.663458         2.61838        -2.39985
LJ           0.04558         -2.4199        -5.45062
LJ           3.44687         5.83348         4.39179
LJ          -5.46532         2.52943         1.14439
LJ          0.305934       -0.859761        -4.58986
LJ          -4.96412       -0.658128        -3.15682
LJ           3.53802         4.17795         3.87023
LJ          -1.51696         1.44731        -1.46301
LJ          -4.69614        0.875917         -3.0161
LJ          -1.28446        -2.18766         -2.7485
LJ          0.287063         5.85522        0.812221
LJ          -5.44331        -3.41656        -1.48048
LJ           5.92464        -2.96306        -5.30415
LJ           5.48215         -1.7919         1.91766
LJ           6.37522       -0.484301        -1.41653
LJ           2.65068        -4.95026         1.24079
LJ          -4.65135        -4.10002        -5.69005
LJ          -3.51592        -1.50265        -6.16382
LJ           1.22055         1.58922         3.55061
LJ          -4.41329         4.19616         6.44904
LJ           5.76315         -3.6179         -3.1929
LJ          -2.95245          5.4041         1.01889
LJ          -5.17293        -4.09353        -3.92504
LJ          -1.00546         2.20556        -3.69524
LJ          -6.21884         4.84278         3.47627
LJ          -4.27845        -6.07207        -1.06902
LJ          -3.92151         3.08099          5.0793
LJ           1.52619        -1.82624        -1.17411
LJ          -4.86266         2.38906          3.7373
LJ           1.97514         -3.4867         2.26204
LJ          -2.05068        -5.69848         3.41703
LJ          0.789372        -4.29443         -1.0381
LJ           3.01007        -2.06898        -5.29914
LJ           3.86608        -1.29554        0.985754
LJ           0.14257        -5.15112        -5.11592
LJ           1.26016        -4.64012         2.02433
LJ          -1.62797         6.14532        -5.30879
LJ          -3.62056       -0.503007          2.3829
LJ          -4.58646         4.77627        -1.97521
LJ            -2.891        -3.19294        -0.51573
LJ           1.67948         -5.8912        -4.16021
LJ          -2.04038        0.212498        -2.81564
LJ          -4.71381         5.17007       -0.675916
LJ          -1.36015         6.27438        -6.44817
LJ           1.00104        -6.13634         5.75973
LJ         -0.420352        -3.69985         3.82736
LJ           6.08986          1.3784         4.59371
LJ          -4.07207        -6.34258        -4.68035
LJ            2.0035         5.08009        -3.34025
LJ          -5.89635          6.3698        -1.66084
LJ          -4.39304         4.38877        -3.85895
