108
#Comment!
LJ           4.92192         2.05584        -2.45062
LJ           -4.8942        -3.09816        -5.74993
LJ          -6.45232         3.31269        -2.49031
LJ           4.59498         3.38247         4.64997
LJ         -0.134109        -1.53839         4.92668
LJ           3.96585        -2.42239        0.768647
LJ          -3.42674         5.77485         1.66026
LJ          -1.11628         4.19249         3.32385
LJ            3.7272          4.1023        -0.95795
LJ          0.113443        -2.14972        -6.02091
LJ          -3.98522        -1.66357        -5.27058
LJ          -6.21006         4.77077        -3.55607
LJ           2.71169         3.66445         4.60067
LJ           6.12447         4.63786        -5.67977
LJ           -1.4274         2.87509        -3.23541
LJ          -2.70789        -3.55392         2.85791
LJ          -2.15627        -6.04753         3.74165
LJ          -2.78707        0.609507         3.47771
LJ          0.436081         5.19999         6.45601
LJ            4.3075        -1.89272       -0.932955
LJ           2.13598        -6.40319         4.02226
LJ          -1.84609         4.67033         1.01844
LJ           4.94484         -5.9086        -1.23945
LJ           3.58573          2.6634        0.213039
LJ           4.48284         6.44473        0.869235
LJ          -1.51906       -0.577938        -4.06072
LJ          -2.04805        -4.58663        0.817453
LJ           1.44587         3.06632         3.45439
LJ           4.54799        -4.20591        0.890434
LJ          -2.82047         1.41675        -5.83539
LJ          0.174063         2.53496         2.37466
LJ         -0.309133          1.5601         4.09033
LJ          -6.22753         4.76417         2.31971
LJ          -3.29746        -5.77105        -3.22639
LJ           2.82821         5.14073        -2.22332
LJ          -1.46379         -0.1793         1.10418
LJ          -4.72248        -1.79977         4.07967
LJ          -6.07687        0.681768         1.21627
LJ          -3.19664        -6.14549         1.67332
LJ          -2.00322        -2.65615         5.50141
LJ          -1.00379        -2.54318        -2.87308
LJ           6.09926         2.19213        -2.00396
LJ          -6.45092         3.67141         2.54199
LJ           3.19842        -6.07486         6.27789
LJ           6.04465         2.55431       -0.241888
LJ           5.72454        -4.26363         2.64026
LJ           3.82405       -0.943315        -0.57125
LJ          -3.64353        -4.42333       -0.727943
LJ           1.16679         1.81857         -5.8809
LJ          -4.13452       -0.553446        -4.11309
LJ           4.23348        0.590536       -0.827749
LJ           1.30707        -4.64348        0.884996
LJ            3.5205        -3.45104         5.65662
LJ         -0.273686       0.0339999         3.04884
LJ         -0.596969       -0.229143       -0.959008
LJ         -0.447312         2.27777         1.21866
LJ          -6.28258         4.17617         1.25866
LJ        -0.0965482         1.12008        -3.24211
LJ           6.15123         5.00693        0.167042
LJ           4.65062         6.02232         3.38643
LJ           3.33659         5.80264        -5.92283
LJ          -5.08115       -0.910611         4.63615
LJ          -3.72824         3.69361       -0.951636
LJ            4.4167        -3.30318        0.300894
LJ          -1.01485        0.809242        -2.64532
LJ           -3.1382        -4.27938         -2.0625
LJ          -1.80539         2.95996         2.99442
LJ           5.45891        -2.33518       -0.991156
LJ          -4.81909         3.97627         3.50659
LJ          -3.57635        -2.99807        -6.31341
LJ           1.98036         -4.0487         6.29888
LJ          0.345542        -1.39533         6.05497
LJ           2.93378        -1.43288          4.2479
LJ           5.81233        -2.76417        0.952388
LJ           4.29858          3.9975        -2.73779
LJ         0.0321777         4.90496         -4.3075
LJ          -1.04162         4.41508        0.504222
LJ         -0.411813        -1.62195        -4.89876
LJ           1.63924        -2.58198         4.15575
LJ          -5.44828          5.8686        -3.72003
LJ           3.48232       -0.493568         5.80855
LJ          -5.76434        -1.45761         5.93954
LJ          -0.34429        0.347572        -4.34818
LJ            1.3462          4.2028        0.385721
LJ          -5.07747       -0.475503        -4.56852
LJ           3.75853          2.3197        -1.14358
LJ          -2.18246       -0.270029         3.63307
LJ          -6.36244         5.94539        -6.23555
LJ           1.64117         4.64874        -1.33333
LJ         -0.304021        -5.39815         3.21562
LJ           1.57825        -5.43951        -2.07631
LJ           6.20503        -4.98259         2.11286
LJ           5.28618        -5.41043         0.14156
LJ           5.02549        -5.92836         2.69868
LJ          -1.13418         2.16562          4.8993
LJ          -4.64939        -1.70951        -4.31471
LJ          -4.98038        -3.73401        0.674196
LJ        -0.0630286        -2.61079         5.67937
LJ           5.22521        -4.65169         4.17213
LJ           1.12658         3.16491          4.6359
LJ           2.80879         2.01089        -2.29848
LJ           3.39238        -4.69445          3.2538
LJ          -1.83008       -0.538232        -1.36854
LJ           2.88874         3.54942        0.509416
LJ          0.538808        -3.15729         1.08373
LJ          -2.30025        -2.32496          4.5677
LJ          -2.63425         3.02538         6.04603
LJ          -1.15084        -6.12014        -1.98357
