108
#Comment!
LJ           5.60421         1.75154        -2.17581
LJ          -4.67824        -3.20819        -5.65553
LJ           -6.1447         3.15014        -2.71595
LJ           4.03694         3.99099          4.3285
LJ          0.291838       -0.451296         4.37208
LJ           3.76989        -1.33503        0.616824
LJ          -3.25757          5.5193         1.93307
LJ          -2.04843         3.88625         2.96279
LJ           4.26812          3.8658        -1.69302
LJ          0.523285        -2.30899        -6.12578
LJ          -3.89123        -1.08191        -5.73134
LJ          -6.24651         5.07566        -3.57374
LJ           1.91708         4.19413         4.27268
LJ          -6.05386         4.57297         -5.4787
LJ         -0.738931         2.81459         -3.2593
LJ          -2.92357        -3.16507         2.74766
LJ          -2.61629        -6.03372         3.68565
LJ          -2.64581        0.664433         3.13082
LJ          0.416606         5.49275        -6.07502
LJ           4.57533        -1.89597       0.0800973
LJ            2.0204        -6.24731         4.33973
LJ          -2.37249         4.79997       0.0703602
LJ           5.19557        -6.28165        -1.66016
LJ           3.40086         2.93155        0.117687
LJ           4.32045         6.10689         1.00326
LJ           -1.3606       -0.377215        -3.70641
LJ            -1.991        -5.00334         1.61081
LJ           2.61226          2.8946         2.68238
LJ           4.14467         -4.4462         1.03189
LJ          -3.45014         1.69195        -5.01658
LJ         -0.317421         2.38273         3.23494
LJ         -0.369337         1.36944         4.25619
LJ          -5.28058         4.80245         2.54012
LJ          -2.41042        -5.14868        -3.46586
LJ           3.11777         4.62559        -2.40825
LJ          -1.39745        0.386205         1.28751
LJ          -4.39726        -2.43158         4.55635
LJ          -6.07551        0.269445         1.64342
LJ          -2.92513         -6.0938         2.07723
LJ          -2.08281        -2.46665         5.59538
LJ         -0.795377        -2.05669        -2.72777
LJ          -6.34579         2.28724         -1.3982
LJ           6.13833         3.91513          2.8972
LJ           2.61004        -5.51883         6.35336
LJ           5.69886         2.21252       -0.688392
LJ           5.54662        -4.13502         2.87944
LJ           4.03071       -0.752584        -0.11912
LJ          -3.25201        -4.07951       -0.752623
LJ            1.5685        0.829342         -5.2052
LJ          -3.11391       -0.268566        -4.12032
LJ           4.70003        0.790403         -1.4132
LJ          0.557504        -4.81677          1.2915
LJ           3.90473        -3.18051         6.03912
LJ         -0.452339      -0.0777144         3.11403
LJ        -0.0540114       -0.071048       -0.920238
LJ          -1.02992         1.84394         1.74938
LJ          -6.41116         4.31143         1.99291
LJ         -0.574743         1.11289        -3.50407
LJ           5.46959         5.61781       -0.445446
LJ           4.71703         6.12669          3.1027
LJ           2.87654         5.43035        -6.33588
LJ          -5.89779        -1.11129         4.71834
LJ          -3.97707         4.36249         -1.8155
LJ           4.13645         -3.4329        0.238703
LJ          -1.39895        0.959549        -1.85273
LJ           -2.4548        -4.38028        -1.43493
LJ          -2.02876         2.52054         3.24517
LJ            5.7764        -2.90552        -1.64416
LJ          -4.63838         3.77495          4.1509
LJ          -3.07351        -2.62425        -5.53039
LJ           1.19677          -3.933         5.75928
LJ          0.157704        -1.30773         5.81329
LJ           2.82224       -0.788824         5.13841
LJ           5.78722        -2.94775         0.18636
LJ           3.98743         3.53804        -3.17616
LJ         -0.589714         4.80551        -4.03727
LJ         -0.803235         3.92555         0.11758
LJ          -1.27145        -1.54861        -5.54047
LJ            2.1515        -2.45367          4.4154
LJ          -5.85321         5.87199        -4.72455
LJ           3.89442        -1.45695         5.81794
LJ          -5.56843        -2.26958         5.65872
LJ          -0.41582        -0.16728        -4.06508
LJ          0.683605         4.48899         1.02888
LJ          -5.32086       -0.908539        -5.09185
LJ           4.03555         1.87746        -1.10389
LJ          -1.36975       -0.486227          3.8389
LJ          -5.92945         6.44483        -6.17752
LJ           1.95131         4.59694       -0.166188
LJ          -1.07148        -4.89827         2.80935
LJ           2.15765        -5.06649         -2.2656
LJ           6.21939        -5.11083         2.13382
LJ           5.68317        -5.31706       -0.109734
LJ           4.38017        -5.93273         2.28346
LJ          -1.06477         2.33656         4.71398
LJ          -5.36037        -1.95175        -4.92499
LJ          -4.96992        -3.34438         0.29752
LJ          0.103365        -2.68614         4.83123
LJ           4.89856        -5.06081         3.74317
LJ            1.3252         3.49347         5.02204
LJ           2.92751          1.4374         -2.4398
LJ           3.85644        -5.11893         3.52541
LJ           -1.6874        -0.67606        -0.95259
LJ           2.74566         4.04639       -0.111465
LJ          0.621223        -3.72218          1.0776
LJ            -3.093        -2.47882         4.28144
LJ          -3.30082         3.41965         5.88905
LJ         -0.689234         6.32985         -2.0164
