108
#Comment!
LJ           3.59923         1.64337        -4.27152
LJ          -2.93901        -4.49357        -1.65821
LJ             4.196        -1.33929        -5.98038
LJ           -1.6063         3.30518          5.6368
LJ           6.12223        -3.51196         1.99824
LJ          -4.20136         6.05412          4.9321
LJ           1.57727          3.3622        -1.46117
LJ           4.58655         4.67262        -5.76476
LJ         -0.193175        -4.90304         1.71195
LJ          -6.32486        -5.81344        -1.19252
LJ          -1.11112        0.472206       -0.190035
LJ            3.0256       -0.656637         2.93287
LJ            4.0059        -4.93456        -2.12278
LJ          -6.11893        -1.11642         -1.9922
LJ          -2.05753        -3.64366         -1.5419
LJ           6.33216        0.907394        -2.87007
LJ          -3.94733         4.69138       -0.677628
LJ          -2.56419          -4.082      -0.0731876
LJ          -1.93041        -3.12816         1.04663
LJ           0.30065        -5.79321         1.06168
LJ           2.40677        -1.45611        -6.07658
LJ          -2.98486        -1.20271         2.74649
LJ          -1.82042        0.241426        -2.03121
LJ        -0.0669287       -0.938519        0.469657
LJ          -5.11173         1.49575        -1.84871
LJ            3.9776         1.13075        -1.80869
LJ          -1.33942         2.24866         4.41909
LJ          -4.91638         4.70136        -1.11182
LJ          -1.94666        -1.52627        -6.17923
LJ           2.76352        -5.37953        -5.87116
LJ            6.3272         0.52168         -6.0253
LJ          -5.13705         1.51619         3.03392
LJ          -1.26609        -1.90166           1.206
LJ           5.32601        0.995419        -4.05949
LJ          -1.46783        -5.77781        -2.78248
LJ          -4.24308         3.35159       -0.358439
LJ          -5.06223         1.68763        -3.02746
LJ           5.28664        -2.05384        -4.72142
LJ          -1.56025        -4.45967         3.14464
LJ          -3.34044         2.35635         4.70478
LJ          -5.43657        0.979156        -6.34345
LJ           4.76977       -0.763254        -2.63291
LJ           4.29079         5.91151        -2.81765
LJ           6.45072        -5.94679        -5.37959
LJ          0.995177        -2.35867        0.865303
LJ          0.354734            2.06         5.78434
LJ          -2.95158        -5.86233        -2.22175
LJ          -1.15734        -6.21414         1.61657
LJ          -2.10502         -1.9428         5.40167
LJ           2.88952         5.41511         4.67455
LJ          -1.12461         3.23723       -0.954431
LJ           5.75329        -2.65006        -5.82282
LJ           1.38175        -2.05163        -5.40575
LJ          0.658331         3.58118        -5.42809
LJ           4.53262        0.377108        -4.04947
LJ           -6.1419        -4.76871        -2.12926
LJ          -3.60151        -1.57741         5.02302
LJ          0.973942        -4.28654         -4.2748
LJ          -2.73783         5.82504         4.62858
LJ          -5.56713       -0.953943         3.02364
LJ          -1.26019         3.37702        0.187913
LJ           6.33821          4.5078         -5.4555
LJ          -2.96091         2.90738        -1.48296
LJ           -3.0728         4.85681         5.93927
LJ          -4.98253         4.87341         1.54624
LJ          -3.06012        -5.14081        -4.11523
LJ           1.07671         1.24016         0.44916
LJ          0.396865       -0.313359        -4.64938
LJ           -3.1084       -0.867406        0.649118
LJ            1.1848       0.0981569       -0.512664
LJ           6.03477         4.95441        -4.41379
LJ           3.31487        -5.89359        -1.47056
LJ         -0.708218        0.553802          -3.754
LJ            4.4306        -2.95518        -3.16387
LJ          -3.59223         1.75422        -4.04099
LJ             5.665         4.95971         5.67849
LJ           5.02714        -4.87959        0.663613
LJ           5.54719        -3.58402        -4.07919
LJ           6.06874          4.6501         3.25197
LJ           2.83797        -5.00021         4.98757
LJ          -1.48324        -2.31891        -3.90363
LJ          -4.71464         2.35975         3.85772
LJ          -6.15763        -6.11337        0.192394
LJ          -2.18144        0.381043         3.73976
LJ          -1.11785           5.847         4.22123
LJ          -1.78024        -1.56308         1.96561
LJ           1.47939        -4.08749         2.16286
LJ            5.0486        -5.21185        -1.89369
LJ            2.6118         2.29215       -0.206863
LJ          -5.65934         5.87355        -3.54617
LJ            3.6286        -2.39311          6.0549
LJ          -5.69154        0.461916        -2.13062
LJ          -4.05868         2.56975        -3.31239
LJ           4.60409        -3.42432       -0.272836
LJ            1.9841        -3.49249         6.20902
LJ          -5.90504         5.07427         5.25518
LJ           3.74953        -2.38656        -5.57056
LJ          -5.81816         2.06539         3.66887
LJ           3.52987        -6.01856        -5.56011
LJ           1.87553        -4.29208         4.84263
LJ          -2.76298         5.95049         2.11996
LJ          -2.88197        -1.40645         4.08856
LJ           4.98037         -4.2733        -3.17771
LJ          -3.40956        -2.58298         1.11471
LJ          0.960462        -1.10997       -0.394103
LJ           3.95081        -4.61219        -6.02764
LJ          -6.34312         1.74077          2.5995
LJ           -5.3447        -6.38791       -0.922443
