108
#Comment!
LJ          0.885632        -2.78094         1.89903
LJ          -1.92761         6.15825        -5.89545
LJ           6.42031         3.07443        -3.91113
LJ            4.2768        -2.69213        -2.33773
LJ           4.59224       -0.538013         5.72127
LJ          -4.01884        0.826814        -1.18402
LJ           3.85163       -0.532046        -2.03296
LJ         -0.491419         5.30292         1.68382
LJ          -1.94215         1.38407        0.262079
LJ          -4.86072         5.18251         6.18281
LJ          -1.86119         1.41736         5.78024
LJ           4.92037         3.70482       -0.859811
LJ           5.15466        -4.00468        -4.53486
LJ           1.13343        -5.12235       -0.798936
LJ          -3.37506         2.58583        -4.44825
LJ           4.78763        -1.65798         4.79862
LJ          -6.10024       -0.900727        0.298164
LJ           2.95102        -1.43355        0.786537
LJ           1.29434        -4.43388       -0.118695
LJ           -2.9927       -0.183078         2.81161
LJ          -1.09759        -3.56542        -5.65164
LJ          -6.25492        -5.24371        0.449438
LJ           6.25293          2.9553         5.83476
LJ           2.43669        -3.94214        -5.44947
LJ           2.98558         4.43981         5.75462
LJ           2.92029          3.6769         1.11983
LJ          -3.12646        0.359252        -4.33242
LJ          -2.65435        -5.61303        -3.78337
LJ         -0.325342        -4.69858          1.4976
LJ         -0.624922        0.666266         2.72423
LJ           5.25514        -0.87371         -4.0724
LJ           1.42463         1.24682         2.26869
LJ          -2.15832         2.96465         -2.3418
LJ          -4.49004         3.05711          5.9055
LJ          -2.96904         -4.7855         5.27743
LJ          0.349763         6.22532         2.82035
LJ        -0.0654984        -1.36669        -1.96471
LJ          -3.08022        -1.69815         5.80341
LJ          -4.17477        -5.96795        -1.59221
LJ          -4.61202        -1.78837         5.91574
LJ          0.006728         5.32973         4.24037
LJ          -2.51757         1.08344        -2.69439
LJ          0.767197        -3.61307        -3.03558
LJ           2.48207        -4.67087         2.27109
LJ          -2.25041         1.98883        -2.17409
LJ            6.1283         6.43086         3.19453
LJ          -2.74801        0.826708        -5.20751
LJ           4.52564        -2.17723       -0.744492
LJ          -3.91165       -0.692843         1.99686
LJ          0.552743         -4.6666          4.6287
LJ           4.16503        0.434236         1.40853
LJ           -2.9391         -2.6901           2.039
LJ          -6.14201         3.42065       -0.957942
LJ          -4.61044        -1.85015        -1.29737
LJ           5.27304         1.71568       -0.609478
LJ           3.14489      -0.0152527        -6.37469
LJ          -6.04124        -6.15147        -5.47785
LJ          -1.21122        -6.17702        -1.27663
LJ           4.15369        -5.21529         -1.8654
LJ           5.64576        -6.08846         1.25613
LJ           3.70588      -0.0233712        -5.20371
LJ         -0.925039        -3.95226          3.6418
LJ           3.95266        -4.08388        -1.58605
LJ           0.15574        -5.90783         1.54837
LJ          -3.30523         3.87812         3.89949
LJ          -6.21769        -4.36524         6.46068
LJ           5.93984        -1.47236        -4.85515
LJ          -2.74249         5.06672         2.07348
LJ          -3.82453        -1.45781         4.47076
LJ          0.803341         4.80715         2.73353
LJ           3.78118         -1.2407        -3.58553
LJ          -1.93531        -1.91328         1.91845
LJ          -4.21243        -2.18064        0.378463
LJ          -5.88571        0.803759        -3.22533
LJ          -5.13915        -3.60922        -2.76003
LJ           3.10418         3.30545        -1.18483
LJ           1.98873        -2.40364        -5.27374
LJ          -2.06522        0.595814        -3.89973
LJ           2.48365         4.47955        -5.50934
LJ           3.46816        0.144258        0.600976
LJ            4.4575        -6.15294         0.61151
LJ          -1.96318        -4.99254         6.40119
LJ          -1.94345        -3.36591        -2.88861
LJ           3.27204          4.3488        0.177108
LJ          -2.60042         3.66146       -0.836973
LJ           5.00277        -6.21985        -5.02091
LJ          -2.26205          -3.886        -1.54368
LJ          -1.29411        -4.25137         1.00091
LJ          0.101481          6.0932        -1.17551
LJ           2.94801         2.53346       0.0769325
LJ           3.46622        -1.87137        -4.40959
LJ          -4.86479       0.0777426        -1.99627
LJ           2.12951        -4.39605        0.971451
LJ          -4.07799         4.25971         1.76792
LJ           6.11659        -4.54035        -2.70761
LJ           4.81194        -2.95572         1.14763
LJ           5.94812         1.97845        -4.21863
LJ           1.60393        -2.94215        -2.73672
LJ          0.896385        -6.38192         5.63444
LJ           1.18443         6.20637        -2.40115
LJ           5.86413        -5.41791        -5.56298
LJ           3.65195         3.40748         5.27812
LJ            4.0787        -1.38285         3.21296
LJ           1.05136        0.681076        -1.39689
LJ         -0.374442         3.94151        -1.80465
LJ          -5.00775        -4.66343          2.3843
LJ           6.10825       -0.907562         -3.2232
LJ           4.18104         3.40737       0.0840241
