108
#Comment!
LJ         -0.112555        -1.69727         1.51592
LJ          -2.45349        -5.10683        -5.78282
LJ           5.55514         2.30876        -3.90741
LJ          -4.75732        -4.55324       -0.153809
LJ           3.01239        -4.60627        -3.29531
LJ          -5.56868         2.07369       -0.437839
LJ           2.45604        0.847565        0.269728
LJ           3.23098         2.93497         2.36329
LJ          -4.73872        0.839682         3.53158
LJ           4.12413        -3.92839          4.1543
LJ          -2.29322         1.27998         5.39738
LJ           4.39241         3.93265        -0.84387
LJ          -4.30426        -4.64745        -6.23359
LJ         -0.397437        -6.42615        -2.19384
LJ           6.10473         3.37421        -3.33193
LJ           5.84935        -1.44842         3.62268
LJ          -5.83171         2.06236         2.22755
LJ           5.08498       -0.596197        0.991571
LJ           1.10611         -4.0346        -0.54094
LJ          -4.36984        -1.18254         2.79673
LJ         0.0549977         -4.4272        -6.30828
LJ          -5.68471        -6.41931         3.29316
LJ          -5.71929          3.1633        -4.73288
LJ            2.0068        -4.42756         -3.7538
LJ           2.41812         5.00216         3.93326
LJ          0.597601         2.20513        -0.28852
LJ          -3.85393         1.85919        -4.96288
LJ          -4.70608         4.60778        -1.41498
LJ          0.689253        -4.67045         1.33663
LJ          -1.99205        0.273425        0.897323
LJ          -5.75355       -0.278184        -5.74684
LJ          0.566158        0.695713          2.7862
LJ          -2.16919           3.347        -5.32484
LJ            5.5289        0.882098        -6.01892
LJ          -4.87984        -2.23007        -5.45085
LJ          -0.47821         4.69229          2.1382
LJ         -0.410906        -3.63291        -3.50325
LJ          -4.48833         -2.0994         4.79924
LJ          -4.39749         6.38413        -4.69259
LJ          -4.70172        -3.10493         6.01495
LJ          0.712786         3.37418          2.4736
LJ          -3.47806         1.17839        -2.05582
LJ            2.6818         6.41255        -3.85558
LJ           1.15861        -4.04598         3.10855
LJ          -5.15637         1.91157         -1.6909
LJ           5.34894        -6.36315         3.94433
LJ          -4.94475          2.6673        -4.00793
LJ           2.13546         -1.7208       -0.807937
LJ          -6.38314          3.6174        0.417726
LJ          0.934525         3.06891         6.34898
LJ          -6.13494         1.82236         3.29005
LJ          -2.02953        -2.77251         2.28475
LJ          -5.23982         4.50187         4.05187
LJ          -2.66586       0.0259072         -5.2684
LJ            4.1759         1.51888       -0.927063
LJ            2.3177       -0.371695         4.45697
LJ           -6.0411        -5.83145        -6.14979
LJ          -1.57836         5.04357       -0.994224
LJ           3.74755        -4.17406        -2.44873
LJ           4.52256        -5.03339        0.972889
LJ           2.89782        -3.19367        -4.84746
LJ          -3.01739        -1.91989         4.55221
LJ           5.46822        -3.99234         2.09652
LJ           1.64087        -5.31219         1.32302
LJ          -4.51166         3.13373         3.74916
LJ           3.54005         -4.7504         4.88513
LJ          -4.93355       -0.904961        -5.43896
LJ           -4.1528        -6.04321         4.87153
LJ          -4.40625       -0.388297         4.81243
LJ           2.63114         2.79333       -0.208942
LJ           6.20112        -1.92011       -0.633168
LJ           -1.6165        -1.67543         2.73841
LJ          0.116408        -2.20484       -0.737819
LJ          -6.05671        -1.29676        -1.84163
LJ           5.99651        -6.31636        -2.95018
LJ           5.60263         4.09699        -1.84297
LJ           1.81274       -0.694999        -3.97849
LJ           1.90245         0.90569         6.21033
LJ           2.61703        -5.52391        -5.88188
LJ           4.21772         1.34896        0.669034
LJ            4.4815        -6.05201         1.93829
LJ          -2.78057        -4.97332          5.3907
LJ           -1.4252        -2.28304        -3.22686
LJ           4.97762         5.80401         1.88265
LJ           1.25108         6.08155        -4.35287
LJ           4.84942        -3.63179        -4.66354
LJ          -2.14598        -4.39971        -2.71025
LJ          -1.83805        -4.63969        -1.46397
LJ          -1.06705        -4.93187        -2.54371
LJ            4.0884         2.44426         1.59428
LJ           3.61123         -2.2046        -3.24726
LJ          -4.99674        -2.02954        -1.17283
LJ           6.01419        -4.72901        -1.32813
LJ             -1.67         5.22117      -0.0185278
LJ           -5.3792        -5.92593        -4.27504
LJ           2.28597        -3.76548        0.565782
LJ          -4.92347        0.546322        -3.54968
LJ           1.49928        -3.41315        -2.22596
LJ           3.82403         6.36812         3.44617
LJ           1.30113         5.92917       0.0669882
LJ           5.41167        -3.74924        -3.72785
LJ           3.62345         4.25293         4.93696
LJ           2.59677        -1.62321         3.84184
LJ           1.85716         2.94271        -2.25091
LJ           1.39969         4.38897       0.0221144
LJ          -5.71374        -3.48539        0.912021
LJ          -5.95566        -3.91749        -4.94049
LJ           3.14714         2.92231        -1.51907
