108
#Comment!
LJ         -0.411159        -1.43325         1.41693
LJ          -2.60356        -4.74814        -5.68783
LJ           5.50933         2.31582        -3.81433
LJ          -3.72705        -4.96108        0.383395
LJ            2.7839        -5.57006        -2.38595
LJ          -6.07123         2.39809      -0.0821769
LJ           1.97748         1.36438         0.66196
LJ           3.94087         2.38245         2.67232
LJ          -5.49367         1.03057         4.30469
LJ           2.92084        -2.91472         3.95172
LJ          -2.41208         1.23807         5.30586
LJ           5.18186          4.4201        -1.55619
LJ          -3.63224        -5.11517         6.25466
LJ         -0.896828         6.23842        -2.58726
LJ           5.12413         3.35196        -3.17265
LJ            6.2187        -1.40931         3.39865
LJ          -5.64986         2.87411         2.45827
LJ            5.6146       -0.445196         1.02198
LJ          0.774394        -4.59622        -1.59902
LJ          -4.75889        -1.74938         2.90652
LJ          0.347957        -4.66063         6.44832
LJ          -5.51381         6.21747         4.05899
LJ          -5.79039         3.42744        -4.37963
LJ           2.34008        -4.87307        -3.84112
LJ           2.78855         5.23957         3.76429
LJ          0.132803          1.9631       -0.674239
LJ           -3.6959         2.57438        -5.54695
LJ          -5.33075         3.95652       -0.811455
LJ          0.961385        -4.66987         1.33394
LJ          -2.28575        0.520728        0.347897
LJ          -5.22569       -0.155466        -6.21096
LJ          0.342291        0.550313         2.91848
LJ          -2.19617         3.42721         -6.0915
LJ           4.80681        0.307566        -5.73071
LJ          -5.39288        -1.41975        -5.08641
LJ         -0.654019         4.24758         2.07228
LJ         -0.845377        -4.12221         -3.8386
LJ           -4.8854        -2.14106         4.65525
LJ          -4.49022         6.23545        -5.53078
LJ          -4.61792          -3.462         6.19142
LJ          0.468675          2.7911          1.6748
LJ          -3.76561         1.24487        -1.78443
LJ           3.11887         6.00426        -4.39183
LJ           1.08981        -3.81539         3.71356
LJ          -5.78859          1.9219        -1.72142
LJ           5.05562        -6.42766         3.92188
LJ          -5.19013         2.58719        -3.25841
LJ           1.50373        -1.83184       -0.780763
LJ           5.94181         4.71928     -0.00664632
LJ           1.05929         1.70379        -6.15337
LJ          -5.48339         2.10763         4.05061
LJ          -1.92341        -3.13247         2.25377
LJ            -5.361         5.16176         5.19046
LJ          -2.20165         0.57579        -6.30151
LJ           3.81468         1.30333       -0.914165
LJ           1.95592      -0.0170081         4.27008
LJ          -6.02647        -5.69353        -6.28091
LJ          -1.56996         4.53583        -1.39262
LJ           3.32895        -3.85622        -3.17697
LJ           4.36443        -4.98683          1.4383
LJ           2.55392        -4.23724        -4.55611
LJ          -3.73408        -1.37617         4.79012
LJ           5.71366        -4.20013          3.0719
LJ           1.98957        -5.15939         1.11326
LJ          -4.51105         2.54608         3.86068
LJ           2.89243        -4.78371         4.28666
LJ           -4.3382        -0.58152        -5.57879
LJ          -4.49891        -5.53948         5.62947
LJ          -4.44721       -0.219169         4.77457
LJ           2.05631         2.09014       -0.614586
LJ          -5.87373        -2.01224        0.201464
LJ          -1.45131        -1.62073         3.12655
LJ          0.468627        -1.48933        -1.21418
LJ          -6.21773        -1.83649        -1.47417
LJ           5.53781         5.84981        -3.19083
LJ           6.12466         4.23198        -1.91559
LJ           1.51557        -0.17165        -3.62021
LJ           2.99233        0.995522         5.47319
LJ           2.64754        -4.75258        -5.95967
LJ           4.55263         1.96926        0.859325
LJ           4.50081        -5.67402         2.21287
LJ          -3.00933        -4.91546         5.10207
LJ          -1.22662        -2.09292         -3.2887
LJ           5.46711         6.00105         2.33337
LJ           2.36156         -6.1803        -5.21817
LJ           4.98446        -2.85198        -4.44981
LJ           -2.4827        -4.27526        -2.99514
LJ          -2.73868        -4.61099        -1.90854
LJ         -0.656414        -4.96226        -3.30753
LJ           5.06056         1.83569         2.04199
LJ           3.60996        -2.37981         -3.1259
LJ          -4.98522        -2.63677       -0.879682
LJ          -5.82856        -4.68975         -1.7318
LJ          -1.05531         5.57673      -0.0448302
LJ          -4.96315        -6.22982        -4.53017
LJ           3.08811         -3.8941         1.28329
LJ          -4.92671        0.117602        -3.15052
LJ           1.48114        -3.35842        -1.52762
LJ           4.69144         6.32596         2.84453
LJ           1.26869         5.45938        0.982412
LJ           5.22804        -3.34017        -3.36115
LJ           3.53985         4.52976         4.80112
LJ           2.28112        -2.12935         3.57966
LJ           2.20511         3.53208        -2.36751
LJ           1.35826         4.69503        0.126893
LJ          -5.91297        -3.19747        0.475361
LJ          -5.74164        -4.73146        -5.42165
LJ           2.99829         2.86372        -1.64161
