108
#Comment!
LJ          -1.05377       -0.879675         1.26071
LJ          -3.11077         -4.0586        -5.67119
LJ           5.23268         2.84165        -3.30193
LJ           -1.5192        -5.82142         1.53254
LJ           2.24129         5.47605       -0.649974
LJ           5.26651         2.30676        0.828664
LJ          0.735325         2.61714          1.2488
LJ           5.22112         1.59771         3.05501
LJ           6.10176         1.74072         5.92093
LJ           2.00365        -2.88938         4.84565
LJ          -3.20842         1.37207          4.5575
LJ           6.19787         5.59558        -2.96055
LJ          -2.32525        -6.07774          5.2617
LJ          -1.96631         5.74265        -3.44016
LJ           3.26519         2.95383        -2.98532
LJ          -5.72335        -1.46947         2.94711
LJ          -5.23629         4.55133          3.1208
LJ          -6.15614      -0.0846233         1.13612
LJ          0.361881        -5.48557        -3.45621
LJ          -5.72313        -2.78008         3.42884
LJ           1.00368        -5.15446         6.09481
LJ          -5.15579         5.54754         6.16361
LJ          -6.22011         4.11861        -3.77421
LJ           2.92926         6.09318        -2.70623
LJ           3.70661         5.75358         3.30487
LJ         -0.757448         1.44479        -1.46166
LJ           -3.1371         4.14341         5.99985
LJ          -6.13194          3.1795      -0.0737683
LJ           1.69764         -4.6926         1.28306
LJ          -2.93149         1.05933       -0.849518
LJ          -3.83059      -0.0848389         5.82237
LJ        -0.0758976        0.221762          3.2334
LJ          -2.49252         3.54334         5.31235
LJ            3.2609       -0.928284        -5.10992
LJ            6.3919       0.0690413        -4.34105
LJ         -0.972071          3.2486         1.89882
LJ          -2.06262        -4.48966        -4.91667
LJ          -5.35843        -1.81351         4.24926
LJ          -4.14203         6.16534         5.78536
LJ          -4.12308        -3.66636          6.3134
LJ          0.137264         1.55142      -0.0263578
LJ          -4.45601         1.40493        -1.22646
LJ           3.82604         5.36719        -5.75222
LJ           1.08603        -3.29301         4.99664
LJ           6.03716         2.12991        -1.84286
LJ           4.36746          6.4136         3.78662
LJ          -5.74595         2.14112        -1.22766
LJ          0.128118         -2.2676       -0.816588
LJ           4.65219        -5.90337        -1.05885
LJ           1.33765        -1.23422        -5.24429
LJ          -5.46919         1.98546         6.03627
LJ          -1.65759        -3.79967         2.23552
LJ           -6.1782        -6.14399        -5.77412
LJ         -0.690819         1.49029         5.08965
LJ           2.94805        0.934861       -0.855022
LJ           1.14383        0.737074         3.84136
LJ          -6.15985        -6.23848         5.45962
LJ          -1.50911          3.5254        -2.19004
LJ           2.34909        -3.13997         -4.7606
LJ           4.48215        -5.35023         1.76286
LJ           2.30428        -5.37969         -5.3612
LJ          -5.54031        -1.17577         5.31542
LJ           6.19959        -4.70356         5.13672
LJ           2.72027        -4.70925        0.737467
LJ          -3.40074         1.69478          3.5365
LJ            1.4904        -4.70504         2.95786
LJ          -3.28557        0.523543          -6.151
LJ          -5.08025        -4.78655        -5.60474
LJ          -4.75141        0.811839         4.63521
LJ          0.894833        0.543258        -1.45445
LJ          -4.02016        -2.47534         1.70403
LJ          -1.10051        -1.59111         3.86453
LJ            1.3246       0.0390738        -2.22064
LJ           6.29994        -2.86176        -1.58664
LJ           4.62835         4.13987        -3.51319
LJ          -5.05062         4.30857        -2.32879
LJ          0.880763        0.909892         -2.7866
LJ           5.27089        0.923635         4.33046
LJ           2.67414        -3.36347        -5.70778
LJ           5.27952         3.42602         1.83775
LJ           4.51199        -4.81365         3.16704
LJ          -3.68342        -4.84738         4.69892
LJ         -0.788945        -1.73054        -3.42332
LJ          -4.96549         5.92992         2.43629
LJ           4.92215         -4.6857         6.11372
LJ           5.24606        -1.42881        -3.50774
LJ          -2.32235        -3.78421        -3.79793
LJ          -3.95129        -4.64491        -3.45479
LJ          0.121853        -5.82096        -4.95076
LJ          -5.61197        0.326776         2.34427
LJ           3.77582        -3.11655        -3.04441
LJ          -5.39427        -3.74483      -0.0761649
LJ          -4.91172        -4.74373        -1.90449
LJ          0.282773         6.25929       -0.152016
LJ          -4.10133         6.03868        -5.36268
LJ           4.18877        -3.50724         3.06791
LJ          -4.92795       -0.771173        -2.28496
LJ           1.25144        -3.20711       0.0537052
LJ           5.24296         6.36591         2.66964
LJ           1.22123         4.21539         2.51126
LJ           4.50659        -2.19509        -2.98585
LJ           3.26435         5.13397         4.53623
LJ         -0.207375        -1.21863         1.71616
LJ           3.27473           4.249        -2.23597
LJ           1.19736         5.59856        0.770806
LJ          -5.88151        -2.65967        0.556274
LJ          -5.04182        -6.12232        -5.21166
LJ           2.35832         3.11145        -2.15121
