108
#Comment!
LJ          -1.20477        -2.04269         1.21848
LJ           3.99189         -1.5644       -0.217972
LJ          -4.43886         2.60371       -0.518607
LJ          -2.58058         4.64845        -2.17108
LJ          -3.37968         4.40057         2.54273
LJ         -0.205636         -2.1807         1.66554
LJ         -0.878886        -4.27445        -1.64883
LJ          -4.45969        -4.63779         1.04974
LJ           1.55655        -3.90236        0.268306
LJ           5.24318        -4.36175        -4.42213
LJ           3.37487         5.96152        -2.28657
LJ           4.84048         -4.1616       -0.953561
LJ          0.510405        -2.42672         6.44301
LJ           1.39469        -5.01486        -1.22363
LJ          -4.70745          3.7393         6.41916
LJ           4.32407         2.77972         4.06115
LJ           4.02965        0.113346        -4.55895
LJ          -4.45984         1.01733         1.16964
LJ           1.07122         1.96445        -4.87222
LJ           -2.0395        -4.70247         4.71228
LJ          -3.64152        -3.46173         -4.6696
LJ           0.30474        -6.36545          4.9908
LJ          0.671205        -1.46949         5.93224
LJ          -5.38505        -5.55238          5.4408
LJ          -4.64561         4.34022        -5.13065
LJ          -6.23756        -1.47046      -0.0540849
LJ          -2.02735         -5.5666       -0.788842
LJ           5.22709         5.73995       -0.684276
LJ          -3.43448        -1.29892         2.05516
LJ          0.616757         4.93404          -2.335
LJ          -3.21113         1.16524        -2.26007
LJ           1.56052        -3.97207       -0.795941
LJ           3.80574        -1.32464         2.64107
LJ           -4.3218         1.14307         5.69434
LJ          -5.18776        -1.46168        -3.66324
LJ           4.69744         1.55282         4.49005
LJ           -5.5147        -0.32198        -3.82815
LJ            5.4559        -6.35067        -4.09534
LJ          -4.43774          3.9655        0.841244
LJ          -4.11435         -3.2319         -6.2057
LJ           3.69013        -5.12861        -1.40844
LJ           6.28249        -5.46345        -1.55996
LJ          -3.60679        0.243014        -5.71291
LJ          -4.59634        -5.67564        -2.12449
LJ           5.34385         1.17316         5.96167
LJ          -3.78938         4.41541        -4.24946
LJ          -5.45895        -4.73183        0.785001
LJ          -4.48782       -0.729106         1.24773
LJ          -1.59942         5.39554        -2.25328
LJ           3.48258        -2.63499        -6.23853
LJ          0.266633        0.778448        -4.76878
LJ          -5.22175        -4.67898       -0.244477
LJ          -1.86966        -1.02992         3.84728
LJ           -2.5621         3.63165      -0.0638882
LJ          -2.48086         4.80803         1.28732
LJ            3.7706         4.36218         1.20949
LJ          -4.90187      0.00377489        -4.49936
LJ          -5.26047         5.01571        -4.12678
LJ         -0.541695         2.38681       -0.773916
LJ          -5.98752         6.14206        -5.83351
LJ         0.0617394        -2.60466       -0.755233
LJ          -5.62073          3.9573        -5.52489
LJ           3.32171        -4.69172        -2.31072
LJ           5.74543           2.972        -2.96694
LJ          -5.91252         3.39827       0.0396824
LJ          -2.11663        -4.71065         5.82892
LJ           6.20702         4.99407         5.93394
LJ         -0.894422         5.59795         5.22668
LJ            5.8143       -0.500732        0.141108
LJ          -6.18741         5.43385         4.84198
LJ          -5.76653        -1.34778        -5.73234
LJ          -4.52117        -3.90946        -5.66777
LJ           1.18035        -2.81204         5.73115
LJ            1.4627        -1.56475         5.27768
LJ         -0.793508        -6.15942        -5.62278
LJ           6.42096         4.38212         2.53621
LJ          -3.23293         4.19914         3.96081
LJ          -6.18395         4.76322        -4.91269
LJ        -0.0252064         4.00264         2.43135
LJ           4.31272        -4.72551        -6.23754
LJ          0.244501        -5.89412        -5.44155
LJ           4.04272          3.9493         3.11528
LJ            5.6848        -0.89211         3.15979
LJ           6.26758        -1.96479         5.78264
LJ           1.59301        -4.88254        -4.54626
LJ           2.45461         6.22777        -1.22758
LJ          -1.86456         3.11263         5.62958
LJ            1.0221        -1.57525         4.07726
LJ           6.20385         -6.3722        -3.45678
LJ           4.62766         5.28823          5.8612
LJ           3.91574         5.98871       -0.694846
LJ           3.83408        -2.98146         -1.5195
LJ          -5.13227        -4.83842        -1.95331
LJ           3.09025        0.930163        0.519351
LJ           4.11483        -3.61606        -4.95915
LJ           1.68338        0.784292        -1.36375
LJ          -5.74577        -6.02265         4.29685
LJ          -2.65974         3.24943        -4.46109
LJ            5.1086        -3.08637         1.92693
LJ           6.19393         4.02016        -6.32303
LJ           1.09459        -1.28854        -4.74539
LJ         -0.231275        -4.98333        -2.61647
LJ          -5.49634         4.89459         6.34633
LJ           4.00224        -3.06584        -3.77697
LJ           2.38883        -1.83368         1.82999
LJ           2.17781         2.23378         1.64741
LJ           4.72678       -0.525747        -6.23498
LJ          -2.17457       -0.617743         6.32419
