108
#Comment!
LJ          -1.67918       -0.541386         1.00257
LJ          -3.24061        -3.89555        -5.66627
LJ           5.12282         3.03939         -3.1419
LJ         -0.943738        -6.03985         1.83239
LJ           2.09041         4.99151       -0.199812
LJ           4.84634          2.0467        0.983076
LJ          0.325328         2.93246         1.35837
LJ            5.6103         1.66638         2.61999
LJ           5.88912         1.98571         6.33178
LJ           2.07032        -2.80327         5.05569
LJ          -3.34397          1.2602         4.73338
LJ           6.45955         5.86414        -3.36365
LJ          -2.03838        -6.29679         5.00305
LJ          -2.24194          5.6164        -3.66211
LJ           2.85764         2.85557        -2.96394
LJ           -5.4036        -1.59519         2.91473
LJ          -5.12249         5.01574          3.2801
LJ          -5.82754       0.0384053         1.23809
LJ          0.363903        -5.65564        -3.67446
LJ          -5.98341        -2.86573         3.64839
LJ           1.18222        -5.27787         6.01119
LJ          -5.04731         5.45381        -6.12563
LJ          -6.34532         4.30656        -3.58602
LJ           3.08213         5.57188        -2.40162
LJ           3.68385          5.6732         3.00305
LJ         -0.953446         1.30498        -1.64321
LJ          -2.92375         4.54533         5.59015
LJ          -6.21773         3.08488      -0.0124003
LJ            1.8826        -4.69441         1.28922
LJ          -3.12851         1.20831        -1.17275
LJ          -3.42481      -0.0140279         5.62756
LJ         -0.130154        0.145735         3.34234
LJ          -2.64345         3.57785         4.96481
LJ           2.85117        -1.25614        -4.94666
LJ           6.09535        0.453559        -4.14547
LJ          -1.03909          2.9847         1.84768
LJ           -2.4535        -4.53799        -5.17251
LJ          -5.50825        -1.67968         4.07784
LJ          -3.97568         6.18929         5.45022
LJ          -3.85824        -3.50134         6.30065
LJ          0.120521          1.2384       -0.460739
LJ          -4.65794         1.46747        -1.07848
LJ            4.0086         5.21205        -6.10811
LJ          0.818443        -3.28919         5.37166
LJ           5.88097          2.2237        -1.86987
LJ           4.49375        -6.28149         3.83119
LJ          -5.98618         2.00199       -0.682018
LJ         -0.192548        -2.41646       -0.823309
LJ           4.31676        -5.31003        -1.34075
LJ           1.42401        -2.00482        -5.00408
LJ          -5.60869         1.86489        -6.37951
LJ          -1.58762        -3.97384         2.23014
LJ          -6.41502        -5.68319        -5.36346
LJ         -0.259118         1.69752         4.75438
LJ           2.70653        0.844516       -0.845728
LJ           0.87268        0.913656         3.69971
LJ          -6.15017         6.45472          5.1567
LJ          -1.49153         3.26325        -2.39671
LJ           1.98022        -2.83209        -4.69225
LJ           4.59551        -5.55334         1.88335
LJ           2.25843        -5.62444        -5.61259
LJ          -5.99218        -1.24846         5.36385
LJ           6.35558        -4.88039         5.67791
LJ           2.92247        -4.58806        0.644127
LJ          -3.24518         1.63665         3.02991
LJ            1.1277        -4.67195         2.59356
LJ          -3.08531         0.75819        -6.40979
LJ          -5.24342        -4.83553        -5.19817
LJ          -4.81897         1.13587         4.63362
LJ          0.505388        0.248592        -1.59003
LJ          -3.56413        -2.61285          2.0722
LJ          -1.00355        -1.58047         4.04682
LJ           1.63042        0.367209        -2.62418
LJ           6.13261        -3.04935        -1.93069
LJ           4.42215         3.65544        -3.54036
LJ          -4.62811         4.32824        -2.45028
LJ          0.704169         1.15741        -2.47677
LJ           5.82245        0.635329         4.56124
LJ           2.79724         -3.1659        -6.06853
LJ            5.3634         3.89679         2.27615
LJ           4.49605        -4.55612         3.36152
LJ          -3.84061        -4.85571         4.62693
LJ         -0.674235         -1.6383         -3.4577
LJ          -4.32706         5.87992         2.47656
LJ           5.55284         -4.2665         5.70959
LJ           5.27682        -1.10598        -3.21516
LJ          -1.88086        -3.52724        -4.26272
LJ          -4.20991         -4.7701        -3.87525
LJ           0.20734        -6.09489        -5.64944
LJ          -5.06426      -0.0995701          2.3581
LJ           3.89768        -3.28053        -3.05434
LJ          -5.55115        -3.95363        0.160317
LJ          -5.10841        -4.80192        -1.74754
LJ          0.675048         6.40732       -0.143283
LJ          -3.73167         5.69148        -5.63003
LJ           4.41376        -3.39268         3.56609
LJ          -4.92964       -0.997759        -2.05929
LJ           1.16022        -3.12523        0.458077
LJ           5.29312         6.40036         2.70693
LJ           1.20697         3.89314         2.85812
LJ           4.25855         -1.8974        -2.93363
LJ           3.22876         5.29101         4.47406
LJ         -0.428689        -1.13733         1.43987
LJ           3.53571         4.27839        -2.20194
LJ           1.12251         5.85541        0.935511
LJ          -5.74082        -2.66078        0.886806
LJ          -5.15346         -6.3426        -5.09209
LJ           2.19291         3.32282        -2.27747
