108
#Comment!
LJ          -5.93541        -4.21556         4.71645
LJ           2.01716       -0.840865         2.24257
LJ          -1.01314         1.62554       -0.116453
LJ          -2.93585         3.69884         1.29828
LJ          -5.48315         3.49717        0.145437
LJ          -1.78453        -5.31291           3.858
LJ          -3.15129         5.89345        -1.16339
LJ          0.840429         -1.8412        -1.34804
LJ            3.7761        -1.22591        -1.66098
LJ            2.9541        -1.26887        -2.95813
LJ           3.02665         3.75018        -3.04047
LJ           5.56864          6.2767        0.934595
LJ          0.335375        -6.05952        -5.09377
LJ         -0.332739        -1.82737        -3.78451
LJ           3.78787         5.77949        -5.14442
LJ          -1.89278          5.1845         1.52983
LJ         -0.406661         2.96112         4.10569
LJ          -2.64359         4.04817         5.01311
LJ           3.44628         5.05501        -5.81722
LJ          0.801589        -3.95151         3.13687
LJ          -4.00977        -2.59236         5.64379
LJ           2.81822         6.00263          4.2388
LJ          0.495351        -2.25254         5.05298
LJ           1.17252         1.34263         5.01056
LJ          -4.06271        -6.32711        -3.51314
LJ          -5.84083       -0.483441        -2.20053
LJ           1.08984         5.99693          1.0518
LJ           3.26801        -5.11663        -3.03061
LJ          -2.73967        -4.08359         2.03817
LJ          0.546084         4.54215       -0.608973
LJ           1.54673         2.04195         6.43873
LJ          -6.09743        -6.31075        -4.11347
LJ           3.53358        -4.38158         2.35067
LJ          -4.18063        -1.28854         6.35826
LJ           -5.2356        -1.05924         6.40576
LJ            5.3007         5.28223         4.11233
LJ           6.13337         3.49058       -0.113419
LJ           4.13853        -1.43443        -6.37905
LJ           -5.4278        -5.63075        -1.25173
LJ           0.90628        0.473272        -3.35567
LJ           6.03984        -1.76917         4.86167
LJ           4.23602        -4.67183         -2.2579
LJ           1.66179          1.3267        -5.17729
LJ          -6.02191         4.47469       -0.484136
LJ          -5.48282       0.0139523         1.14705
LJ          -1.03295        -3.61303         -1.3128
LJ           3.08407         4.74777          3.2706
LJ          -4.22834       -0.494805         -2.9878
LJ          -2.23454        -4.45877       -0.316647
LJ           5.11061        -5.59183        -4.69965
LJ           -1.4484        -1.02196         4.13798
LJ           4.37478       -0.098862        -4.21782
LJ           2.92288        -3.38334         6.23842
LJ         -0.157967          5.8232       -0.565748
LJ            -2.807        -5.19414        -2.26523
LJ          0.674001       -0.149805      -0.0604223
LJ          0.710074         1.62965        0.316703
LJ           6.38003         -4.9231        -5.69502
LJ          -2.96173         4.68194        -4.98949
LJ          -5.03574        -4.81311        -1.92535
LJ           4.59401         3.89078         2.04442
LJ          -5.22282         4.04937        -2.33717
LJ          -5.84045        -5.29376        -4.04501
LJ           5.23373         3.99428        -5.15052
LJ         -0.294209         3.50318         1.43582
LJ        -0.0914556        -4.73077          2.7161
LJ           1.64006         4.74946         4.68574
LJ          0.969483        -1.15241         2.78756
LJ          0.141044        -2.07149          1.4343
LJ           5.21459         5.61786       -0.135752
LJ          -5.21344        -5.25414        -3.21032
LJ          -4.03047        -5.47427         -2.1627
LJ           0.73545        -1.98612         6.23853
LJ           5.87666        0.711147         4.94012
LJ          -0.20651         4.36134        -4.29192
LJ          -6.09715         2.25113       -0.843133
LJ          -5.55818        0.971585         5.49065
LJ          -5.70994         4.92579        -1.86701
LJ           2.96534       0.0577809         3.57057
LJ           5.03525        0.572585        -3.73414
LJ         -0.324002         5.30527        -3.54354
LJ           1.89361         5.14462         6.04438
LJ          -4.49555      -0.0551993        -1.29095
LJ           4.21238         3.52514          3.6335
LJ           2.35918        -3.92359        -3.00303
LJ         -0.513402         4.57258       -0.832884
LJ          -1.31802        -4.87116        -2.05788
LJ          -2.18205        -2.36362        0.672601
LJ          -6.18973        -2.51215         2.58957
LJ           3.48394         5.58464        -0.57155
LJ           3.84317        -5.75782         2.12463
LJ           3.06633        -4.11903         1.29987
LJ          -4.38142         5.36961        -1.62044
LJ          -4.19936         2.99427         4.03419
LJ           5.92545        -5.95611         6.38475
LJ           6.23146       -0.862566       -0.770644
LJ           4.87712         4.36052        0.386865
LJ          -2.44389         3.30894        -5.10013
LJ          -4.47787         4.57025         6.32465
LJ           2.09828        0.820674        -2.36853
LJ           1.43918        -3.10494         5.50895
LJ         -0.329361        -4.14484        -4.79597
LJ          -6.14138         1.79116        -6.25881
LJ           1.18871       -0.696742         1.55334
LJ          -2.22499        -3.06396          1.9737
LJ         -0.211484         5.48933         4.02802
LJ          -4.06602         -0.8772         2.68752
LJ          -2.30036        -3.24679        -2.75088
