108
#Comment!
LJ          -5.92859       -0.806926       -0.294248
LJ          0.322844        -3.35217         1.02705
LJ           5.43367        -5.19118         2.99252
LJ           4.42168         5.59555      -0.0500597
LJ          -3.21419          -4.713         3.36129
LJ          0.122459         3.94761         5.32947
LJ           5.21021         3.17041        -6.20208
LJ          -5.74383         2.89382         2.94752
LJ          -2.77333          -2.419        -2.34839
LJ          -5.64821         5.66988        -6.01912
LJ         -0.213403        -1.41355        -6.44058
LJ          0.486602        -3.54682          5.9771
LJ          -5.94422        -4.22689        -1.67396
LJ           -4.0441        -2.47873         5.23028
LJ          -4.52491         -6.1012        -3.92063
LJ         -0.445186        -6.43946         5.47871
LJ          -6.14481        -3.73219        -3.98645
LJ           4.05139         3.75371         5.11594
LJ           3.66963      -0.0824302        -0.59283
LJ          -1.41864         5.95174       -0.292644
LJ           6.05467        -6.09435         4.24516
LJ          -4.46573         3.61161      -0.0723899
LJ          -3.92364       -0.920731         -1.7192
LJ           4.83346         2.01164        -5.08823
LJ           2.28856         2.69723         -6.3544
LJ          -4.24521        0.532197         4.90437
LJ           2.01153        -1.21147        -2.93943
LJ          -4.04709         2.04638         4.57979
LJ           1.32701        -3.70489         1.81387
LJ          -1.82471        -2.90342        -1.94186
LJ           0.19024         3.25821         6.25998
LJ          -6.05627        -1.00252        -3.77573
LJ           4.32687        -4.10084        -2.55729
LJ           5.23798        -2.48815         1.38984
LJ           5.55766        -4.78592         5.17423
LJ          -6.26534        -1.64758         3.05265
LJ            2.0721       -0.534787         5.64073
LJ          -2.27991        -3.81255         4.28214
LJ          -4.84434         3.70325         1.20972
LJ         -0.491579         1.44562         3.37349
LJ           -2.4204        -5.84961        -1.29527
LJ          0.649787         1.05489       -0.281012
LJ          -1.10103        -2.22141        -3.49463
LJ            6.4459         2.79929         1.49474
LJ          -1.74327        -2.10062         3.36847
LJ          -1.66598         2.03164        -2.22088
LJ           5.84903         6.15271        -5.42544
LJ          -4.52328       -0.526843        -3.81171
LJ           3.57877        -6.08475        -1.74222
LJ           2.95137          6.3565         3.17697
LJ          0.313657         2.28779        -1.63206
LJ           6.20618        -4.84773         3.63909
LJ          -1.85525         2.96667         1.85599
LJ           5.61418         0.55951         3.14612
LJ          -4.10897        -1.51054         4.06793
LJ           2.05622         4.70726         -6.1002
LJ           5.57326         5.22571         4.41058
LJ          0.278389         1.21587        -1.64408
LJ          -2.76376        -3.69599        -4.18952
LJ           2.87668        -5.47116         4.75545
LJ          0.521773         3.03911         1.68502
LJ           1.55339         4.16106        -2.94687
LJ          -4.29194         1.99745        -1.14243
LJ           1.56637         3.59837         4.09924
LJ         -0.855212         1.48924        -1.02825
LJ          -1.81378         1.62922        -5.23375
LJ          -4.61558         1.65746         6.12463
LJ           1.58158        -5.98995       -0.507146
LJ          -1.45711        -4.30834        -5.27462
LJ          -4.41361        -1.55004        -5.03513
LJ           4.20818        -2.53685         2.45499
LJ          -5.20585       -0.784523        -1.30591
LJ          -1.15503        -4.70339        -1.44487
LJ          -4.02259        -4.93202         4.40418
LJ          -3.71205        -5.07621           6.169
LJ         -0.797697        -0.14585         4.26608
LJ          -4.52435         5.96731        -4.64089
LJ           4.59726         -4.3643        -3.85587
LJ          -3.03827        -5.12372        -1.20032
LJ           -0.2238        -5.07059        -5.64598
LJ          -1.66568         1.26246         5.08477
LJ          -5.28573         4.23173         5.99675
LJ          -5.62849         -2.2679       -0.982496
LJ          -6.16268         3.63518         3.43345
LJ         -0.150262        -4.66528        -1.19266
LJ            -5.031          2.3331         4.97575
LJ           3.48792         -4.6111         -2.1961
LJ          -3.82706        -3.94997         2.47631
LJ            5.2611         6.37789        -2.69342
LJ           5.04596        -1.97137        -6.04649
LJ          0.821285        -2.30831        0.994736
LJ           1.11033        -4.59043        -2.87728
LJ           3.32896         6.02451         5.51986
LJ          -1.63733        -6.37762         3.73344
LJ          -5.20904        -1.22983         1.02713
LJ          -4.37432         5.61607        -1.02743
LJ          -2.31807        -2.71678         -1.0547
LJ           2.79724        -5.21637        -2.29652
LJ          -1.50131         3.14742        -4.94239
LJ            -5.945         4.38384        0.674278
LJ          -4.01593        -3.63807         4.77311
LJ           1.13145         4.36598         6.25308
LJ         -0.621379        -1.44552         3.78016
LJ          -6.14861        -1.00312         5.57127
LJ          -3.73508        -1.85381       0.0514721
LJ           1.57253         5.82827        -3.07121
LJ          -4.14201        -1.89709         1.41363
LJ          -3.96194        -3.75108        -3.73448
