108
#Comment!
LJ          -4.28358       -0.174087       -0.571866
LJ          0.628362        -3.55927        0.659977
LJ           2.88869        -4.10182         1.74381
LJ           3.46204        -3.63102        -1.49514
LJ          -1.72435        -3.78497          4.3793
LJ           1.94437          2.2015         4.53556
LJ           4.15854         2.80491         4.53153
LJ           5.83086       -0.804502         2.03364
LJ          -2.74168        -1.26086          1.7056
LJ           1.63631         6.38963        -1.81234
LJ           -0.7285        -1.55318        -1.38441
LJ          -0.10165        -4.19212        -3.98308
LJ          -3.33212       -0.665778        -1.35389
LJ          -4.90958        -2.56827         4.58712
LJ          -3.37727         4.63167         6.18454
LJ          0.389174        -4.31089         5.00123
LJ           4.18158        -4.02359        -4.15487
LJ          -6.44547         2.79699         5.97417
LJ           -4.2623        0.792873      0.00956542
LJ         -0.605735        -4.88705        0.453943
LJ           1.12437        -3.86132         5.72795
LJ          -4.05574         2.73012        -2.15434
LJ          -5.67995        -1.38081        -2.19552
LJ           4.01918         1.85207        -6.01641
LJ          -1.19107        -1.59154         6.06301
LJ          -5.64191        0.826748         3.86057
LJ          -2.40858        -2.41712       -0.501979
LJ          -3.67439       -0.275215         5.38784
LJ          -1.06592        -3.65221       -0.738353
LJ          -1.48714        -3.04518        -1.42366
LJ           1.85588         2.19049         5.62619
LJ          -5.89622         1.62317         6.15766
LJ           5.19709        -2.74491        -3.68368
LJ          -5.95382        -3.96267       -0.745174
LJ           5.12027         5.52994         4.10176
LJ          -5.49114       -0.447223         5.12803
LJ           3.78392          1.0474         4.39281
LJ          -1.09766        -2.56285         3.78003
LJ          -5.09832         5.72026         1.09145
LJ          -0.97035        -5.11442         2.83933
LJ          -1.46872         2.98478        -6.22585
LJ           4.93168         2.58139       -0.226327
LJ        -0.0165504        -4.79368        -1.82081
LJ          -4.34278          5.3456         2.63143
LJ          0.837649         -1.3582       -0.635624
LJ          0.442582         1.04497        -2.95355
LJ          -3.57332        -5.21729          6.2287
LJ           -2.1095       -0.437607        -6.09553
LJ             3.297        -5.97869        -1.19381
LJ          -1.18481        -5.93195         3.99615
LJ           2.06905         3.55262        -4.86798
LJ          -5.95577        -3.65004        -6.17792
LJ          -2.38979         4.98677         4.99545
LJ           5.79133         4.87223         2.98696
LJ          -3.03933         -2.5428         2.87349
LJ          0.240859        -3.21888         4.73674
LJ          -4.75343          5.2569          4.6653
LJ          0.662212         2.63506        -2.43437
LJ         0.0916131        -2.42651        -5.51015
LJ           3.39417         5.87971         4.42534
LJ           -5.5699         2.52104         1.13657
LJ          0.277217       -0.943078        -4.61127
LJ          -4.97527        -0.70064        -3.18807
LJ           3.55449         4.16521         3.86915
LJ          -1.53017         1.44776        -1.47656
LJ          -4.74695        0.850068        -2.97534
LJ          -1.26151        -2.25256        -2.71177
LJ          0.244782         5.81481        0.837186
LJ          -5.50869        -3.38833        -1.45633
LJ           5.85494        -2.95396        -5.26563
LJ           5.55662        -1.77828         1.94048
LJ           6.37074        -0.49607        -1.42485
LJ           2.67642        -4.97721         1.28969
LJ          -4.64299        -4.09077        -5.66129
LJ           -3.5031        -1.44978        -6.14157
LJ           1.26581         1.63901         3.55737
LJ          -4.39883         4.17296         6.40661
LJ           5.76666        -3.57896        -3.20387
LJ          -2.92907         5.34096         1.05744
LJ          -5.24337        -4.04836        -3.80765
LJ         -0.992688         2.22128        -3.62171
LJ          -6.13677         4.85787         3.45736
LJ          -4.24684        -6.16639        -1.08495
LJ           -3.9184           2.995         5.05075
LJ           1.57711        -1.78962        -1.17219
LJ          -4.85595          2.3876          3.7121
LJ           1.98206        -3.48794         2.33873
LJ           -2.0029        -5.72262         3.44139
LJ          0.705339        -4.25992        -1.00337
LJ           2.97527        -2.07127        -5.28568
LJ           3.87317        -1.24827        0.973493
LJ          0.112804        -5.14116        -5.15278
LJ           1.17354        -4.59877         1.95487
LJ          -1.62919         6.12719        -5.26634
LJ          -3.60039       -0.473077         2.38254
LJ           -4.5902         4.77663         -1.9891
LJ          -2.93725        -3.21177        -0.51356
LJ           1.66873        -5.90799        -4.18541
LJ           -2.0567        0.237273        -2.81378
LJ          -4.70033         5.19352       -0.693349
LJ          -1.31236         6.21758        -6.42532
LJ            1.0179        -6.12062         5.76462
LJ         -0.427179        -3.73664         3.83868
LJ           6.06967         1.41544         4.53104
LJ          -4.07469        -6.41233        -4.76554
LJ            2.0139         5.07319        -3.34266
LJ          -5.94126         6.32921        -1.71495
LJ          -4.41077         4.29368         -3.8715
