108
#Comment!
LJ           4.08135        -4.26899        -4.51459
LJ         -0.606937        -3.74596         6.08975
LJ           5.09191         1.20093       -0.204414
LJ          -6.04441         2.10735        -3.13066
LJ          -5.85274        0.558259       -0.966029
LJ         -0.222098         5.25161         5.74048
LJ          -5.04994         3.53027        -2.52796
LJ           3.85239        -6.31613        -2.45111
LJ          -4.80799          0.8647         5.08383
LJ           5.75541         2.50351        0.110264
LJ         -0.335774        0.743338        -3.47493
LJ           2.65488       -0.154146         1.70032
LJ          -1.75426         3.84304        -3.77988
LJ          -3.07227         4.25651         5.73953
LJ          -1.46793        -4.45548        -2.75429
LJ            3.0741          5.8681         4.66191
LJ          -3.50888         1.98549       -0.422164
LJ        -0.0745428       -0.686156         5.98198
LJ          -5.67857        -3.18771        -4.85366
LJ           -1.8133         5.47507        0.535205
LJ          0.279093       -0.123504         1.22114
LJ         -0.676187         6.29349        -2.70463
LJ           6.36909         6.02258         1.93234
LJ          -6.11014         4.25359        -1.30196
LJ          -6.09117        -5.94494        -5.15839
LJ          -3.05724         2.62126        -3.40628
LJ          0.946203         3.30507        0.111432
LJ         0.0375194        0.713198          2.2821
LJ          -1.38544        -5.47739         3.01753
LJ          -1.50713      -0.0151513         -0.3864
LJ           6.01906         4.98971         2.42513
LJ           1.15904        -6.45746         3.84609
LJ          -5.35166        -2.49654        -6.41762
LJ           3.84175         2.84035        -6.36247
LJ          0.522722         4.28023         4.36425
LJ           4.27165          -6.197         1.02262
LJ          -1.48758        -4.49242         6.42515
LJ           4.53521         3.28355         5.02787
LJ          -4.49664        -2.61269         2.66622
LJ           4.33737        -5.77873         2.31018
LJ          -4.96945       -0.293484        -5.37345
LJ           4.18851         2.50018        0.784796
LJ          -1.09784         2.50182         2.62884
LJ           5.31848       -0.305606        -2.27066
LJ          -4.19747        -0.70528         5.59331
LJ           5.91448        0.201838       -0.345308
LJ           2.51908        -5.11566         2.48896
LJ          -2.48043       -0.332863         2.60714
LJ           -3.8009        -4.09552         4.70201
LJ          -3.06837         3.69586        -2.55403
LJ          -5.09388        0.513538         2.23581
LJ         -0.838081         5.54892         4.50234
LJ          -3.25839        -3.42637         -4.2484
LJ           -2.5329         3.35518        0.134334
LJ          -4.74485        -1.80537         5.46734
LJ           3.46182       -0.702309       -0.435152
LJ           -3.2454         3.88094        -5.64871
LJ          -4.16292        -2.96991        -5.54862
LJ          -5.68828         4.70181         2.67363
LJ          0.159979       -0.770239         -3.7525
LJ          -2.80194         1.86473         2.95867
LJ            4.7876          3.6925         2.87008
LJ          -2.29088         5.72072       -0.906269
LJ           -4.9483         4.81147         4.52776
LJ            2.0686         3.91322         2.85705
LJ           5.12304         4.73146         2.82948
LJ           4.28209         4.91163         6.11909
LJ           3.39757         4.74909        -6.14318
LJ           2.19931        -5.01787        0.917284
LJ         -0.576083         2.79033        -1.46634
LJ          -1.60301         6.42839        -3.79711
LJ          -4.26926           3.826        -3.19108
LJ         -0.799109        -3.34351        -3.19369
LJ       -0.00836309         4.60646       -0.815809
LJ          -1.60343         2.83039        -2.92015
LJ          -3.11633        0.696245        -5.57948
LJ          -6.24005        -3.74727         2.88589
LJ           5.66948         6.33267        -2.31983
LJ            -0.988        -1.23084         4.95166
LJ           5.66242        -2.53713        -1.81168
LJ          -1.07139        0.366233        -2.57787
LJ         -0.798056         5.41842        -5.59075
LJ          -3.10049         2.46886        -2.00823
LJ           1.62187        -5.44876         1.56137
LJ           2.85759        0.590084        -5.36534
LJ          0.755259        -5.59191        0.237804
LJ           -4.9129        -4.52078          4.6446
LJ          -4.53601        -3.04677        0.836169
LJ          0.833969        -1.77731         -5.1429
LJ           1.89622        -2.43199        -5.63622
LJ            1.6041         2.51005         3.29991
LJ           2.06667        -3.48308         1.32879
LJ         -0.992192         2.90312        -4.25812
LJ          -4.83578         3.08903         4.90483
LJ           -5.9321        -2.31634        -4.01748
LJ          0.934856        -4.95985       -0.620534
LJ         -0.146886          2.2401       -0.158989
LJ           3.05973          1.4167         6.02414
LJ          -1.96418        -2.07958        0.375656
LJ          -5.05946        -4.23848       0.0322063
LJ            4.0907       -0.578468         4.99333
LJ           3.43034         1.04294         2.01059
LJ           3.33897        0.411373         5.53197
LJ          -3.01298         5.65945         5.29358
LJ          0.147513        -4.67922        -4.76114
LJ           5.25794        -2.40898        -5.83812
LJ           2.74862        -3.30729        -4.24471
LJ          0.233801        -5.25469         2.18015
