108
#Comment!
LJ           5.18019         1.92626         -2.3569
LJ          -4.81783        -3.15174        -5.71234
LJ          -6.32237         3.26067        -2.59237
LJ           4.37231         3.62696         4.52094
LJ         0.0363609        -1.09295          4.6845
LJ           3.89589        -1.98697        0.706737
LJ          -3.36289         5.66107         1.76966
LJ          -1.48721         4.08836         3.17941
LJ           3.95031         4.00995        -1.24861
LJ          0.287208        -2.23243        -6.04492
LJ          -3.93324        -1.42356         -5.4707
LJ          -6.23445         4.87978        -3.55273
LJ           2.40714         3.88963         4.46635
LJ           6.42384         4.60472        -5.59972
LJ          -1.15147         2.85394        -3.24495
LJ          -2.79513        -3.39801         2.81145
LJ          -2.34201        -6.04252         3.72253
LJ          -2.65808        0.543161         3.35919
LJ           0.42806         5.31812        -6.31186
LJ           4.38074        -1.84744       -0.510582
LJ           2.08835        -6.34093         4.14975
LJ          -2.05252         4.72145        0.629239
LJ           5.04401        -6.06025          -1.416
LJ           3.46026         2.84215        0.192839
LJ           4.41324         6.30455        0.920997
LJ          -1.47109       -0.504784        -3.91308
LJ          -2.02293         -4.7517         1.13418
LJ           1.91731         2.99412          3.1359
LJ           4.38193        -4.31633         0.96002
LJ          -3.07414         1.52753        -5.50545
LJ        -0.0154528         2.47841         2.72433
LJ         -0.405917         1.55808         4.22377
LJ            -5.825         4.80638         2.41799
LJ          -2.94061        -5.52183        -3.32497
LJ           2.93986         4.94015        -2.30192
LJ          -1.43806       0.0468589         1.17676
LJ          -4.58587        -2.06493         4.26482
LJ          -6.07617        0.515617         1.38844
LJ          -3.08778        -6.11589         1.83638
LJ           -2.0535        -2.56623         5.49157
LJ         -0.919408        -2.34886        -2.81387
LJ            6.3169         2.21984        -1.75363
LJ           6.33776         3.76478         2.66255
LJ           2.96095        -5.84255         6.30547
LJ           5.90118         2.41914       -0.402879
LJ           5.65897        -4.20326         2.72929
LJ            3.9182       -0.891399        -0.39746
LJ          -3.49624        -4.28434       -0.720795
LJ           1.32904         1.42053        -5.60906
LJ          -3.71511       -0.432337        -4.10736
LJ           4.42526        0.661505        -1.06331
LJ           1.00985        -4.73043          1.0487
LJ           3.67678        -3.34244          5.8111
LJ         -0.469317      -0.0489539         3.14314
LJ         -0.365681       -0.163678       -0.939566
LJ         -0.685724         2.10094         1.42136
LJ          -6.35461         4.20797         1.56683
LJ         -0.275442         1.13526        -3.34569
LJ           5.87817         5.25178      -0.0811978
LJ           4.67885         6.12015         3.22497
LJ           3.15283         5.64363        -6.08515
LJ          -5.41615       -0.971931         4.66219
LJ          -3.82838         3.96289        -1.29958
LJ           4.29802        -3.35789        0.261828
LJ          -1.18089        0.870339        -2.31551
LJ          -2.85201        -4.31939         -1.8264
LJ          -1.90518         2.76748         3.09375
LJ           5.59453        -2.56799        -1.26133
LJ          -4.74435         3.89417         3.76834
LJ          -3.36152        -2.85266        -6.00057
LJ            1.6642        -4.00354         6.08251
LJ          0.275909        -1.33613         5.96497
LJ           2.88304        -1.17021         4.59576
LJ           5.81213        -2.83599        0.648315
LJ           4.17617         3.81007        -2.92338
LJ         -0.218271         4.86522        -4.19833
LJ         -0.951782         4.21837        0.353607
LJ         -0.764192        -1.59174        -5.15283
LJ           1.84438        -2.53374         4.25759
LJ          -5.60001         5.88765        -4.13181
LJ           3.65728       -0.879895         5.82381
LJ          -5.69054        -1.79186         5.83819
LJ         -0.359117        0.134082         -4.2517
LJ           1.07656         4.31831        0.650431
LJ          -5.19307       -0.628173         -4.7826
LJ           3.86844         2.14522        -1.12848
LJ          -1.80746       -0.232776         3.62246
LJ          -6.18732         6.15217        -6.21617
LJ           1.76357         4.63083       -0.869249
LJ           -0.6109        -5.19647         3.05287
LJ           1.81155        -5.28908        -2.15265
LJ           6.21677        -5.03341         2.11991
LJ           5.45206        -5.37085       0.0409062
LJ           4.76309        -5.99525         2.58014
LJ          -1.03292         2.15807         4.76811
LJ          -4.94506        -1.82832        -4.54378
LJ          -4.97627        -3.57663        0.523286
LJ       0.000242828        -2.65952         5.32812
LJ           5.09916        -4.81834         4.01629
LJ           1.18994         3.28915         4.80211
LJ           2.85064         1.77795         -2.3614
LJ           3.56618        -4.86187         3.36233
LJ          -1.78472       -0.598961        -1.20154
LJ           2.88104         3.67883        0.257767
LJ          0.567795        -3.36735         1.08081
LJ          -2.59822        -2.40038         4.50051
LJ          -2.90294         3.18508         5.98276
LJ         -0.964655         -6.3122        -1.99661
