108
#Comment!
LJ          -4.10188        -3.51947         3.62083
LJ           2.95289       -0.974035         1.07046
LJ          -2.39303         1.92281       -0.243667
LJ          -2.98567         3.95237       -0.722631
LJ          -4.67736         3.83508         1.12575
LJ          -2.91567        -4.93672         2.83115
LJ          -1.40826        -5.96033        -2.16976
LJ         -0.693281         -2.3711       -0.023118
LJ           2.96413        -1.83664       -0.636881
LJ           6.05572        -2.16836        -2.68874
LJ           4.19854         3.94717         -2.9097
LJ           5.27805        -5.31055        0.129589
LJ          0.468242        -4.67803          -5.502
LJ          0.476394        -3.35992        -2.73649
LJ           5.77425         5.38188        -6.29365
LJ          0.823937         4.09034         2.17915
LJ           1.30006         2.00926         5.54198
LJ          -3.60907         2.05431         4.64309
LJ           2.44452          3.7848        -5.45341
LJ          0.179486        -4.05304         3.79626
LJ          -4.26742        -2.71156        -6.13262
LJ           2.08805         6.26046         4.22337
LJ         -0.366421        -2.59048         4.89267
LJ           3.48847        -1.10354         5.76799
LJ          -4.14352         5.72557          -4.113
LJ           6.35453       -0.777138        -1.56484
LJ         -0.141541         5.81463       -0.114104
LJ           2.58104          6.0211        -1.50691
LJ          -2.92876        -3.17204         1.60185
LJ           1.41519         5.90352        -1.10314
LJ         -0.222322         1.45568         6.27736
LJ           4.39733        -5.59791        -2.92755
LJ           2.59251        -3.12277         2.63388
LJ          -3.52714        0.890267         5.53479
LJ          -5.89146         -3.0177         -5.1596
LJ            5.5736         4.00939         3.60497
LJ           5.83893          2.9339        -2.21544
LJ           4.73682        -3.13354        -6.06745
LJ          -6.37382         6.34816       -0.354405
LJ         -0.593126        -1.09549        -4.56048
LJ            5.5092        -2.42454        -5.26674
LJ           5.55182        -5.74413        -1.11596
LJ         -0.565986        0.795479        -4.99855
LJ          -6.04246         5.42649        -0.70356
LJ          -4.97397        0.410437         4.02928
LJ          -1.87887        -5.23648        -2.71749
LJ          -6.05026         -5.8429         2.69624
LJ          -5.73743        -1.75639        -2.29691
LJ          -1.68301        -5.27254        -1.29173
LJ           4.18302        -4.61004        -5.20914
LJ          -3.48833        0.193206          4.4072
LJ           5.45473        -1.21519         -2.6483
LJ           1.40071        -3.35847         4.91674
LJ          -1.26715         4.73973        0.121626
LJ          -2.78151        -6.21758       -0.778098
LJ           1.77611         1.64905        0.390012
LJ          -1.10293        0.902775        -1.60561
LJ          -5.96763        -6.07596         -5.3434
LJ          -1.91702          3.8529        -3.29504
LJ          -5.65037        -4.54423        -3.18629
LJ           3.08563         1.31912         1.19352
LJ          -5.55296         3.91517        -3.50155
LJ           6.21968        -4.33456        -4.42092
LJ           5.32936         3.57425        -3.43797
LJ           -1.9008         3.64425        0.697532
LJ         -0.756678        -3.49736         4.08629
LJ           3.04894         4.49271         4.79394
LJ         -0.314503        0.930602         4.99038
LJ           1.47767        -2.05432         1.72288
LJ           6.39056         6.04287         1.40498
LJ            -4.806        -3.58043        -4.34831
LJ          -3.52619        -5.30582         -3.1666
LJ            1.8032        -2.06279         6.16971
LJ          -6.39717       -0.194284         4.09511
LJ         -0.360529         5.63996        -4.93305
LJ           6.30658          2.8382         1.00175
LJ          -5.10375         2.38672         5.27855
LJ          -5.99751         4.65297        -2.77358
LJ           1.17258         1.14796          3.3331
LJ           4.91178         3.41755        -4.62326
LJ          0.551994         5.76348        -3.78401
LJ           2.19444         4.95756         5.42116
LJ          -5.36284       -0.511139      -0.0575234
LJ           4.85895         6.19245         4.25563
LJ           1.17013        -4.82489        -3.30286
LJ          0.102211         5.10573       -0.777012
LJ          -1.56006        -6.28897        -4.02811
LJ         -0.807031        -1.81775         2.19246
LJ            6.3413        -3.80682        0.334665
LJ           4.00508         5.31939         1.81605
LJ           3.76544        -6.05145         1.16947
LJ           3.71061        -4.01268        0.167806
LJ          -4.77193        -6.37766         -1.6923
LJ           -0.8692         3.32387         2.02691
LJ           4.82907        -5.66271        -5.68521
LJ           4.51848       -0.199173       -0.954364
LJ           6.04079         5.11393        0.834735
LJ          -2.67594         3.45069        -4.59074
LJ          -5.76878        -6.40634         4.85586
LJ           3.55747         2.05844        -3.91778
LJ          0.672836        -2.49691         5.95639
LJ          -1.28018        -4.87125        -3.49015
LJ          -5.83063         3.15595        -6.01497
LJ           1.52678        -2.05453       -0.696403
LJ           0.69349        -2.74066         2.23672
LJ          0.973265         4.40356         3.72887
LJ          -5.69368       -0.992102         4.21995
LJ          -2.50688        -2.15132        -4.02081
