108
#Comment!
LJ          0.756814         5.84849         5.67716
LJ           1.69007        -2.83939         6.15893
LJ          -2.85972        -3.31628        -4.65154
LJ           1.91723        -4.46111        -4.94991
LJ            4.9002        -4.24152        -5.36411
LJ          -6.08837         -3.3636         5.54497
LJ           4.40052        -4.82792        -2.24325
LJ          -5.05955          5.8415        -2.96022
LJ          -4.86262         5.49314         4.72881
LJ           1.70213        -5.69971         6.44132
LJ           6.21138        -5.28301        -6.26311
LJ          -2.34853         5.47351        -3.56462
LJ         0.0141009        -1.29675        -5.13118
LJ           1.75397       -0.278025        -5.92154
LJ          0.433819        0.855003        -2.51062
LJ           2.60336        -2.88523        -3.20914
LJ           3.06691       -0.285132         6.23156
LJ           6.45048        -2.45855          6.2954
LJ           1.28073        -2.74459        -3.62875
LJ           1.09616        -6.11452         4.35791
LJ          -2.54079         -3.0657         6.10506
LJ           1.64899         3.44703          3.8642
LJ          -2.52358       0.0873535        -5.82969
LJ          -2.73432        -2.00328        -2.80014
LJ        -0.0122364         6.29934          6.3646
LJ           2.53887         3.13546        -6.15251
LJ       -0.00944856        -6.18859        -4.38699
LJ           2.41924          1.5371         -5.8875
LJ            4.6226         1.46053          5.4772
LJ           6.41613         2.68587        -3.16326
LJ           4.81893         3.97457        -3.66648
LJ          -6.26054          3.5398        -2.55235
LJ          -4.23101         2.17224         5.34871
LJ          -1.63721         2.75203         6.37773
LJ          -4.59911         5.41394         6.40289
LJ          -1.13418         1.30873        -3.22892
LJ           1.19756         5.18674        -1.87115
LJ        -0.0758988        -4.84713        -3.29423
LJ           1.08682        -4.12499       -0.562404
LJ           1.43521        -6.12275         1.13599
LJ           4.38241        -6.13355         -1.6693
LJ           5.85721        -5.05392        -4.49157
LJ          -3.66569         5.46429       -0.171596
LJ           4.60123         5.61946         2.11872
LJ          -5.79825         6.28195        -4.57249
LJ           4.96404        -4.86684         5.32748
LJ          -4.49966         5.59977       -0.764649
LJ           -2.5917        -6.27827        0.580169
LJ           0.24931        -1.76979        -2.92166
LJ           3.43207         2.09631        -4.89151
LJ          -1.90504         3.51866        0.849253
LJ           1.24083        -1.52116       -0.408669
LJ          -1.41381        -2.16741       -0.133229
LJ           -5.8166         1.34718       -0.937638
LJ           4.14944       -0.713372       -0.725557
LJ           3.41851          1.7452        -1.09473
LJ           2.14508        -3.71649         4.46854
LJ            -3.066        0.463251        -2.49178
LJ           4.72863         3.50837        0.919257
LJ         -0.719483        -4.77187         0.26938
LJ           -2.9104         3.73751        -1.71416
LJ          -6.00927         2.16131          1.6899
LJ          -2.66216         5.33843       -0.571831
LJ           2.25652         1.89455        -2.86774
LJ           4.10808         4.82234        -2.52487
LJ          -5.00982         5.34889        0.325437
LJ           4.74516         4.01471         2.29142
LJ           6.43357         1.33151        0.545552
LJ           4.91073         4.72486        -5.72619
LJ          0.617277        0.936854        -1.41308
LJ          -6.37231         4.38191        -1.29791
LJ         0.0419677         3.53766        -1.69364
LJ          0.598404        -6.36078         1.90469
LJ           4.05642        -4.05808      -0.0627468
LJ          0.111592        -6.02891         4.26651
LJ           2.49484         5.56267         4.27879
LJ           2.91911        -5.50547         3.15992
LJ           6.08892        -4.80813         2.61766
LJ         -0.640647        -3.97416         1.65996
LJ           6.10415        -3.85383         3.92487
LJ          -3.78382         5.84095         3.14495
LJ          -2.66684        -5.24082         2.18546
LJ          -3.32744        -4.13588         4.58418
LJ          -2.74886        -6.24071        -6.04316
LJ          -3.42633        -6.36786        -2.01046
LJ          0.519708        0.102413         1.72806
LJ          0.507622         3.28375         5.11632
LJ           1.05155        -2.12745         3.83724
LJ          -3.47611         1.72314         2.70518
LJ           4.60634       -0.856968         4.22132
LJ           4.96012         1.80658         2.49574
LJ          -5.77457        -3.81082         3.87951
LJ          -3.55086        -2.37903         1.64048
LJ          -2.59071        0.865746         2.40625
LJ          -4.33357        0.823957         4.72411
LJ           3.68743         1.07553         5.68927
LJ          -2.44535         1.98882          6.0952
LJ           1.69108         5.50395         2.02135
LJ           -2.4015         5.16441         5.25849
LJ            2.5528       -0.894273         4.06228
LJ          0.930801       -0.700384         4.72416
LJ          -3.21601         3.21658        0.154299
LJ           4.64625         3.01116         4.86228
LJ           6.42165        0.769096         4.76317
LJ          -4.53097      -0.0638285         2.44353
LJ          0.566453         3.59972         2.34585
LJ          -4.51528         4.51161         5.59918
LJ          -2.56014        0.536993         4.15559
