108
#Comment!
LJ          -5.24154         5.63935         6.13045
LJ          -5.18042        -3.49848         5.93859
LJ          -5.09511        -4.39756        -5.29473
LJ          -5.17785        -6.18542        -5.15692
LJ         -0.853472        -5.08875        -6.45749
LJ         -0.566499        -3.63981        -6.29665
LJ          -1.46759        -4.77829        -3.65211
LJ          -1.11355        -6.20515        -4.77477
LJ           2.70389        -6.22518         6.26823
LJ           3.25743        -4.89633        -5.58715
LJ           3.33115        -5.12813        -4.22412
LJ           3.66633         6.12201        -3.75677
LJ          -5.98532        -1.81029        -5.68076
LJ          -5.45848        0.291168         6.40497
LJ          -5.64983        0.771663        -3.76388
LJ          -5.52113        -1.58808        -4.32331
LJ          -1.53267        -1.45977          5.9687
LJ         -0.579205        -1.01309        -5.78805
LJ         -0.911344        0.395732        -4.34474
LJ          -0.17279        -2.33041        -3.56791
LJ           4.41443        -2.36731         6.28035
LJ           4.27652        0.670382        -6.29495
LJ            4.2675        0.167334        -4.98235
LJ           2.49507        -2.67578        -3.90834
LJ          -4.63943          3.1182        -6.28888
LJ          -4.65558         4.27232         6.33998
LJ          -4.47044         4.67728        -3.98352
LJ          -4.85752         2.70908        -4.16132
LJ         -0.850951         1.62134         6.16177
LJ          -2.11283         4.72799        -6.11624
LJ          -1.56608         4.86419        -3.75995
LJ          -1.12468         3.30778         -4.0546
LJ           3.19443         2.37915         -6.0424
LJ           3.44705         3.79712         6.05179
LJ           3.28299         4.70898        -4.83316
LJ           3.38036         3.10397        -4.03582
LJ          -4.74302         6.24734        -1.92702
LJ          -6.38242        -3.84119        -2.90678
LJ          -4.53911        -4.45115       -0.485015
LJ          -5.45758         6.02227        0.526907
LJ          -1.68616         -6.3632        -1.49271
LJ          -1.21353        -4.96271        -2.37828
LJ          -1.64369        -3.87936     -0.00168418
LJ          -1.30189         6.38592        0.371552
LJ           3.09067         5.84896        -2.18087
LJ           4.21463        -4.20255        -2.21971
LJ           3.47019        -5.51852        0.527164
LJ           3.82378        -6.35541       -0.420423
LJ          -5.83861        -1.53778        -2.54954
LJ          -5.30495          1.0094        -1.77172
LJ          -5.80636       0.0757815       -0.310324
LJ          -5.65738         -1.8789       -0.578467
LJ         -0.983499        -2.08049        -3.16215
LJ         -0.450925        0.655014        -3.43246
LJ          -1.11151       -0.324854        -1.00765
LJ         -0.827555        -3.46481      -0.0534749
LJ           3.40498         -4.1556        -1.63501
LJ           2.94399        0.413317        -2.51087
LJ           2.60536       -0.711091       -0.439133
LJ           3.14818        -1.56508       -0.243874
LJ          -5.80977         2.66723        -1.92068
LJ           -5.3478         3.70025        -1.43611
LJ          -5.61316         4.03884        0.671981
LJ          -5.54942         1.93373        0.864021
LJ         -0.830896         2.53129        -1.70411
LJ          -1.61923         4.80341        -1.73713
LJ           -1.0435          4.1462        0.600992
LJ         -0.641864         2.07251       -0.104375
LJ           2.82778          3.0007         -2.2921
LJ           2.90188         4.05182        -1.36623
LJ           2.94155         4.25434        0.248845
LJ           2.80384         1.79997         0.12093
LJ          -5.63815        -6.26717         1.92248
LJ          -5.51046        -4.51041         1.93126
LJ          -5.59595        -4.87877         4.30795
LJ          -5.05075         6.43486         4.02027
LJ          -1.01239        -5.73969         2.48412
LJ         -0.725933        -4.66518         2.46407
LJ         -0.920522        -3.13529         3.84037
LJ          -1.51881        -6.18649         4.74267
LJ           3.14869          5.9602         2.69304
LJ           3.06672        -4.37541         2.17443
LJ           3.57734        -4.25863         4.44994
LJ           3.05781        -6.45828         5.03857
LJ          -5.71945        -2.51413         1.05263
LJ          -6.38776       -0.410768         2.05755
LJ          -5.50334        0.604298         4.08603
LJ          -5.71661        -2.44654          3.7455
LJ          -2.04442        -1.68117         1.71152
LJ          -1.08758        -1.60867         1.84351
LJ          -0.37298        0.509228         3.60978
LJ         0.0828967        -1.93838         4.22578
LJ            3.3933        -2.40187         1.65424
LJ           2.89052       -0.072571         2.03976
LJ           3.38687       0.0442705         5.23044
LJ           3.95524        -2.25383         4.28921
LJ          -5.94517         1.74011         1.74747
LJ          -5.81493         4.37814         2.44724
LJ          -6.04716         4.11917         3.83927
LJ          -4.87175         1.86758         4.11869
LJ         -0.805959         1.28494          1.0009
LJ          -1.02362         4.25513         2.44428
LJ          -0.93239         4.02821         4.07612
LJ         -0.944767         2.19558         4.84824
LJ            2.5013        0.854214          2.9048
LJ           2.95732         3.79823         2.02464
LJ           2.31792         4.54106         4.71951
LJ           2.80962          1.8386         4.13531
