108
#Comment!
LJ           3.67307         4.10815        -4.64119
LJ          -3.79722        -1.85352        -6.23262
LJ           5.37099         1.06214        -2.21451
LJ          -4.37772        -1.21015         5.87193
LJ          -1.06295        -5.37055           5.544
LJ           3.62892         3.82768         3.37956
LJ          -3.71503        -5.56522       -0.561456
LJ           4.79601         3.91108         2.28766
LJ           1.03476         3.33871          4.4233
LJ           1.77034        -2.65375      -0.0961054
LJ          -5.64455         6.36573        -3.10081
LJ          -5.89666         4.73351        -3.30151
LJ          -6.25708       -0.364354        -6.05059
LJ           1.98464         1.90615         5.75395
LJ           6.33198         2.45953        -2.92994
LJ         -0.567844         6.19384         4.01527
LJ           1.13379         5.78341         4.25898
LJ            3.6592         5.92591          4.5618
LJ           1.54251         -5.8838        0.812666
LJ            2.5617        -2.58121        -5.85331
LJ           2.02151        -5.65658         4.31896
LJ          -1.61609        -6.10253        -2.10604
LJ           2.61232        -4.37582      -0.0150081
LJ           5.38509        0.218635        -1.06279
LJ           3.13671         5.78954         2.80208
LJ          -3.57649       -0.504376        -6.07449
LJ         0.0480257        -2.72614        -2.91342
LJ         -0.354832         1.97197         4.54609
LJ          -3.42257         -1.8086         2.76871
LJ           2.35133        0.347229         1.25665
LJ          0.340463         3.31488        -1.97747
LJ           1.69301         1.07369         1.97594
LJ          0.845517         3.40905         2.18063
LJ           4.31602         3.81629        -3.10071
LJ         -0.698456        -4.70801       -0.485842
LJ          -2.01903        -4.27379       -0.855795
LJ           6.16316         2.34955        -0.43028
LJ          -5.33343         5.08253        -2.03208
LJ          -6.12177        -5.26556        -1.04989
LJ         -0.317632         -4.7538        -2.36889
LJ          -2.27836        -5.67332        -3.39601
LJ            2.2782         4.40462        -5.80211
LJ          -5.10378         3.62564         1.76424
LJ           3.81919          4.0959         5.51928
LJ          -4.30315         4.90518         3.43143
LJ           5.90808        -4.61023         2.36809
LJ           6.46287       -0.385028        -1.52914
LJ           -5.9372        -5.87314        -1.82539
LJ          -4.92577        -5.29552        -4.07506
LJ            -1.099         1.74658        0.444701
LJ          -1.26098        -1.61008         2.76518
LJ          -5.89989        -1.59482         -1.2668
LJ          0.498477        -4.96105         2.72382
LJ           2.91767          1.8928         1.41981
LJ          -4.19877        -1.42602       -0.181688
LJ          -1.93863         5.62428        -2.53453
LJ          -1.30399        -3.50879       -0.731835
LJ           3.94907        0.717836        -3.22299
LJ           6.30337          5.2713     -0.00294916
LJ          -5.61187         5.64453        -5.75066
LJ           6.28504         6.43417        -2.33462
LJ           1.55425        0.990106         4.94139
LJ          -2.11588        -1.54388         5.78185
LJ          -3.38253        -3.19703        -2.18506
LJ          0.988311        -2.34461        -3.69332
LJ          -5.41514       -0.810332         6.16716
LJ          -4.24921        -5.38027        -2.86262
LJ           1.60593         2.15954         3.55969
LJ           5.04832        -5.74145         1.79515
LJ           4.29635        -4.61287         1.30289
LJ          -6.42061        -5.22806         -3.4193
LJ          -1.61469        -6.21451         -3.9781
LJ           2.69255        -4.43957        -2.76297
LJ           5.22056        -2.65463        -6.41995
LJ          -5.51992        -6.12873         1.07831
LJ            3.0802        -3.60834         5.94004
LJ          0.493957        -6.07416          2.0625
LJ           3.44596        -3.72028        -5.96873
LJ          -2.26378        -3.12128         2.37956
LJ          -1.67232         1.25465         1.75236
LJ          0.522525         6.41838         4.92484
LJ          -6.43459         4.27528        -1.98992
LJ         0.0949942         4.66143        -5.90767
LJ           3.97319         4.96126         -3.7541
LJ           1.35483         3.63218        -5.28178
LJ          -5.04795          2.0736        0.357586
LJ          -5.90434        -5.07008         5.50626
LJ          -4.87295         1.59939         5.70308
LJ         -0.615137         5.32795         4.83883
LJ           4.82451         3.09155         4.68753
LJ           -2.7107          4.4225        -0.35634
LJ           6.42106        -5.37397         2.91855
LJ           2.95307        -4.36103        0.895992
LJ          -3.64121        -3.04358         2.52833
LJ          -2.27251         2.06934         4.23225
LJ          -6.18005        -5.96196        -5.16739
LJ          -5.43684         5.59585         3.62185
LJ          -1.35711        -5.13347        -3.39606
LJ           -4.7206        -2.51597         5.60355
LJ          0.625776         -1.0899         5.14531
LJ           1.69914        -6.04412         -4.3133
LJ          0.172461        -1.74828         1.08494
LJ          -4.36279        0.994422        -4.60196
LJ           3.40569         2.50037          3.9569
LJ          0.539649        0.674767         1.92565
LJ            1.9043        0.528732         2.80915
LJ          0.855577         3.55925         5.37662
LJ          -3.59777        -2.23772      -0.0524794
