108
#Comment!
LJ          -2.12712         1.38857        -1.07277
LJ           1.12773        0.618221       -0.315356
LJ         -0.831078         2.24704         1.59238
LJ            1.1421        -1.69808        -4.27974
LJ          0.696004       -0.994218         4.08522
LJ           6.27212        0.299314         4.53369
LJ           2.71692         3.53303         1.10555
LJ            4.0252         4.34351         1.62561
LJ         -0.418398      -0.0642559        -4.93673
LJ          -4.83489        -5.18651         4.68621
LJ          -3.71623        -3.92987         6.41509
LJ          0.537446         6.20619        0.098966
LJ          -1.00388         6.04687       -0.392251
LJ           5.98415        -2.48992         2.43021
LJ          -3.36017         5.55998        -3.18013
LJ           1.77425        0.368224         1.61748
LJ          0.991317        -3.47219        -2.24867
LJ           6.32149          6.0232        -5.80042
LJ           3.50954         1.84721       -0.426236
LJ          -1.40937        -5.24372       -0.122171
LJ           -1.3983        -1.34711        -2.76025
LJ          -1.87368       -0.558977        -4.30885
LJ          -6.22373        -0.57109        -3.86256
LJ           3.66631         2.19646         6.03165
LJ          -6.04779         5.24446         5.31908
LJ             5.896         2.97829          1.7875
LJ           1.09375        -1.01729         3.16275
LJ          -5.74208        -3.55746        -3.78913
LJ           5.26644          4.1565        0.246682
LJ          -3.98819         2.52976        -2.20653
LJ           4.35697       0.0112297         3.19768
LJ          -1.23028          1.6791          3.7841
LJ           -5.7156        -1.98996        -2.91959
LJ           4.95248         2.52643         2.33232
LJ            5.9394         4.17568         2.83737
LJ           -4.4846         1.09086        -5.96462
LJ           5.45052        0.598891         3.53986
LJ          -2.20652        -2.68327        -4.97086
LJ          -4.80629        -4.75892        0.809112
LJ         -0.766222         6.36647          1.7246
LJ          -1.09909         3.38896        -2.04332
LJ          -1.17719         4.59199        0.435504
LJ           2.56629          5.7133         1.62567
LJ          -3.37335        -6.20197        -0.38395
LJ           1.72978        -0.57868         -5.6789
LJ           2.12203         2.81246        -3.39585
LJ          -1.47076        -3.85507          2.6233
LJ           2.98443         0.32026         5.70154
LJ          -5.15598         4.66339        -5.31539
LJ          -2.42571         6.25368        -2.46278
LJ           6.03762         5.56139         2.80319
LJ          -3.44184        -3.98207        -4.25414
LJ          -2.22315        -3.92612        -5.37426
LJ          -5.85262         4.32835        -3.87715
LJ          -5.52232        -5.82628        -4.37608
LJ         -0.862846        0.749077         1.98818
LJ          -2.43416         3.67442         1.17468
LJ          -1.08296          1.0922        -2.60833
LJ           3.20136        -4.40654         2.74556
LJ           2.28156        -3.60763         4.27547
LJ          -1.89331         1.99923       -0.307187
LJ          0.877402        -5.11948        -5.98769
LJ           4.02302        -4.64317        -4.32255
LJ           3.38011         4.12723         3.25157
LJ         -0.660068         2.67694        -3.17964
LJ            3.6706        -1.41994         1.39948
LJ          0.154092         4.04622        0.867971
LJ          -3.94632         2.27137         3.50137
LJ           1.83269       -0.423391         5.16278
LJ          -1.19862        -3.45269        -6.40187
LJ          -1.74097         5.34983         3.58847
LJ          -5.75597        0.569639        -3.88736
LJ           5.00973        -6.22989         5.38904
LJ          -4.11383        -3.08619        -4.25605
LJ          -3.73296         1.71485         6.07214
LJ           4.56554         4.79248         2.60313
LJ          -2.64431         5.41933         2.23625
LJ          -4.88306        -2.10651        -2.11865
LJ           -1.2392        0.383549         4.42745
LJ          0.914438        -2.88539        -1.33027
LJ          0.196776           2.821         2.72876
LJ         -0.582115         6.07149         2.91982
LJ           1.46824         2.25694        -5.28185
LJ          -4.32383        -4.25911         2.10507
LJ           6.01002         1.03705        -3.55222
LJ          -3.97028           1.467         2.28383
LJ           2.13327        -3.82097        -5.38582
LJ          -3.70367        -4.75202       -0.340686
LJ           -2.2761         1.99313        -2.86595
LJ         0.0285055        -2.44054        -4.22736
LJ           3.25422         3.50837       -0.974208
LJ           -3.2271         5.46296         5.66084
LJ          -2.28448        0.938943         2.68878
LJ         -0.813569         3.68169        -3.31606
LJ          -1.47274         2.71662         3.09499
LJ           -5.1863         5.35436       -0.869858
LJ           3.99301         4.28663       -0.159049
LJ          0.486505         5.72343         6.37091
LJ          -4.75499         1.91604        -3.18521
LJ           5.78895         4.19584        -1.91215
LJ           2.14284         4.46319        -5.16773
LJ          -1.73141        -3.96609        -3.87315
LJ           2.60535        -2.25539         3.61224
LJ           6.26989         2.70427        0.690098
LJ          -1.02931       -0.422723        -3.43741
LJ           2.81792         4.51243        -3.75048
LJ           3.18139         3.06862        -6.16192
LJ           -4.9034        -2.99869        -3.26502
