108
#Comment!
LJ          -5.82491        -4.17419         4.64998
LJ           1.99788       -0.842637         2.09252
LJ          -1.10393         1.64361       -0.124547
LJ            -2.941         3.71383         1.17489
LJ          -5.41845         3.51325        0.217619
LJ           -1.8543         -5.2925         3.79786
LJ          -3.03655         5.93667        -1.22298
LJ          0.784154        -1.85823        -1.25296
LJ            3.7279         -1.2622        -1.58713
LJ           3.13606        -1.33751        -2.94848
LJ           3.09519         3.76285        -3.03074
LJ           5.54759         6.39054        0.907079
LJ          0.346177        -5.97857        -5.12147
LJ         -0.283577        -1.91881        -3.72127
LJ           3.91731         5.79038        -5.21604
LJ          -1.72864         5.12828         1.57558
LJ         -0.303377         2.90677         4.18772
LJ          -2.69907         3.93031         4.99716
LJ           3.38153         4.96906        -5.79421
LJ          0.780209        -3.95863         3.18191
LJ           -4.0575        -2.59547         5.73226
LJ           2.86524         5.95116         4.14303
LJ          0.472179        -2.23755         5.13578
LJ           1.28375         1.27092          5.1467
LJ          -4.06518        -6.38845        -3.55899
LJ          -5.90348       -0.497988        -2.16933
LJ           1.01626         5.97396        0.960799
LJ           3.22306        -5.23274        -2.94219
LJ          -2.76489         -4.0397         2.00995
LJ          0.561475         4.66684       -0.600613
LJ           1.46898         1.93147         6.33635
LJ          -6.23729        -6.24281        -4.03743
LJ           3.45528        -4.29056         2.29165
LJ          -4.13093        -1.14743         6.31024
LJ           -5.2488        -1.19092        -6.45468
LJ           5.34048         5.20589         4.08325
LJ           6.11063         3.43161       -0.241508
LJ           4.16411        -1.53949        -6.35923
LJ          -5.50311        -5.70327         -1.1542
LJ          0.813069        0.375564         -3.4265
LJ           6.01506        -1.80562         5.02826
LJ           4.32216         -4.7322        -2.18494
LJ           1.52771         1.29469        -5.15976
LJ          -6.04757         4.53285        -0.47093
LJ          -5.43879       0.0349268         1.34545
LJ           -1.0771        -3.73937        -1.41645
LJ           3.22273         4.97787         3.32232
LJ          -4.30654       -0.538322        -2.85567
LJ          -2.19737        -4.49717       -0.372885
LJ           5.04289        -5.52521        -4.72582
LJ          -1.64269       -0.939057          4.1332
LJ           4.43962       -0.163626        -4.13155
LJ           2.85136        -3.39143         6.15852
LJ         -0.171423         5.77454       -0.512098
LJ          -2.80376        -5.25273        -2.16504
LJ           0.72046      -0.0140332      -0.0441344
LJ          0.626465         1.56102        0.207669
LJ           6.42675        -4.97296         -5.6522
LJ          -2.90226         4.63907          -4.887
LJ          -5.08926        -4.77826        -1.97669
LJ           4.50265         3.73357          1.9921
LJ          -5.25489         4.06486        -2.39574
LJ          -5.90995        -5.27845         -4.0946
LJ           5.24231         3.97122        -5.04887
LJ         -0.389895         3.50109         1.38847
LJ         -0.147185        -4.63205         2.76241
LJ           1.64893          4.7341         4.64461
LJ          0.931942        -1.00902          2.9133
LJ          0.214497        -2.08242         1.46002
LJ           5.30371         5.64888      -0.0946444
LJ          -5.17717         -5.1411        -3.30298
LJ          -4.00516        -5.46786        -2.22979
LJ          0.763979        -1.98166         6.16068
LJ           5.96634        0.662797         4.87326
LJ         -0.217953         4.45053        -4.32288
LJ          -6.13844         2.28718       -0.737836
LJ          -5.52135         1.05684         5.47398
LJ          -5.64771         4.92327        -1.92095
LJ           2.81073         0.10636         3.57245
LJ           5.03117        0.750184        -3.78714
LJ         -0.267565         5.31989        -3.56605
LJ           1.90918         5.14213           6.029
LJ          -4.53235       -0.117476        -1.30626
LJ           4.23446         3.67172         3.67862
LJ           2.28432        -3.97341        -3.02204
LJ         -0.491278         4.55978       -0.861925
LJ          -1.31713        -4.91201        -2.15216
LJ          -2.10416        -2.31912        0.751959
LJ          -6.21367        -2.59023          2.4532
LJ           3.50916         5.56586       -0.429418
LJ           3.83734        -5.77864         2.06879
LJ           3.12488        -4.11935         1.30731
LJ          -4.47049         5.39859        -1.64859
LJ          -4.00065         3.01152         3.90779
LJ            5.8491        -5.98081         6.42554
LJ           6.12119       -0.822527       -0.773129
LJ           4.97235         4.40186         0.39037
LJ          -2.45487           3.309        -5.06968
LJ           -4.5559         4.68824         6.23583
LJ           2.18712        0.895889        -2.46068
LJ           1.37925        -3.10269         5.52066
LJ         -0.391338        -4.19546        -4.71864
LJ          -6.12613         1.87852        -6.23613
LJ            1.2673       -0.790172         1.46244
LJ          -2.03509        -3.07074         2.03338
LJ        -0.0714887         5.40856         4.03648
LJ           -4.1637       -0.900864         2.78521
LJ          -2.31497        -3.17807        -2.82923
