108
#Comment!
LJ          -3.13431        0.221579         0.38427
LJ          -3.57694        -3.51705        -5.54813
LJ            5.2262          3.1648        -2.58643
LJ          0.226002         6.45779         2.42452
LJ           1.76215         4.04636        0.719587
LJ           4.02626          1.5293         1.31328
LJ         -0.580253         3.57056         1.61822
LJ           6.38184         1.80529         1.72816
LJ           5.58311         2.45579        -5.75515
LJ            2.1317        -2.67933         5.54962
LJ          -3.67963        0.940987         5.15442
LJ          -5.94273         6.35219        -4.17295
LJ          -1.49176         6.17517         4.49179
LJ          -2.80019         5.36255        -4.11168
LJ           2.42314         2.54904        -3.23923
LJ          -4.77361        -1.82685         2.94184
LJ           -4.8264         6.01399         3.54538
LJ          -5.08259        0.259465         1.56582
LJ          0.367486        -5.99919        -4.12886
LJ          -6.42926        -2.82582         4.11072
LJ           1.55253        -5.56679         5.92871
LJ          -4.70221         5.34649        -4.79372
LJ           6.31998         4.73775        -3.19531
LJ           3.15366         4.83327        -1.74995
LJ           3.70574         5.57387          2.4997
LJ          -1.22294         0.99913        -1.96238
LJ           -2.4989         5.25953         4.70002
LJ          -6.37899         2.87915       0.0542682
LJ           2.36364        -4.66444         1.25177
LJ          -3.59309         1.51945        -1.81144
LJ          -2.61093        0.291069          5.2371
LJ         -0.114342        0.108302         3.60877
LJ          -2.96236         3.78179         4.33906
LJ            1.9446        -1.98956        -4.62174
LJ           5.49438         1.21604        -3.74494
LJ          -1.08225          2.4514         1.71528
LJ          -3.15386        -4.68057        -5.59182
LJ          -5.88867        -1.52569         3.68082
LJ           -3.6382         6.21082         4.80365
LJ           -3.3246        -3.13885         6.14916
LJ         0.0532399        0.598027        -1.37136
LJ          -5.08079          1.6166       -0.759417
LJ           4.37344         4.90294         6.10127
LJ          0.387599        -3.25057         6.10375
LJ           5.57646         2.45535        -1.94017
LJ           4.78676        -5.88157         3.71384
LJ          -6.43888         1.70072        0.395243
LJ         -0.825558        -2.71641       -0.825954
LJ           3.64392        -4.11193         -1.9133
LJ          0.517803        -1.99613        -5.19458
LJ          -6.00488         1.63446        -5.38171
LJ          -1.44636        -4.32515          2.2188
LJ           6.15222        -4.73281        -4.53373
LJ          0.645148         2.05982         4.01603
LJ           2.20816        0.664001       -0.840163
LJ          0.155846         1.19668         3.42806
LJ           -6.1243         6.01641          4.5633
LJ          -1.45365         2.72536        -2.80588
LJ           2.43986        -3.71857        -3.93309
LJ           4.77861        -5.93316         2.11864
LJ           2.10677        -6.09207        -6.17839
LJ           6.06776        -1.41887         5.34475
LJ          -5.77687        -5.55246        -6.24496
LJ           3.15474        -4.36874        0.570018
LJ          -2.93605         1.50624         2.06125
LJ          0.447483        -4.61004         1.78565
LJ          -2.75903            1.19         5.85751
LJ           -5.7668         -5.1151        -4.42109
LJ          -4.82726         1.76778         4.65591
LJ         -0.276063       -0.195398        -2.01109
LJ          -2.65494         -2.8878         2.81213
LJ         -0.802173        -1.54625         4.40526
LJ           2.15691         1.05221        -3.36058
LJ           5.79006        -3.42576        -2.62346
LJ           3.66317         2.93372        -3.70934
LJ          -3.79121         4.36891        -2.70267
LJ          0.354176         1.53921        -1.77359
LJ          -5.98476        0.050825         5.02381
LJ           2.97943        -2.74467         6.14741
LJ           5.52733         4.84211         3.15241
LJ           4.45848        -4.03002         3.73419
LJ          -4.15485        -4.88617         4.49794
LJ         -0.441153         -1.4562        -3.52822
LJ           -3.1184         5.71876         2.62791
LJ           6.34466        -3.14151         4.97606
LJ           5.20315       -0.556046        -2.60349
LJ          -1.03221        -3.07096        -5.25989
LJ          -4.53252        -5.01716         -4.7096
LJ          0.425776         6.31999           5.864
LJ          -4.08422        -1.01293         2.31018
LJ           4.17536        -3.50947        -3.05761
LJ          -5.87536         -4.2895         0.67209
LJ          -5.50637        -4.91179        -1.43051
LJ           1.51491        -6.30755        0.053422
LJ          -3.12956         5.00951        -6.19834
LJ           4.89501        -3.23439         4.57389
LJ          -4.93505        -1.45051        -1.60556
LJ          0.977318        -2.98014         1.27286
LJ           5.29711        -6.45713         2.98727
LJ           1.16821         3.23672         3.54349
LJ           3.87164        -1.29907        -2.87088
LJ            3.1921         5.63489         4.28015
LJ         -0.670118        -1.05718        0.990028
LJ           4.26885         3.93147        -2.23066
LJ          0.939896         6.44014         1.08202
LJ          -5.44323        -2.74082         1.51408
LJ          -5.43344          6.2158        -4.95166
LJ           1.58004          3.9312        -2.20607
