108
#Comment!
LJ          -3.48021        0.513852       -0.908399
LJ          0.825562        -2.17284        0.204986
LJ           1.79916        -1.71564          1.5366
LJ           2.62163        -1.78168        -2.34878
LJ         -0.516333        -2.64385         4.65806
LJ           3.42239         1.19283         4.39869
LJ           3.71148         2.68903         3.10754
LJ            4.9215       -0.111143         1.28277
LJ          -2.39718       -0.542115         4.32265
LJ          -1.28522        -5.85493        0.224191
LJ         -0.877985        -1.99105         2.05643
LJ         -0.253015        -4.97707        -2.57844
LJ          -2.31093         1.57343        -0.87944
LJ          -5.63021        -2.52185         3.87335
LJ          -2.98232         5.11125        -5.48936
LJ         0.0708694        -2.63333         3.61555
LJ           3.03951        -3.92952        -3.51231
LJ           -6.3579         3.68897         6.46282
LJ          -1.56525        0.746589        0.226961
LJ         -0.967988        -4.69856         0.21903
LJ          -1.49707        -2.65609        -5.91482
LJ          -3.71872         1.74067        -3.35428
LJ          -6.14925       -0.347268        -3.27453
LJ           3.52658         1.84069         6.22009
LJ          -3.02769        -3.69735         5.84881
LJ           6.25623         1.61946         3.58729
LJ          -1.96214        -2.80321         1.92294
LJ          -3.40175        -1.62977        -6.12185
LJ           -2.2431        -5.77909      -0.0995392
LJ           -2.3232        -1.09848        -1.72163
LJ           2.85468         1.66478         5.44277
LJ          -4.55389         1.40828         5.55454
LJ           5.93762        -2.09835        -3.37311
LJ           6.09793         6.39246        0.563936
LJ           5.62845         5.13086         3.70334
LJ          -4.90532        0.418349          6.1941
LJ            4.7366          2.1058         3.83949
LJ          -1.18466       -0.981829         3.83787
LJ          -5.05667        -6.35539         1.00046
LJ          -1.28343        -4.14667         2.57963
LJ          -1.29241        0.560143         4.05565
LJ          -5.68795         3.26523        0.172193
LJ          0.509823        -5.76319       -0.336861
LJ          -3.30201          6.2184         1.88876
LJ          0.855388        -1.10046        -2.50915
LJ           1.31641        0.624065        -3.00811
LJ          -1.96512        -4.76999         5.36451
LJ         -0.486756       -0.575696         5.59726
LJ           4.76131          6.3505        -2.62752
LJ           -1.0603        -6.06282         6.14444
LJ           3.42689          4.2376         6.40383
LJ          -5.19791        -4.04682        -5.91329
LJ          -2.43668         6.32531         6.23694
LJ           5.94081         5.05849          0.5614
LJ          -2.74711        -3.48509         3.42935
LJ          -0.10894        -1.20026         4.18558
LJ          -3.94733         5.09118          4.7245
LJ           0.42568         2.99141        -3.49237
LJ           1.27663        -2.73744         5.62414
LJ           2.10692        -5.75927         5.14347
LJ           4.16013         2.36421        0.675063
LJ         -0.563373        -3.65401        -5.51155
LJ          -5.40913        -1.89872        -3.97968
LJ           4.12971         3.82828         3.92596
LJ          -1.87476          1.4681        -1.82511
LJ          -6.29768        0.111978        -1.45208
LJ         -0.537908        -4.26541        -1.40291
LJ          -1.05943          4.5924         1.59533
LJ           5.54512        -1.67725        0.219978
LJ           3.54479         -3.0646        -5.40907
LJ          -5.53707        -3.97046         2.52791
LJ          -6.23942       -0.867543        -2.21134
LJ           3.29582        -6.07031         2.58638
LJ          -4.50014        -3.73518        -4.76467
LJ          -3.12438        0.162549        -5.91801
LJ           2.21777         3.07476         3.12724
LJ          -3.69244         3.99976         5.07472
LJ          -6.45813        -2.99145        -2.92338
LJ          -2.27277         3.46136         2.26826
LJ           5.32554        -3.27184        -1.73109
LJ         -0.467015         2.63649        -1.32274
LJ          -3.59319         5.41815         2.74945
LJ          -2.40012         4.87517           -2.25
LJ          -4.00785        0.426988         4.05901
LJ           4.26618        -1.25004        -1.79341
LJ          -4.61777         2.21725         3.16427
LJ           2.35968        -3.69768         4.26957
LJ          -2.97544        -5.72928         2.09905
LJ          -1.87549        -2.71194        -1.01332
LJ           1.90841        -2.16018        -4.87658
LJ           4.14808         0.21219        0.619392
LJ         -0.786103        -4.76946        -6.22413
LJ         -0.263904        -2.63909         1.34183
LJ          -1.44572         5.51144        -4.48151
LJ          -3.10892         0.56115         2.38269
LJ          -4.59762         5.09911        -1.95606
LJ          -5.08219        -4.98301       -0.473165
LJ           1.31237        -6.42548        -4.95679
LJ          -2.67949        0.996781        -2.72958
LJ          -5.36668         4.62504       -0.996171
LJ         -0.127233         4.55797        -5.27948
LJ           1.20598        -5.51925         6.21767
LJ          -0.26828        -4.22928         4.15447
LJ            5.8384         2.22509         2.68229
LJ          -3.69821           4.094        -6.21079
LJ           2.31939         4.88327        -3.43538
LJ           5.68971         5.06605         -3.3292
LJ          -4.87838         1.36719        -4.13001
