108
#Comment!
LJ           1.57853          2.0471        -4.43783
LJ           6.38148        -6.30778        -5.01134
LJ         -0.264788       -0.333282         6.20474
LJ          -5.28888         6.40126         5.40228
LJ          -3.89852         4.58289        0.607787
LJ          -2.18748        -1.07507        -4.77774
LJ          -1.56883        -1.10675        -3.67609
LJ            6.0665         3.80967        -1.18666
LJ          -2.64383         1.90919         4.02604
LJ            5.9002        -5.69681        -1.08505
LJ          -1.29962        -3.74676        -2.66036
LJ            3.1846        -2.84154          3.2367
LJ           3.16276         5.31835        -4.70141
LJ         -0.869485        -2.16044         5.93125
LJ           3.01506        -5.55123         2.50186
LJ          -4.85871         2.40913         6.29804
LJ          0.187597         3.04348        -3.00546
LJ          -2.58741        -4.11885        0.586965
LJ          -4.81015        -5.61623         4.20036
LJ           -3.4183        -2.47597         1.21488
LJ          0.871477         0.22857        -6.39964
LJ          -4.86668        -5.54406         5.60873
LJ          0.594717         -1.1906         -2.1479
LJ          -2.60412         2.50939         2.30082
LJ          -5.29079        -1.86234        -0.15914
LJ           2.52386        -4.55917        -2.01613
LJ            1.5852         3.88701        -5.75357
LJ          -5.73141         2.69396       -0.202207
LJ           1.35307        -2.52726         3.58571
LJ           4.03048       -0.244631         6.45162
LJ          -3.70194         2.98364        -3.82969
LJ          -1.60686          3.3487         2.55395
LJ          -0.47041         6.44142         3.91195
LJ           2.62791       -0.782649        -1.64967
LJ           2.91417        0.767659        -4.62307
LJ          0.726419        -2.52627         2.66884
LJ          -5.94932         2.88419        -6.15494
LJ          -3.45636       -0.995464        -3.02358
LJ         -0.859492         2.55961         5.94484
LJ          -4.10474         1.38057         0.95739
LJ          0.218944        -4.01859         2.45463
LJ            1.3438        0.635502         3.36296
LJ           5.75521       -0.230008        -2.91779
LJ           5.93888         5.76309         5.93598
LJ          -2.18641         -1.3078        -1.98036
LJ           5.74345        -3.41745         3.46667
LJ          -5.80927         6.31515       -0.823369
LJ           4.26797        -0.98665       -0.432747
LJ          -6.35018         6.16926         4.77594
LJ          0.640884         4.68687         6.21185
LJ           1.03441        -5.45002        -1.31477
LJ          0.591271        -1.76455        -5.52474
LJ           2.18471         -2.3289        -3.75844
LJ           4.37657        -1.18126         -2.7957
LJ          -1.07376       0.0730688        -3.23587
LJ            5.3394        -1.54911        -1.30582
LJ           4.94547        -1.99145        -5.85267
LJ           2.38465        -4.37641        -3.79876
LJ           1.96493          -3.283        -5.75788
LJ          -4.56697          3.8004         4.51258
LJ          -3.43674         3.44373        -5.65159
LJ          -5.71122         5.28332        -3.79607
LJ          -1.65896        -4.46976       -0.555254
LJ           6.36982        -5.97934        -2.45904
LJ         -0.864575         4.84447        -1.92687
LJ          -3.99848        -5.44441        -2.22499
LJ           3.06152        -1.13816        -5.31723
LJ          -3.70492         1.99468        -3.22779
LJ          -3.54583        -1.33187         4.68774
LJ          -4.66558         2.35276        -2.67207
LJ          -4.65402         2.46762        -4.39894
LJ           3.50888         2.26835        0.117212
LJ          -2.10823         4.53231        -2.07534
LJ           5.56786        -3.17649           1.734
LJ         -0.771204        -2.47006         1.71123
LJ          -4.92346         4.55693        -2.50198
LJ          -1.63312      -0.0943689         1.55691
LJ           2.68037        -3.65607         2.26763
LJ          -4.77995        0.736176        -3.46849
LJ           3.02865        -3.01012         4.31646
LJ          -3.22815          5.3338        -5.52247
LJ           2.39789        -1.48282         3.83032
LJ           1.88139        -6.12226        -1.75968
LJ            2.7445         4.51433        -5.19582
LJ          -3.39218        -5.32622       0.0602492
LJ         -0.741017        0.402302         4.25517
LJ           0.80853         5.18578        -1.51716
LJ          -4.90937        -5.54411       -0.292409
LJ           2.55455        0.581337        0.350469
LJ           1.93246          2.7995      -0.0170214
LJ            2.5419          0.0621         3.73901
LJ          -1.76459        -2.99673        0.206134
LJ         -0.908509         6.19737          -3.715
LJ          -4.53529        -1.08682        -4.86397
LJ          -5.32881         5.17652        -5.88211
LJ           4.21017         4.15991        -5.20972
LJ           3.28737        -1.43612          5.0504
LJ           3.40555        -1.00712         3.19944
LJ           2.97239        -5.44368          4.9954
LJ           1.50815        -4.42571         3.67416
LJ           2.62842         3.81423         -1.2851
LJ         -0.560426         1.41031         4.58544
LJ          -5.90517       -0.991251       -0.114326
LJ          -2.21418         5.68611        -1.29475
LJ            -2.122        -5.31221         5.58193
LJ          0.511534        -5.27622         5.96467
LJ           3.48841        -1.64247         4.03595
LJ          -5.98742        -5.36693       -0.816324
