108
#Comment!
LJ            3.2884          3.5115        -3.65646
LJ          -4.56687          -2.126        -6.20794
LJ            4.2157         2.39216        -1.63524
LJ          -5.28575       -0.148615         5.68195
LJ          -0.57222        -5.01252         5.39339
LJ           3.80363         5.77277         3.33809
LJ          -4.30235         6.34105       0.0921398
LJ           3.45539         3.92722         3.85074
LJ           1.63637         4.44281         3.30499
LJ          0.233457        -2.24912        -2.01998
LJ          -5.14016        -5.38772        -3.44351
LJ          -5.52303         4.11543        -3.32199
LJ          -6.33606        0.510664        -6.46312
LJ           2.84397         3.53975         5.56531
LJ          -5.25958         2.99372        -3.07819
LJ          -1.35367        -5.80671         3.59579
LJ          0.496628        -6.08557         3.90652
LJ           5.77654         4.52845         4.31729
LJ           1.24721         5.87861         2.50085
LJ           3.31931        -2.05715        -5.10968
LJ           2.28237        -6.44385         3.58729
LJ          -1.56376         5.88056        -4.95176
LJ           3.37447        -4.84744      -0.0845362
LJ           4.88591        0.756672       -0.587631
LJ           4.33472         6.16705         1.80605
LJ          -3.92661       -0.506772        -5.81804
LJ         -0.600987        -2.70094        -2.26491
LJ         -0.787599         2.51551         4.06803
LJ          -4.87041        -2.44035         2.01798
LJ           1.04246        0.296704         2.63978
LJ             2.408           3.284          -1.519
LJ          0.704357         1.60132         2.38178
LJ           2.11274          3.5421         1.39824
LJ           5.66567         4.79598        -2.96149
LJ          0.406937        -5.55653       -0.967189
LJ          -1.76244        -3.22369       -0.198557
LJ          -6.31319         1.03092        0.914001
LJ          -5.78147         3.63608         -1.0371
LJ          -4.61366        -5.46295       -0.669452
LJ         -0.924554        -4.52822        -3.39841
LJ          -2.38919        -5.11465        -3.65137
LJ           2.46163          3.4786        -5.38514
LJ          -5.56997         3.18576         2.11685
LJ           3.89781         4.40067          5.8111
LJ          -4.91154         4.51501         2.28034
LJ           5.95555        -4.16533         2.05731
LJ           4.81212        -1.18939        -2.09012
LJ          -5.38085        -6.13764        -1.24914
LJ           -2.6864        -6.35559        -4.62938
LJ          -2.18054         1.16188       -0.800737
LJ          0.756879        -0.59502         2.23626
LJ           5.42741        -2.55929       -0.893918
LJ            1.0277        -5.17344         3.75833
LJ           2.18289          1.4885         1.96084
LJ          -3.40784        -1.08655       -0.714793
LJ         -0.726381         4.79834        -1.66215
LJ          -2.59611         -1.0851        0.205298
LJ           2.81647        0.818193        -3.18089
LJ          -5.57252         5.75672        -0.31086
LJ           5.43945         5.46917         5.75211
LJ            5.6814        -5.72887        -3.57003
LJ         -0.514465         0.55788         4.87201
LJ          -2.53394      -0.0655474         3.88315
LJ          -4.82426         -3.9028        -1.58579
LJ          0.325555       -0.804187          -4.374
LJ          -5.95914         -2.9253        -5.20834
LJ          -3.65743        -5.75326       -0.837717
LJ            2.9332        0.808899         2.61993
LJ           5.51473         6.14619         1.57472
LJ           5.30135        -4.54655         2.97858
LJ            6.0263        -4.67137        -4.15836
LJ         -0.788106        -4.73947        -5.33727
LJ           2.96829        -3.80494        -0.81551
LJ            5.3367        -2.56385         4.92984
LJ           6.17316         6.25425       0.0602058
LJ           2.78959        -5.64505        -6.44428
LJ         -0.114137         6.18808         1.52616
LJ           3.07551        -2.97614        -4.15927
LJ          -1.15579        -3.02178         2.86415
LJ           -3.2645         2.96444         1.04522
LJ            0.8065         4.91772         5.43184
LJ           6.45772         3.07619        -4.51154
LJ        -0.0705511         3.91586        -5.66138
LJ           3.03056         3.96278         -2.4027
LJ           3.51595          2.4646        -4.70936
LJ          -6.38515         2.67905        -0.20806
LJ          -4.76466        -3.82244         4.89632
LJ           -5.9246         2.71267         6.41016
LJ         0.0835648         4.81969        -6.15351
LJ           4.00247         4.84297         4.40691
LJ          -1.40753         5.21306        -1.00881
LJ          -6.37038        -5.59254         2.60268
LJ           3.72383        -4.49986        0.857146
LJ          -4.57894        -4.07249         2.83686
LJ           -1.7217         2.21054         4.52548
LJ          -4.49272        -4.59029        -3.87887
LJ          -5.38738        -6.22883         2.80919
LJ          -0.70975        -3.90647        -4.47809
LJ          -5.54674        -2.60516         5.57491
LJ          0.855968       0.0319337         5.34697
LJ           2.06357         5.51019        -3.41624
LJ           1.08509        -2.57511         1.70161
LJ          -3.45305        0.506237        -3.81594
LJ           2.85555         2.27104         2.91112
LJ          0.264574       -0.347788         1.18764
LJ          0.921028       -0.508855          3.4137
LJ          0.748103         2.65543        -6.12393
LJ          -3.24842        -3.29847       -0.983493
