108
#Comment!
LJ         -0.531692        -1.02171       -0.442684
LJ           4.50273         -1.8992       -0.611537
LJ          -5.37049         2.88173       -0.613482
LJ          -2.35794         4.87756       -0.871351
LJ          -3.36301         5.02006         2.57637
LJ         -0.124247        -1.11499         1.87323
LJ          -2.55293         -3.8341        -1.95711
LJ          -5.38765        -5.91997         1.42464
LJ           1.82969        -6.38891        0.243156
LJ           3.99922        -4.34828        -4.81579
LJ           3.30062        -6.00932        -2.59805
LJ           4.72362        -3.39995        -1.08167
LJ         -0.214889         -2.1065         5.85197
LJ            2.3022        -4.46332       -0.203513
LJ          -3.83847         3.58112        -5.91507
LJ           5.21088         3.16749         4.67717
LJ             5.376       -0.813929        -3.31137
LJ          -5.15616        0.465064        0.741032
LJ           2.14903          3.0274        -4.33508
LJ          -3.17298        -4.79455         5.27572
LJ          -3.49634        -3.84211        -4.51772
LJ           1.11897        -5.55988         5.10396
LJ           1.33481         -1.3809        -6.26509
LJ          -2.16071        -6.39849         5.66278
LJ          -4.51688         4.17214         6.30744
LJ          -6.10798        -1.32943        0.732799
LJ          -2.68864        -5.07651        -1.24219
LJ          -5.52075        -5.36767         -1.2374
LJ          -3.02831       -0.714598         3.05836
LJ        -0.0135934         2.99231        -2.93971
LJ          -4.32176         1.08511        -1.41567
LJ          0.687585        -3.39036         -1.2649
LJ           6.28711       -0.683814          2.4252
LJ          -5.47193          0.6749         6.09245
LJ          -3.44773        -2.44666          -2.926
LJ           4.49422        -0.15616         6.11462
LJ           6.16652       -0.207618        -4.04978
LJ           4.21242         5.09119        -3.84593
LJ          -3.21732         2.41717         1.22493
LJ          -5.13171        -2.43607         5.08261
LJ           2.86086        -4.95275        0.504121
LJ          -5.92829        -5.50907        -2.30285
LJ          -4.48904         0.13319         5.87956
LJ          -3.60676        -5.13103        -2.73208
LJ           3.68208         1.16107        -6.29485
LJ          -3.14175         2.76619        -4.03434
LJ           5.53057        -4.88545         2.40169
LJ          -4.61545        0.329362         2.69432
LJ          -1.28485         4.40633        -2.76761
LJ           3.40455        -1.92639        -6.40926
LJ            0.1805        -1.13749        -3.09548
LJ          -4.13732        -5.57034         -1.3295
LJ          -3.32001        0.361471         3.49366
LJ          -3.28991         3.30929      -0.0275803
LJ          -2.48607         3.32801         1.94318
LJ           4.49448         5.67202         1.45478
LJ          -5.87307        0.864585        -5.96791
LJ           -5.1559         4.15222        -3.20215
LJ         0.0607108         1.70923        0.426721
LJ          -6.26413         5.29716         -5.8593
LJ         -0.731731        -3.43675        -1.50059
LJ          -5.13553         3.52437        -5.96998
LJ           2.11762        -5.57909       -0.716752
LJ           5.79753         2.49346        -2.88522
LJ           5.18995         3.60028     -0.00554364
LJ          -2.74935        -5.40828          6.2941
LJ           6.01523         -6.2606         6.21774
LJ          -1.89088        -5.22055         5.71332
LJ          -4.85562        -0.28169       -0.986679
LJ          -5.34071         6.16864         3.89236
LJ          -6.21456          -1.262        -5.32061
LJ          -6.00839        -4.59702        -5.43339
LJ          0.561748        -2.64948         5.28323
LJ           1.63995         -1.7464         4.82214
LJ          -1.12415        -6.18727         6.28054
LJ          -6.15043         5.25696         2.70697
LJ          -1.30255         4.53745         3.42459
LJ          -5.69128         4.39023         -4.5085
LJ         -0.393092         5.47768         1.95227
LJ           3.53547        -2.55816         5.64749
LJ         -0.634435        -5.21441        -6.45214
LJ           5.16697         3.09017         2.08577
LJ           4.69827        -1.08468         4.60816
LJ           -6.4628        0.309536         5.90298
LJ           2.88427        -4.19361        -4.92534
LJ           3.04855         5.26408       -0.966844
LJ          -1.89696         1.48901         3.90855
LJ          0.732368        -1.64193         3.92122
LJ           -5.2093         5.20489        -3.77941
LJ           3.70387         5.91243         -5.9262
LJ           3.84439         5.54971        -1.97525
LJ           4.09221         -2.7078        -1.51894
LJ          -5.54419         -4.2343        -2.60619
LJ           3.41895        -1.17793          1.2149
LJ           4.21276        -3.64947         6.42841
LJ          0.323413         1.20437        -1.50385
LJ            6.2744         6.44473         4.62386
LJ          -2.87945         2.89746         -5.3643
LJ            4.7774        -1.97795         0.47805
LJ           6.40611         3.91721         5.63689
LJ          0.803857       0.0122934       -0.725217
LJ          0.355822        -4.85904        -1.60458
LJ          -4.31684         2.97829         5.93018
LJ           4.96476        -1.78497        -4.63361
LJ           3.61044       -0.312445         1.92372
LJ           2.88001        0.980871        0.557204
LJ           3.54761        -0.19992        -5.03056
LJ          -1.97428        0.015922         5.02919
