108
#Comment!
LJ           3.97775         5.10157        -5.63136
LJ          -2.13123        -2.31979         6.21933
LJ          -5.95316       -0.573625        -3.17011
LJ          -2.31585        -1.30936        -6.18299
LJ          -3.56195        -3.72065         6.03263
LJ           3.79027         1.16609         3.29581
LJ          -4.34134        -4.74963        -1.33063
LJ           6.19467         4.30166        0.722613
LJ         -0.679525         3.64375         6.00395
LJ           3.61939         -3.6629         2.34791
LJ           5.74353         6.35434        -4.33154
LJ          -6.24514         4.46204        -2.73351
LJ           4.58726       -0.644998        -5.66981
LJ          0.643557        0.346489         6.45321
LJ            4.4339          2.0234        -2.71708
LJ          0.700639        -5.95642         2.34456
LJ           2.03889         3.93552         4.83552
LJ           2.96849        -5.60825         5.04821
LJ           1.63134        -4.62244       -0.865113
LJ           2.25516        -3.97075         5.79116
LJ          0.991324        -4.71833         5.26775
LJ         -0.282824         -6.1206        0.372022
LJ          0.991504        -3.34431        -1.71754
LJ          -6.19826       -0.514597        -1.57945
LJ           1.50087         5.70579         4.20099
LJ          -1.17142        0.368296        -6.02846
LJ          0.253802        -2.90863        -3.39014
LJ           0.35554         1.48716         5.11345
LJ            -3.855       -0.573575         4.08065
LJ           3.40647        0.669038       -0.239068
LJ          -2.29749         3.36993        -2.57516
LJ           4.17932         1.35785        0.453295
LJ         -0.677585         3.02993          3.2851
LJ           2.36955         2.98266          -3.682
LJ          -1.99602        -5.87277         1.42199
LJ          -2.27736        -3.39203        -1.57853
LJ           5.67772         4.05376         -2.0179
LJ          -4.60836          6.2792        -3.14408
LJ           4.58197        -4.23079       -0.467807
LJ        -0.0783235        -4.92383        -1.33726
LJ           -4.0687        -5.86222        -2.21042
LJ           3.04163         5.68772        -5.15243
LJ          -4.44191         4.20822         1.23994
LJ           3.81837         4.25636         5.07578
LJ          -4.33571         5.52783         4.90673
LJ           5.26355        -4.80669         2.48191
LJ          -5.68163         1.57601        -1.21269
LJ          -5.31216        -5.96028        -1.17935
LJ           5.25441        -4.25407        -3.68933
LJ          0.241501         2.29154         2.50828
LJ           -1.6011        -3.91493          2.7043
LJ          -3.43795        -1.11042        -0.92765
LJ         -0.228421        -4.37704         1.47062
LJ           3.77486         2.45136        0.853166
LJ          -5.76587        -1.23748      -0.0357298
LJ          -4.23505         4.73897        -2.37044
LJ         -0.046883        -4.05438        -3.44987
LJ           5.66214        0.654368        -3.10499
LJ           5.30323         4.79471        0.320607
LJ          -3.45542         6.20846        -3.76957
LJ          -5.61523          5.4765        -1.86896
LJ           4.30447         1.26139         4.31378
LJ          -2.12061        -3.34416         -4.8243
LJ          -1.66018        -1.03517        -2.92357
LJ           2.43703         -4.3974        -3.10115
LJ            -5.081         1.59498         4.22516
LJ          -5.33096         6.45235          -5.602
LJ           2.00435         1.68419         2.10202
LJ           6.08123        -6.23376         2.41933
LJ           3.77665        -3.53136       0.0682887
LJ          -6.46031         6.35196        -2.65103
LJ          -1.28879         5.45913        -3.05162
LJ           2.18245        -5.29616        -5.28991
LJ           5.03719        -2.78772        -4.40481
LJ           -3.9474        -5.60416         2.23227
LJ           3.03859        -0.76077         5.12571
LJ           1.77704        -5.60367          2.6974
LJ           3.69433        -4.19935         5.10139
LJ          -2.44645        -3.40875         1.79593
LJ          0.692775       -0.641339         2.40345
LJ          0.499675         6.17337         4.02414
LJ          -6.15871         6.04345         1.19045
LJ         -0.226223        -6.10972         5.85667
LJ           5.63697         5.81405         -5.5202
LJ         -0.575459         4.03639        -6.06203
LJ          -3.67839         1.18587         1.10197
LJ            5.4957         6.16233         6.39824
LJ          -3.40788       0.0933431         4.82677
LJ          -1.92239         4.21045         4.02424
LJ           5.57039        0.820815         5.32884
LJ          -4.38433         3.45804        0.461618
LJ            6.3315        -5.60499         3.31197
LJ           0.97898        -3.28731         1.36624
LJ          -3.51503       -0.894878         2.23982
LJ          -2.84742         1.85492         3.90277
LJ           4.72885         5.12835        -6.44273
LJ          -4.82887         4.10062         4.55149
LJ         -0.349148        -6.27365        -1.67597
LJ          -4.19158        -4.31266          5.2685
LJ          0.285081        -2.33144         4.82217
LJ           1.37286        -4.23125        -5.33252
LJ          -1.02444       -0.633548        0.358063
LJ          -5.53327         1.58851        -5.65177
LJ           4.21149         2.37886         4.69565
LJ         -0.202509        0.844728         2.58791
LJ           2.55668         1.49972         3.21714
LJ          -0.46645         4.71713         5.36049
LJ          -3.40223        -1.58646         1.36968
