108
#Comment!
LJ           2.74409          6.2961        -1.08718
LJ           2.55323         4.02723        -5.80322
LJ          -3.45992         2.72108         5.97974
LJ           -5.2474         3.33271         3.85723
LJ          -2.72138        -2.50197         5.77285
LJ          -1.21327         4.38456        -4.94432
LJ           5.09557       -0.735863         -2.1847
LJ          -5.78836         3.88548         2.26814
LJ          -3.95673         5.03123       -0.635599
LJ           5.83341        -2.39032         2.20842
LJ          0.759647          1.5214         -3.7952
LJ           4.57165        -6.32628         1.16186
LJ           -4.4089        -5.71765        -4.98566
LJ          0.535821        -4.64107        0.372823
LJ           3.43611        -2.91985         5.99537
LJ          -5.90305         6.21186         5.64582
LJ          0.632389        -1.35834         1.78462
LJ          -1.05869        -3.69812        0.364473
LJ           4.77078         2.29289         4.64229
LJ         -0.683671        -1.71963         2.06568
LJ          -1.10568        -5.17065         6.26385
LJ          -4.25284         5.64785        -4.30043
LJ          -2.95201        -4.67722       0.0790063
LJ           5.69693        -3.96596         1.32091
LJ          -6.30685       -0.406897        -1.86574
LJ            4.6734        -6.31074        -2.71044
LJ           2.62653        -5.60593         4.40037
LJ           3.24014        -1.46042         3.65441
LJ            2.7934         5.83594         4.85327
LJ           1.95766         4.49199         5.43826
LJ          -1.68933         1.39039        -3.34169
LJ         0.0477998         2.47717         2.31846
LJ         -0.177184         3.90059        -6.42815
LJ          -4.36534        -3.55409         1.61359
LJ           1.22952         2.36301        -3.51453
LJ           5.15363        -6.35682        0.282611
LJ          -4.66105         5.38114         3.38691
LJ          -3.24881       -0.358999        -5.31025
LJ          -3.46241        0.196197         6.01875
LJ          -4.46915         1.06659        -2.62479
LJ            4.9064         2.94857        -2.60179
LJ          0.102169         3.58703         4.71146
LJ          -2.66468         6.35462        -2.45812
LJ          0.577052         6.29816        -4.86434
LJ          -1.04439        -3.83598         2.62296
LJ           -3.9809         3.70826        0.742115
LJ           3.25635        -6.41652         -2.6534
LJ          -3.75805         3.82363         -2.1557
LJ            5.1686         5.72485         4.34016
LJ           1.17828         4.29759        -4.12544
LJ           2.87121        -1.58374         1.17627
LJ          -5.97817         -5.2993         3.32541
LJ           4.05682       -0.896665        -1.40323
LJ           4.27232         4.18846       -0.595181
LJ           -4.6906       -0.279656        -1.71615
LJ            2.8149       -0.246965        -2.91527
LJ           5.12527        -4.71234        -4.39515
LJ           2.39966        -2.75883        -3.02322
LJ           3.62335        0.717567         -4.4625
LJ          -4.97164         5.45507         5.06506
LJ          -4.74844         4.88431        0.457351
LJ           5.98528         5.02248         -1.1913
LJ          -2.86317        -5.88614       -0.370481
LJ          -4.12117        -4.31033        -1.76868
LJ          0.631616         4.29903         5.46586
LJ           4.43269        -5.37707         -1.7388
LJ           4.20127        -3.18265         1.49657
LJ          -2.82092         3.94822        -3.73699
LJ          -3.31305        -1.18231        -3.28411
LJ           3.27117         5.46443        -4.57203
LJ         -0.610926         1.87694        -3.10599
LJ           6.08056         6.07865         2.71106
LJ          0.761896         4.78734        -6.35315
LJ          -5.00131        -5.01752         4.55237
LJ          -5.27849        -2.86986        -3.84532
LJ          -3.35173         4.35968          -2.954
LJ           4.54845         3.83544         2.76678
LJ         -0.209412        -2.82943        -2.36202
LJ           5.34813        0.884317         1.10119
LJ           5.83401        -2.97995        -5.61897
LJ          -3.98655         -5.3958        -3.67287
LJ          0.863214         -3.0535        -6.23303
LJ          -1.11111        -6.19127         1.71992
LJ           2.11629         2.88261         1.99128
LJ          -2.36017         -3.0133        -3.85245
LJ           -4.3756         1.36108        -5.92614
LJ          -1.32158       -0.488038         -1.5408
LJ          -4.81786        -6.42113        -3.87602
LJ           2.96449       0.0402383        0.570824
LJ          -4.89379         2.09513         2.70111
LJ           3.61905        0.857727        -0.49906
LJ         -0.959698         5.81883         6.21453
LJ         -0.690906        -3.21035         -3.2142
LJ         -0.471569        0.274151         4.97053
LJ           5.92759         2.21535         3.34697
LJ          -1.21638         5.30666        -3.98791
LJ           2.77792         1.70742        -5.78521
LJ           1.45251        0.722059       -0.158229
LJ           4.88661        -4.87494        0.106183
LJ         -0.812374         5.54569        -5.19371
LJ          -5.83303        0.680085         -4.9438
LJ          0.944993         6.01368         3.58131
LJ           -2.9667        -3.53664        0.568746
LJ          -2.57341           5.249        0.122033
LJ          -6.00119         5.00912        -1.68722
LJ          -2.39177        -6.07697         5.09733
LJ           4.54438        -5.65282          2.9935
LJ          -5.50005         5.45778        0.252064
