108
#Comment!
LJ          -2.03807         5.70397         5.66353
LJ           4.38105        -3.22634         6.00542
LJ          -1.74464        -4.57214        -5.31069
LJ           4.43446        -5.81847        -5.07065
LJ           2.42051        -4.64504        -6.05538
LJ          -3.89612        -4.15188        -6.39288
LJ           1.75799         -5.0484        -2.78654
LJ           -4.4393        -6.04227        -4.71716
LJ           5.93187        -6.30888         5.33868
LJ        -0.0783287        -4.99176        -5.35124
LJ           -6.2488        -5.38399        -4.85849
LJ          0.311242         6.05361        -3.61352
LJ          -2.68918        -1.63498        -5.12226
LJ           4.16079        0.263027        -6.11829
LJ          -2.31528        0.838377        -3.56111
LJ           4.13838        -1.65974         -4.9613
LJ           1.77967        -1.16639        -6.20777
LJ          -3.84644        -1.37897        -6.40346
LJ           1.26588       -0.770542        -5.22381
LJ           0.90484        -4.25572         6.42551
LJ          -5.17706        -2.68601         6.11711
LJ           1.66392         1.18521         6.19652
LJ          -5.49456        0.387958        -6.17927
LJ         -0.509859        -2.56567        -3.52222
LJ          -1.65395         4.87006        -6.37908
LJ           5.05349         3.80662        -6.37073
LJ          -1.13635          4.3403        -4.04317
LJ           4.74274         2.77116        -4.13898
LJ           2.42145         1.76659         5.63716
LJ          -5.07185          3.4299         -5.5516
LJ           1.73777         4.52526        -3.78864
LJ          -4.46838         3.95726        -3.99257
LJ          -6.38702         2.55013        -6.14372
LJ          0.131144         3.72865         5.88126
LJ          -6.33716         4.64911         -4.7279
LJ         0.0582289         3.38528        -3.94584
LJ          -1.44098         5.83954        -1.85671
LJ           2.96588        -3.98752        -3.13388
LJ           -1.4077        -4.22577       -0.690885
LJ           4.11724         6.29239        0.848025
LJ           1.63476        -6.30781        -1.54534
LJ          -4.43501        -5.08767        -3.19715
LJ          -2.98519        -6.27655        0.403571
LJ          -5.06466         5.86989        0.444524
LJ           6.40658         5.84031        -2.37773
LJ           4.69973        -4.39787        -5.38799
LJ          -6.23145        -6.32234      -0.0507702
LJ          0.616816        -5.69651        0.213839
LJ          -2.51907        -1.52209        -2.63228
LJ           4.70212         1.41219        -2.21271
LJ          -2.62302        0.362782        -0.34843
LJ           3.96436        -1.85334       -0.439708
LJ          -2.16767       -0.668718       -0.726834
LJ          -3.40783         1.05204        -1.99421
LJ           2.10171       -0.354129        -1.03474
LJ           1.15078        -0.67697       -0.433864
LJ           3.08127        -3.94532         1.60749
LJ         -0.358797        0.380068        -2.36112
LJ             4.665         1.55891        -0.30632
LJ           0.78425        -3.82628        0.341562
LJ          -2.47926          2.9328        -1.68955
LJ           5.79796         3.21911       -0.268948
LJ          -2.33113         4.08331         0.86423
LJ           4.70871         2.16934        -1.47682
LJ           2.67607         3.22417        -2.23498
LJ          -4.88735         5.37995        -1.83463
LJ           2.25335         4.02658         1.02716
LJ          -3.89037         1.68974        0.286088
LJ           4.58487         3.32985        -3.35136
LJ         -0.298285         3.19009        -1.55153
LJ           6.31727          4.3257        0.112493
LJ           0.96712         2.50545       -0.890327
LJ          -2.24564        -6.31951         1.58815
LJ           4.09008         -4.6745         1.89995
LJ          -2.29151        -5.47924         4.38347
LJ           4.53387        -6.31251         3.95599
LJ           2.32326        -5.44139          2.4023
LJ          -4.09181        -4.68575         2.47696
LJ          0.610074        -3.11667         3.11497
LJ          -4.80643         -5.8328         4.66476
LJ          -6.45244         5.88238         2.79764
LJ         -0.221676        -4.62584         2.19351
LJ          -6.03754        -4.14599         4.48871
LJ         -0.136765        -6.26072         6.05744
LJ          -4.06453         -4.1281      -0.0839809
LJ           3.19034       -0.386741         2.06155
LJ          -2.17746          1.7947         4.26238
LJ           3.90763        -2.53401         3.76402
LJ          -3.55261       -0.477385         1.87777
LJ           2.13228        -1.12656         2.72835
LJ            2.8254        0.929897         3.37005
LJ          -3.15089        -2.77739         3.98452
LJ          -6.24605        -2.39045         1.62718
LJ         -0.229653        0.718825         2.80207
LJ          -6.14237        0.274711         5.62978
LJ           2.33511          -1.462         5.28008
LJ          -3.58148         1.20114         3.98743
LJ           3.85122         4.42628         2.92086
LJ          -3.12853         4.21758         4.10472
LJ           4.86543        0.840305         4.00384
LJ          0.691618        0.662263         2.30272
LJ          -3.94671         4.24018          1.5915
LJ           2.37739         3.96793         3.83449
LJ          -4.22037         1.86207         5.09943
LJ           5.79787        0.325174         2.54225
LJ         -0.331668         3.92945         1.54984
LJ            5.6565         4.47408         5.06037
LJ         -0.489693         1.13681         3.90129
