108
#Comment!
LJ          -5.51671         0.91656        -2.31013
LJ          0.155398         3.32269       -0.351083
LJ          -2.99639         -5.0417         2.79599
LJ          0.144745        -1.77803         6.38808
LJ            1.4416       -0.490681         4.45942
LJ          -5.31197       -0.782689         3.14305
LJ           2.65437         4.38003        0.291443
LJ           4.16746         4.67337         2.94496
LJ           1.66974        0.015801        -4.07951
LJ          -4.52297        -5.16652        -3.34503
LJ           5.34499        -4.61648        -1.61631
LJ           2.44797         3.24198         2.83724
LJ           1.94021        -3.78698       -0.860208
LJ           4.51804        -2.22897        0.874167
LJ          -2.38835        -6.13197        -1.16303
LJ           4.92173         2.46274        0.182253
LJ          -0.83446        -3.21626        -2.00444
LJ          -5.83774        -5.35712        -4.00428
LJ          -3.52274         5.55066        -1.87345
LJ          -1.06856         0.45455        0.203318
LJ          -5.34345        -2.23004         3.10052
LJ           3.97681        -1.21067         -1.8301
LJ          -4.62257        0.998935        -3.07665
LJ           4.06112         1.59187         -5.2182
LJ           5.48867         2.12202         3.15018
LJ            6.0576         3.88142        0.135983
LJ           5.82879        0.935225         2.86228
LJ          -5.48121        -4.78202         -1.6757
LJ           5.01788         3.49525        -2.57724
LJ           6.23828         4.68889         -4.3763
LJ          -5.71837        -1.81458         1.82998
LJ           2.90148         1.01252         3.20684
LJ          -4.33628        -4.25499        -1.56199
LJ           5.54958         1.50625       -0.135656
LJ          -6.11989         2.55012       -0.105159
LJ          -5.34016         2.73079         5.86128
LJ          -6.15414        -5.94109         5.30141
LJ          -5.00303        -2.65866          -3.618
LJ          -4.15814        -3.37969           1.039
LJ          -2.27711         4.42216         3.52003
LJ         -0.187464         4.41077        -2.67855
LJ          -2.03208        -4.86704        0.102991
LJ           2.76578        -1.23561        -1.36165
LJ          -5.97659        -5.87976        -2.63645
LJ           2.38697        -0.46705         3.89427
LJ           5.19049        -5.39746        -4.91552
LJ          -2.39828        -3.39322       -0.623932
LJ          -6.06898         3.40068         4.81139
LJ          -2.83517         2.24246         5.65384
LJ          -5.74467         5.24957         2.15583
LJ          -3.73724         4.51382         1.97839
LJ          -4.79934        -3.82312        -4.44831
LJ         -0.591047        -2.25147        -5.86146
LJ          -3.70946         1.63954        -6.08737
LJ           4.17388         3.64541         1.07596
LJ          -3.52632         2.83515        0.268062
LJ         -0.549235       -0.824485        -2.71164
LJ         -0.980872        -2.35421        -2.44965
LJ           5.33844        -6.30583         1.88998
LJ           3.73105        -2.07567         3.44346
LJ           5.31887         4.08486         1.66392
LJ           3.56326        -6.05854        -6.03655
LJ          -3.84377         5.08639         -3.6409
LJ           2.95953         4.25766         2.21636
LJ           2.45754         -2.4863         6.01522
LJ           0.21945        -2.46716         5.46705
LJ          0.399791        -2.24741        0.985733
LJ           5.70935        0.618354         6.26474
LJ          -1.53897       -0.233999        -3.65066
LJ           6.35739        -2.64992        -5.11356
LJ           2.84491         4.61012         4.20826
LJ             4.917         1.76401        -3.83104
LJ           2.67081        -1.99039        -4.70922
LJ          -4.66557        -2.69772        -4.85774
LJ          -4.08405         2.38188         5.25142
LJ           3.27198          3.8528         3.09928
LJ         -0.225228         -5.8198         1.04794
LJ          -4.68044        -1.90385        -2.42854
LJ          0.241009        -1.58026        -3.65786
LJ          0.769087        -3.79314        0.952693
LJ         -0.716375         1.62633         6.10031
LJ          -2.05964         4.98794         4.44779
LJ           5.06351        -1.28746         4.06786
LJ          -4.60365         -5.6027        -1.21284
LJ           2.78422         3.26076        -6.16043
LJ           -2.6988        0.247888         1.66177
LJ           1.26491        -4.25707        -1.91343
LJ          -4.54584        -6.29343        -2.32887
LJ           1.87034         3.88121        -1.84417
LJ          -2.76833        -3.65702        -4.31811
LJ           3.13726        -5.85247         -2.9063
LJ          -5.80333         2.98704          2.4065
LJ          -4.70845         2.88484        0.922946
LJ          0.922497         5.47608         5.60274
LJ          0.800625         6.12744         2.60062
LJ          -5.47205         5.57977        0.897187
LJ           1.72941       -0.234886        -2.25294
LJ         -0.616641         4.96324         4.42828
LJ           6.45238         4.44363        -3.26426
LJ           3.92505         5.41367         -3.0193
LJ           5.09631         5.68009         5.79741
LJ          -2.37073        -4.35009         2.33414
LJ             5.924          2.0687         1.23715
LJ          -5.48011        -0.33075         2.19061
LJ           1.63581        -2.18024        -1.06876
LJ           3.62306         5.43283        -4.52885
LJ         -0.597284         1.54925         4.62757
LJ          -5.79879        -4.43929       -0.669165
