108
#Comment!
LJ            2.7625        -4.48793         2.24218
LJ         -0.429772         3.80315        -5.60288
LJ          -4.49579         4.34642          -5.226
LJ          -1.29934          1.0208         5.91274
LJ          -3.24215        -6.12874        -2.21163
LJ          -1.81795         1.60841        -4.06686
LJ           2.70799       -0.677106        -3.59187
LJ          -4.37748          5.3349        0.216272
LJ           4.81302         4.14488        -1.00276
LJ           3.29862        0.116914        -6.43293
LJ         -0.453728         1.48149        -5.48741
LJ           4.79349         5.54883        0.273893
LJ         -0.980608        -5.99818        -4.18768
LJ           1.41244          5.8506        -2.84866
LJ           1.41557        0.145012        -6.10675
LJ           5.87566        -3.66462         5.94501
LJ           3.67416        -2.52358        -5.97898
LJ         -0.743156        -3.14485        0.229868
LJ           4.56741         -1.1156         1.98424
LJ          -1.44118        -1.04562         2.39184
LJ          -1.90466         2.48424        -6.23111
LJ          -4.87843        -5.12622        -2.73276
LJ          -6.42834          4.3304         1.91319
LJ           3.72216        -2.95322         3.17321
LJ           5.36003         1.29588        -3.50512
LJ           5.36062         6.21222       -0.772414
LJ           4.28697        -3.59807         3.78969
LJ          0.444021        -5.01874         6.46026
LJ          -5.93495        -5.15965         3.90479
LJ           2.42485         3.78404         5.46163
LJ            1.4278          0.8959        -2.11464
LJ           1.24342         1.98923         2.08935
LJ          -1.10841         4.89973        -4.13511
LJ            -2.681        -5.39614         4.22883
LJ         -0.698679          4.9439        0.191072
LJ            1.1829        -6.29073        -4.15572
LJ          -2.62127          3.5922         1.06868
LJ          -2.98598       -0.878687        -6.06805
LJ           -4.4975        -2.39094         3.89879
LJ          -4.46151       -0.128649         -4.6718
LJ          -4.67408        -1.56656        -5.31758
LJ          -1.39058         2.10668         2.01355
LJ         -0.369069        -2.66601         -3.1098
LJ          -4.58174        -5.78929         5.77477
LJ          0.118821        -6.16515        -6.29647
LJ          -4.70878         5.67661          1.4404
LJ          0.983478        -3.91843        -5.71541
LJ          -3.85551         6.00681       -0.969391
LJ           2.72536        -5.96318         5.50811
LJ          0.640106         3.40191       0.0065318
LJ           3.16721        -1.51852          1.9045
LJ          -4.62578        -4.85152         1.36369
LJ           4.34603        0.649945         3.33743
LJ           5.36382        -5.09166        0.229795
LJ          -6.00607        0.249337       -0.964543
LJ           3.34158       -0.184508        -4.50848
LJ           5.69574        -6.09136        -4.78641
LJ           1.65835        -3.18144        -2.21118
LJ           3.96096         3.68546        -3.49312
LJ          -5.76031         4.44069         5.35088
LJ          -6.39426         3.04803        -2.29715
LJ           3.00601         5.90668        0.945254
LJ         -0.536991        -5.72087        -2.83343
LJ           -2.5737        -5.28898        -1.84437
LJ         -0.984403         4.42302         4.84056
LJ        -0.0708297        -4.48812        -3.17893
LJ           4.69457        -4.20844         5.26737
LJ          -1.47771          2.7179         4.27182
LJ          -2.55773        -1.65276        0.645198
LJ           1.20436         5.84021         -6.2399
LJ           1.30266          1.3319         -3.1563
LJ            -4.201        -4.40097         2.64341
LJ           3.21081         2.94966         3.61136
LJ          -5.88641         5.56086        -5.80903
LJ          -3.38916         -1.5582        -3.91248
LJ            -1.938          4.2641         -3.2073
LJ          -4.09592        -6.23559         3.57932
LJ         -0.874693       -0.864211        -2.93101
LJ           3.48625         1.24418         4.76536
LJ          -2.40906        -2.16637        -2.71116
LJ           -5.8391         -5.4453        -1.61712
LJ          0.165243        -4.57384        -4.73224
LJ          -2.62368        -5.23904       -0.065765
LJ           1.69902         1.46663        -1.24578
LJ           2.39001       -0.646474          5.2609
LJ          -5.34849         3.92334         6.12453
LJ          -2.35642        -3.39956        -1.54012
LJ          -3.17651        -4.69299         4.74984
LJ           2.19593         2.60288        0.426779
LJ           5.05769          1.1213         2.47897
LJ           4.62043      -0.0759001        -3.29824
LJ          -1.68375         3.32659        -2.38279
LJ         -0.915623        -2.89168         5.63071
LJ           4.15212         2.50396         4.74444
LJ           5.33867       -0.792889          1.0482
LJ          -4.00514        -4.95367        -6.26957
LJ           2.35508         4.18465        -4.09686
LJ          0.439273         1.36981        -2.41365
LJ          -5.05056        -6.22771        -3.47353
LJ         -0.434613         3.51979        -2.55025
LJ          -6.34065         3.21622         6.15174
LJ           3.42034         4.48848         6.34233
LJ          0.526064        -2.60977         1.14249
LJ          0.156743        -4.20128        0.424031
LJ           5.58756          4.3615        -6.07696
LJ          -3.62348         6.20879         4.69015
LJ           5.70991          3.9247         1.37826
LJ           5.82123         4.57114         0.13941
