108
#Comment!
LJ           4.03933        -5.03057          6.1498
LJ           1.48047        -1.77237        -6.42906
LJ           2.23835         1.23212        0.117022
LJ           -4.1637         3.05127         5.73359
LJ           6.24919          2.0433        -1.33688
LJ           0.60166         6.06799          5.4122
LJ          -4.60495          4.5538       -0.993465
LJ           2.65105        0.276374        -4.43172
LJ           5.68087     -0.00365683        -4.65194
LJ          -2.96941        0.659805        -1.63083
LJ          0.537471         3.30146        -3.46702
LJ           4.40592         2.56096         1.31975
LJ         -0.179354         3.82868         -3.8653
LJ          -1.95262         1.33192        -5.72911
LJ          0.182615          6.3329        -2.00907
LJ           5.63964          6.2273         3.76997
LJ          -2.23709         4.94213         1.10471
LJ          -1.15166        -4.57695         5.44876
LJ           5.13585        -5.48408          5.2405
LJ          0.334996        -5.42934         1.31915
LJ          -2.29561        -2.16528         2.84615
LJ          0.775393         -6.2546        -5.21826
LJ           3.87074        -5.15697         3.94444
LJ          -2.73655         4.07362        0.244016
LJ          -5.98454        -4.01018         -2.1972
LJ          -3.82426        0.322514        -2.41657
LJ           2.39925         6.33931         2.95041
LJ           2.36122        -0.57305        -5.98711
LJ          -2.00757         -4.8843          2.6414
LJ         -0.465976         0.75844       -0.679957
LJ           4.82923         4.17707         -2.4688
LJ          -1.78701         4.73896         6.29391
LJ           5.76502        -4.36301         4.74429
LJ           -6.2898        -6.16752        -5.89537
LJ          -2.96481         1.83337         4.96933
LJ           3.43929          5.7249         3.58425
LJ          -4.14469         5.88384         3.34884
LJ           3.71415         2.06585         5.32675
LJ           -4.7375        -4.85017        0.858489
LJ            4.4062         3.44628       0.0955033
LJ          -5.38156        0.649714        -1.09567
LJ           4.56284        -5.74834        -1.32105
LJ           1.83385         2.59676        -3.33168
LJ          -5.91249         1.99408       -0.578053
LJ          -6.29704      -0.0358421         -5.3756
LJ          -3.92986         -2.1556       0.0715361
LJ          0.262686         -1.7929         2.20749
LJ          -1.73712         1.04386         5.26604
LJ          -2.98095        -4.03607         1.85009
LJ          -5.16289         5.12697        -3.91239
LJ           3.64151       -0.916651          3.3142
LJ           1.65041         2.44951         5.88189
LJ           6.00422        -3.19159        -4.78473
LJ         -0.493225         5.23874        -1.57929
LJ          -3.67327        -3.31879        -5.13814
LJ           2.90655         -2.3721       -0.624729
LJ           4.17345         2.77947         4.51046
LJ          -6.26901        -4.49286        -5.70255
LJ          -5.21036         5.03794         4.40313
LJ          -2.13667        -2.57429         -3.3775
LJ          -5.20028          -3.626         3.42729
LJ           -6.2182         4.06573        0.949901
LJ          -3.21165         -6.3571        -1.45898
LJ           4.72393         5.03078         4.22761
LJ           2.21599         4.38298         3.13744
LJ           3.40989          5.9887         2.25892
LJ           1.64978          5.8401         5.56821
LJ           2.47321        -5.21548        -2.08966
LJ           -3.6695        -1.74353         1.19879
LJ           2.22957         4.17766       -0.668065
LJ          -3.52583         5.37495        -1.91234
LJ          -5.22222         5.72225        -2.02709
LJ        -0.0556694        -2.80178        -4.75648
LJ           3.05358         2.67183        -4.79533
LJ         -0.430966         3.18808         -2.5785
LJ          -4.59989         1.40329        -3.86087
LJ           5.72227         -1.9961         4.66565
LJ          -6.37416         5.49463        -1.80917
LJ           2.73312       -0.459442         4.36255
LJ           6.03823        -3.48133        -2.04528
LJ          -1.23368         3.16112        -3.66503
LJ           1.78323         5.69246        -5.95602
LJ          -3.82849         1.80585        -1.20917
LJ           3.28031        -1.38309         2.03068
LJ           2.93549        -1.47621        -4.69728
LJ        -0.0476268         6.27049       -0.616539
LJ          -2.26296        -3.00675         1.87419
LJ          -4.64957        -3.70434       -0.791209
LJ           -2.5514        -1.86932         5.88271
LJ           2.57193         6.15658         -5.4587
LJ           4.05795         4.92603         3.53805
LJ           1.78897         -3.9013         1.24308
LJ          -3.93682         2.74418        -2.71378
LJ           5.76418          2.9419          5.2286
LJ          -5.89438        -3.21746        -6.28503
LJ          -2.61254        -3.09041        -1.00471
LJ           2.19842           3.485       0.0945618
LJ          -0.61096         3.67916        -6.21371
LJ          -2.57211        0.971288         -3.1924
LJ          -1.41894        -1.75041        -1.02504
LJ           3.03861        -2.04446         5.92707
LJ           2.12464        -1.91033         5.37964
LJ            5.3568        0.196697        -6.25565
LJ          -1.35303         1.78434         4.82117
LJ              4.71        -3.22398       -0.819868
LJ           -4.6365        -4.01552         4.27436
LJ         -0.550639        -0.27486        -0.69678
LJ          -2.21059        -6.23457       -0.226827
