108
#Comment!
LJ           2.09058        -3.92214         2.18715
LJ          -1.16654         4.50636         -5.7777
LJ          -5.06478         4.43889        -4.17072
LJ          0.656185       -0.512335         -5.5347
LJ          -5.17791         3.94209        0.587237
LJ          -3.11636      -0.0595558        -3.11065
LJ           2.94556       0.0129242        -3.53328
LJ          -3.48197         6.20618        0.676443
LJ           2.02717         3.14791        -1.15865
LJ         0.0496983        0.767389        -4.53112
LJ          -1.30354         1.58259        -6.35335
LJ           4.51135         5.02654       -0.422782
LJ           1.03732         -5.4119        -3.74066
LJ            1.7664         6.04818        -2.53897
LJ          0.223008         1.30751        -5.87308
LJ           5.19662        -2.17005         6.39009
LJ           5.45196        -2.92135        -3.32946
LJ          0.339041        -2.91992        0.648112
LJ            3.5167        -2.38869        0.982536
LJ          -2.07638       -0.663734         2.44067
LJ          -2.04799       -0.434138        -5.86164
LJ          -5.68352        -4.30594          -2.155
LJ           5.32714          2.7275         3.17437
LJ           3.20675        -3.34114         4.77553
LJ           4.98259         2.57652        -4.70432
LJ           5.66207         5.79774        0.900764
LJ           6.26076        -1.96993         5.68367
LJ         -0.728486        -4.61996         -5.7487
LJ          -3.27634        -5.24005         2.99254
LJ           1.25317         2.61187         4.43124
LJ           2.33395       -0.627253        -2.85039
LJ           1.85548         1.80408         1.88762
LJ          -1.72873         4.46216        -2.22007
LJ          -1.93073         5.74105         4.87777
LJ          -1.54679         6.24755          2.0524
LJ          0.344478         -6.3069         6.11074
LJ           -1.2901         1.84261       -0.308045
LJ            -3.042        -1.18724        -6.28917
LJ          -4.15575        -4.60212         2.02615
LJ          -4.13768        -0.88757        -5.73403
LJ          -2.91111        -4.02246         6.19771
LJ          -2.13907         1.50727        0.366998
LJ         -0.218344      0.00572568        -3.85745
LJ           6.05324        -5.40576         4.46895
LJ         -0.167758         3.06552        -4.21314
LJ          -6.13171          5.8681         1.64601
LJ         -0.240897        -2.08857        -5.53212
LJ          -5.46473        -5.06898       -0.504363
LJ          0.141583         -4.2703         4.45762
LJ         -0.163935         1.06853         2.25696
LJ           3.33359        -0.62221         1.75596
LJ          -4.32237        -3.66898          1.1786
LJ           5.13806         1.73089         6.33643
LJ           6.27401        -3.78959        0.614017
LJ           6.39082         0.55619        -0.54616
LJ           3.51496       -0.173799        -5.16817
LJ           6.13474        -6.03759        -4.90335
LJ          0.533419        -4.26625        -1.75548
LJ           4.08459         5.20019        -2.87949
LJ           6.07491         5.00769          3.6781
LJ           5.29542            2.11        -3.58219
LJ           1.55746        -5.98282         2.08669
LJ           1.21747        -4.42089         -3.2903
LJ          -1.33437        -5.63712       -0.580484
LJ          -1.75357         4.44365          4.5082
LJ          -2.51219        -4.32372        -4.37913
LJ           4.82334        -3.49789        -5.95432
LJ            -1.193         2.90068          1.7196
LJ          -1.96161        -2.16198         2.82137
LJ         -0.179201         5.83371         5.65424
LJ           2.42772          1.0525        -4.48985
LJ          -2.83604        -3.48275          2.0206
LJ           4.79396         1.39272         2.63184
LJ          -6.18451         3.65955        -4.71632
LJ          -3.58619        -1.17184        -3.23315
LJ        -0.0766881         3.50267        -2.31276
LJ          -1.49667        -4.67577         4.74517
LJ          -1.22061       -0.217141        -3.15078
LJ           2.82114         1.54624        -5.99882
LJ          0.492785        -1.16506        -1.87656
LJ           5.92587        -5.75614       -0.841769
LJ         -0.082154        -5.23258         -5.0666
LJ          -2.62074        -4.79016        -1.24355
LJ           2.44716         2.14055        -0.65414
LJ           5.84307        0.870982         3.09509
LJ          -5.98188         4.98816        -6.15533
LJ          -2.27754        -3.17719        -1.41971
LJ          -2.61226        -4.04191         3.35303
LJ           1.34309         4.04069      0.00408615
LJ           3.62529         1.61101         1.55834
LJ           4.49973        -1.01388        -4.79309
LJ          -3.12062         2.20462        -2.27383
LJ          -1.19482        -2.75821         3.50252
LJ           6.28483           3.306         3.94318
LJ           5.29843        -2.20421       -0.318062
LJ          -5.24623         -3.7402         3.91337
LJ           3.16799         3.82003        -4.85993
LJ           1.32519       -0.853975        -2.45065
LJ          -2.81829        -6.29482        -4.89936
LJ           0.35599         4.79313        -2.60134
LJ           6.10637          5.0717         6.07762
LJ           3.27426          3.9058        -5.82082
LJ           2.65886        -1.92061         1.54534
LJ           0.79337        -1.96789        -0.22071
LJ          -4.38039         3.49795        -4.79382
LJ          -4.27854        -6.17743         3.99753
LJ           5.83562         2.19228       -0.682989
LJ           5.37037         3.95369        0.373328
