108
#Comment!
LJ           3.84512        -5.03147        -6.34524
LJ          0.976989        -2.38029         6.42571
LJ           3.01295         1.21093        0.141203
LJ          -4.69798         2.80765        -6.07668
LJ           6.23937         1.94536        -1.50427
LJ           0.37317         5.90768         5.61248
LJ          -4.67282         3.89844        -1.41462
LJ           3.04227         1.95373        -3.89329
LJ           6.23336        0.372807         -5.5318
LJ          -4.44422         1.08998       -0.995203
LJ          0.206704         2.65693        -3.33948
LJ           3.91753         1.78805         1.28663
LJ         -0.893567          3.7416        -3.73896
LJ          -2.25745         2.11294        -6.10914
LJ         -0.281354         -6.0141        -1.97175
LJ           4.33284        -6.34895         4.87746
LJ          -2.49212         4.98731        0.443815
LJ         -0.938342        -3.50404         5.56801
LJ           5.39902        -4.50621         5.04668
LJ        -0.0480639        -6.01264         0.94735
LJ          -1.60367        -1.68909         2.32564
LJ          0.374185        -6.34014        -4.49902
LJ           4.93465        -5.32229          3.8423
LJ          -3.80275         4.70037       -0.686977
LJ          -6.09379        -4.51881        -2.97786
LJ          -3.41403        0.688838        -2.57213
LJ           1.88494         5.55462         2.09299
LJ           2.29835      -0.0741525         5.88665
LJ          -1.96293        -4.91659         2.64467
LJ         -0.741016        0.531497       -0.573817
LJ           5.71611         4.60629        -1.47029
LJ          -1.31303         4.86833         5.56183
LJ           6.43702        -4.24088         5.45043
LJ           5.77536         5.82582        -5.89689
LJ           -2.0517         2.39439         4.72759
LJ           3.18343         5.61731         2.98619
LJ          -3.41198        -6.34862         4.21119
LJ           3.40707         2.69262         5.01837
LJ          -4.69778        -4.25875         1.38453
LJ           5.23128         4.15733         1.15624
LJ            -4.557         1.36384        -2.70179
LJ           4.41536         5.90808       -0.729714
LJ          0.778147         2.51072        -1.75207
LJ          -5.90581         1.18594        -0.81674
LJ           -5.6024       -0.313575        -5.91532
LJ          -4.98601        -1.77332       -0.270417
LJ          0.803336        -2.66084         2.46033
LJ          -1.87749        0.590046         4.53093
LJ          -2.80979        -4.32161         2.65483
LJ          -4.48612         4.60371        -3.64449
LJ           4.80692       -0.517259         3.01793
LJ           1.02831         3.26477         5.32128
LJ          -5.91877        -3.24252        -4.63234
LJ          -1.00414         4.70906        -1.12047
LJ          -3.88476        -2.88131         -5.8223
LJ           3.89485        -2.46136        -0.63259
LJ           5.54603         3.03707         5.45481
LJ          -5.63567        -4.26782        -5.64948
LJ          -5.74365         5.09513         3.52347
LJ          -1.48818        -2.07028        -3.72199
LJ          -4.56682        -2.08457         3.32151
LJ            6.1916         3.91508         1.77182
LJ          -2.65194         6.32709       -0.664418
LJ           5.22446         5.23199         3.99309
LJ           2.56537         4.48845         3.67821
LJ           4.40617          5.5524         2.91232
LJ           2.56805         5.86678         5.96628
LJ           2.83433         -6.2126        -3.25928
LJ          -5.89119        -2.32749        0.789725
LJ           1.49928         3.94334       -0.962126
LJ          -3.21753         5.17438        -1.66575
LJ          -4.93594         5.30998        -2.45727
LJ         -0.206992        -3.04268        -4.33239
LJ           2.20346         3.31474        -3.73615
LJ         -0.552346         3.24973        -2.65269
LJ          -4.15275         1.17888        -4.46929
LJ           5.84602        -2.83952         4.64972
LJ           6.12957         5.45567        -1.82968
LJ             1.529       -0.584114         4.36042
LJ           5.75589        -2.91028        -1.49984
LJ          -1.25518         2.24583        -3.48207
LJ           1.06987         5.61966        -5.92402
LJ          -3.72001         2.25849        -1.40939
LJ           3.03049        -2.60638         1.92158
LJ           3.04999        -1.12112         -5.3299
LJ          0.139261         -6.3678       -0.529638
LJ          -3.12816        -3.22003         2.74974
LJ          -4.68443        -3.54545       -0.361311
LJ          -1.59799        -1.79415        -6.27985
LJ           2.87382        -6.19013        -6.44073
LJ           3.60795         3.88293         3.20984
LJ            1.7221        -3.73007         1.08357
LJ          -3.91087         1.98813        -2.95567
LJ           6.20663         3.11345         4.42933
LJ            -5.989        -2.76808        -5.62857
LJ          -1.61569        -3.68997        -0.89379
LJ            1.6353         3.06699         0.16517
LJ          0.642642         3.20881        -6.42504
LJ          -2.37047       0.0547413        -2.20501
LJ          -2.37083        -2.34691       -0.793596
LJ           3.26906        -1.56551         6.30541
LJ           2.76284        -1.05637          4.7246
LJ           4.07643        0.151293         5.79592
LJ          -1.53115         3.39304         5.02158
LJ           3.35342        -3.46656        -1.77576
LJ          -5.54467        -3.34632         4.81576
LJ          0.381801        -1.06341        -1.67194
LJ          -2.13053         6.30518        0.375159
