108
#Comment!
LJ           3.43368         3.19849        -3.05722
LJ          -4.75496        -2.43704        -6.09178
LJ           4.56556         2.96803        -1.67513
LJ          -6.31894         1.07353         5.70415
LJ         -0.719508        -4.06568         5.35642
LJ           3.73233        -5.23816         2.56527
LJ          -4.17904         6.14251        0.565737
LJ           2.22117         4.46825         4.37155
LJ           2.26767          4.9671         2.10285
LJ         -0.205735        -1.42825        -3.41882
LJ          -4.62539        -4.18305         -4.1124
LJ          -5.72274         4.13179        -3.45577
LJ           5.37167         1.54645          5.8274
LJ           3.06787         4.78414        -6.45612
LJ          -3.95718         3.02434        -3.14695
LJ          -1.86905         -5.0132         3.31917
LJ         -0.401505        -6.08617         3.86832
LJ          -5.65308         3.20082         4.09111
LJ          0.804007         5.13485         4.11702
LJ           3.88111         -2.0607        -4.03079
LJ           2.28357         6.01402         3.10089
LJ          -1.66557         5.33972         5.54847
LJ           3.84043        -4.91274       -0.422035
LJ            4.4873         1.27117       -0.245146
LJ           4.43931         6.28518         1.38431
LJ          -2.76264       -0.684768        -5.29734
LJ          -2.07072        -3.21538        -1.98592
LJ         -0.645946          3.0416         3.50316
LJ          -6.10995        -3.15823         1.41957
LJ         -0.317676        0.652084         4.10025
LJ           2.58129          3.2012        0.193315
LJ          0.475963         1.60925         2.83901
LJ           3.27124         3.65115        0.907303
LJ          -6.06134         5.58562         -2.9086
LJ           1.32885        -6.27697         -1.3921
LJ          -1.66102        -2.22627        0.310983
LJ          -5.79182       0.0681963         1.98441
LJ          -5.98261         2.47459       -0.297797
LJ          -4.08778        -5.72224        0.194921
LJ           -1.4462         -4.0393        -4.94467
LJ          -1.82888        -4.30462        -3.40963
LJ           3.65681          2.9933        -4.18642
LJ          -5.81233         3.15659          2.3714
LJ           4.54473         4.91936          5.9685
LJ           -5.6245         3.93108         1.28497
LJ           5.79672        -4.30191         2.25311
LJ           3.41839        -1.61006        -2.46288
LJ          -4.85344        -5.66304        -1.02228
LJ          -1.19018         5.21042        -5.59607
LJ          -3.13113        0.630492        -1.83288
LJ           2.32173       -0.268621         1.25002
LJ            4.1006        -3.57502       -0.514617
LJ           1.90439        -4.55383         4.40551
LJ           1.37363         1.15903         2.43597
LJ          -2.47929       -0.833908       -0.846359
LJ          0.511175         3.91599        -1.12855
LJ          -3.94475        0.842654        0.640788
LJ           1.86443        0.928902        -3.13953
LJ          -5.68988         5.66939       -0.243487
LJ           4.56122         5.47091          4.6924
LJ           5.05978        -5.67914        -4.50321
LJ          -2.11403       0.0705354         4.84566
LJ          -2.87971         1.21291         2.26617
LJ          -6.08601        -3.62867         -1.0266
LJ         -0.255345        0.509042        -4.94012
LJ          -5.80306        -3.93407        -4.02277
LJ          -2.39842         5.50773        0.836169
LJ           3.55038       -0.199644          1.3946
LJ          -5.69671         5.04078         1.13646
LJ          -6.12784        -4.11972         4.21675
LJ           5.07296        -4.41705        -4.87251
LJ         -0.155838        -3.37245        -6.13836
LJ           3.22481        -3.47181         1.02173
LJ           5.48185        -2.50794         3.58969
LJ           5.45561         5.53653       -0.921941
LJ            2.5537         5.52337        -5.96276
LJ         -0.372457         5.61745         1.13947
LJ           2.71832        -1.96653        -3.19468
LJ         -0.201875        -2.92577         3.27681
LJ           -4.6734         4.44497         0.44471
LJ           1.76292         3.07036         5.59458
LJ          -6.29555         1.70394        -6.02931
LJ         -0.117947         2.58154        -5.10447
LJ            2.1847         3.70055        -1.73369
LJ           5.04167         1.42561        -4.61458
LJ           4.99277         2.97874       -0.581766
LJ           -3.8704        -2.65001         4.41207
LJ           6.10177         3.98408        -6.36778
LJ          0.724073         4.88142         -4.9114
LJ           2.76307         5.50463         4.47679
LJ         -0.493604         6.03355        -1.37007
LJ           6.23686        -5.40364         2.20014
LJ            4.1065        -4.55189        0.666248
LJ          -5.47153        -4.87799         3.07607
LJ          -1.69119         2.17116         4.93525
LJ           -3.1942        -3.63646        -2.57684
LJ          -5.10903        -5.29006         2.08405
LJ         -0.231506        -3.29368        -5.03908
LJ          -6.43667        -3.17665         5.26988
LJ          0.853805         1.19166         5.37421
LJ           2.43969          4.2078        -2.60417
LJ           1.83459        -3.21845          2.2607
LJ          -2.68001       0.0794663        -3.15145
LJ            2.8202         2.51222         2.18329
LJ          0.308093        -1.31515         1.10344
LJ         -0.172551        -1.19374         3.83195
LJ         -0.288926         1.46657        -5.52845
LJ          -2.86552        -4.14933        -1.79786
