108
#Comment!
LJ          -5.36658         1.24691       -0.719168
LJ          -4.05239        -3.23812        -5.40658
LJ          -6.14992         2.86621        -2.89332
LJ            2.3564         5.73736         3.37021
LJ           1.16385          2.3756         2.36738
LJ           2.58437        0.616016         1.91106
LJ          -2.23328         4.54462         2.12617
LJ          -4.68866         2.62331         2.05449
LJ            5.1933         3.17079        -4.16589
LJ            1.4967        -2.47691         6.10507
LJ          -3.82263        0.330998         6.08476
LJ          -6.18925         6.10139        -3.90335
LJ         -0.509186         5.28728         3.75635
LJ          -4.03263         4.89921        -4.78418
LJ           1.21123         2.53407        -3.34856
LJ          -3.80149        -2.09501         2.88635
LJ          -4.08348        -5.79743         3.82175
LJ           -3.6796        0.616494         2.18723
LJ           0.38037         6.31834        -4.94884
LJ           5.75794        -2.25502         2.38906
LJ           1.75013        -5.80109         5.26878
LJ          -3.83303         5.13994        -2.60473
LJ           5.85187         5.52207         -2.5235
LJ           3.04092          3.9171       -0.657384
LJ           3.89341         5.56305         1.72008
LJ          -1.27065        0.285525        -2.47591
LJ          -1.92653        -6.24639         3.11781
LJ           5.91959         2.44894        0.512651
LJ           3.09249        -4.65858         1.19049
LJ          -4.48444         2.07828        -2.89545
LJ          -1.59269         1.10353         4.41411
LJ        -0.0786634        0.456354         3.99638
LJ          -3.48153         4.38606         3.29612
LJ          0.117416        -3.35606        -4.11452
LJ           4.45514         2.64161        -3.00403
LJ          -1.14964         1.65285         1.50341
LJ          -3.94916        -4.16715         6.34018
LJ          -6.07967       -0.913449         2.85471
LJ          -3.05964         6.13625         3.54456
LJ          -2.50335        -2.50481         5.86459
LJ         -0.371892       -0.413656        -2.18437
LJ          -5.94975         2.09669        -0.28769
LJ           5.03986          4.3879         4.79212
LJ          0.918613        -4.00237        -6.39828
LJ           5.39507         2.16372        -1.52865
LJ           5.11411        -4.94779         3.46665
LJ           5.35755        0.737075        0.105569
LJ          -1.94173         -3.2368       -0.818317
LJ           2.69378        -1.98543        -3.26949
LJ         -0.894894       -0.982893        -4.92729
LJ           6.02284         1.33224        -3.62753
LJ          -1.13072        -4.92001         2.16523
LJ           5.05775        -3.61254        -4.92772
LJ           1.65052        0.840379         2.59151
LJ           1.27646        0.353634       -0.860338
LJ          -1.01192         1.47561         3.15573
LJ          -6.14467         5.27072         3.39588
LJ           -1.3712         1.69351        -3.48274
LJ           3.60286        -5.41105        -2.40412
LJ           4.77635        -6.32249         2.42269
LJ           2.11325         5.58512         6.22715
LJ           4.83129        -1.86744         5.16393
LJ          -4.72534         6.23856        -4.29846
LJ           3.57545        -4.00404        0.435941
LJ          -2.34906         1.27528        0.340418
LJ         -0.721595        -4.53714        0.357998
LJ          -2.46577         1.78749         4.50396
LJ          -6.33092        -4.49026         -3.2699
LJ          -4.62382         2.75131         4.77785
LJ          -1.72408        -1.37307        -3.42482
LJ           -1.0332        -3.39223         4.10684
LJ         -0.432605        -1.44357         5.03032
LJ           2.67056        0.882242        -5.09191
LJ           5.47193        -3.45643        -2.10711
LJ           3.19943         2.64524        -3.74175
LJ          -2.34979         4.50721        -3.24922
LJ         -0.128391         2.58948       -0.963852
LJ          -3.95068       -0.997187         5.85111
LJ           3.78892          -2.088         5.26488
LJ           6.06757         5.60553          5.2243
LJ           4.58814        -2.96924         4.68768
LJ          -4.77356        -4.39714         4.60783
LJ         -0.146806        -1.05258        -3.54108
LJ          -1.06377         5.29478         2.73731
LJ          -5.82986        -1.99446         6.19098
LJ           4.84401        0.320803         -1.5764
LJ         -0.948727        -2.09268         6.13961
LJ           -4.8679        -5.48018        -5.66861
LJ           1.00279         5.56401          3.3128
LJ          -2.65306        -2.78555         2.34905
LJ           3.81885        -4.02365        -2.79087
LJ          -6.43444        -4.80944         1.61053
LJ           -6.2261         -5.0945       -0.858373
LJ           2.75986        -5.92881        0.875905
LJ           -2.1316         3.81896         5.71686
LJ           5.89738        -2.94649         6.12507
LJ          -4.94736        -2.25208       -0.795952
LJ           0.63319        -2.81331         2.72798
LJ           5.49869        -6.01886         3.19964
LJ           1.51721         3.71955         4.71649
LJ           3.41335       -0.147556        -2.72029
LJ           3.16148         6.25974         3.84091
LJ          -1.10715       -0.916747        0.180047
LJ           3.97803         4.01751        -1.64023
LJ          0.809372        -5.32366         1.08602
LJ           -4.8336        -2.82903         2.73044
LJ          -4.71522         5.02104        -6.31452
LJ          0.610984         4.96153        -2.12402
