108
#Comment!
LJ           1.83459         1.18473        -5.56474
LJ          -5.84549        -5.64153        -4.31464
LJ          0.886363       -0.564045        -6.40937
LJ          -4.22746         5.73214         5.38367
LJ          -3.68528        -5.75716      -0.0697384
LJ          -2.69371        0.717047        -5.59274
LJ         -0.835235       -0.436469        -3.62115
LJ           5.83108         4.49497        -2.70658
LJ          -1.90151         0.42795         6.34919
LJ           5.80596         -5.9166        -1.19481
LJ          -1.08743        -5.82793        -2.27551
LJ           3.33803          -1.872         3.12191
LJ           2.99484          6.2442         -3.5689
LJ          -2.30221        -1.45907        -5.86861
LJ           1.61961         -5.1093          1.2855
LJ          -5.65657          1.6219        -6.25919
LJ          -1.03145          4.2101        -3.05789
LJ          -2.43641        -3.98523        0.300055
LJ          -4.52022        -4.27534         3.68342
LJ          -2.10386        -2.70707         1.54718
LJ           1.48462        0.644079        -6.32205
LJ           -4.3769        -4.49296         5.03876
LJ          0.819045       -0.696563        -2.11262
LJ          -1.08775         1.38748         2.76846
LJ           -5.7914        -1.64219       -0.807167
LJ           2.83073        -3.18206        -2.07902
LJ           1.03876         2.74296        -5.52683
LJ          -4.54056         2.99012       -0.848805
LJ          0.160251        -2.49583         4.08018
LJ           4.08665        -1.56388        -6.12777
LJ          -4.65526         2.76307        -3.62202
LJ          -2.36323         3.20463         2.50597
LJ         -0.747169        -5.47632         3.23966
LJ           1.98472        0.640295        -2.79069
LJ           1.98482       -0.737751        -4.12193
LJ           2.79967        -1.10494         1.64295
LJ          -5.38854         2.24718        -5.19625
LJ          -4.28074        -1.11357        -3.37078
LJ            -1.354         3.96254         6.39389
LJ          -3.97732         1.42401         1.97501
LJ           -1.1318        -2.24389         3.73916
LJ           1.58631       -0.562251         2.65625
LJ           5.20488        -1.80997        -2.86128
LJ           6.19451         6.25065         6.03887
LJ           -1.4557        -1.61723        -1.25418
LJ            4.6059         -5.2894         3.91702
LJ          -4.68647        -6.23217       -0.931897
LJ           2.99058        -2.28125      -0.0755504
LJ          -5.13592        -6.13915          4.5967
LJ           1.07582         4.95782         5.90916
LJ           0.69548         5.50131        -2.34846
LJ           -1.0582        -1.19452        -4.33026
LJ           2.08919        -2.36804        -4.25236
LJ           4.12786        -2.79216         -3.3091
LJ        -0.0255192        0.774225        -4.22275
LJ           6.25708        -2.34533        -1.11097
LJ           5.59341        -1.67463        -6.35238
LJ           2.40995        -5.02463        -3.95191
LJ          0.815811        -3.99905        -6.18871
LJ          -4.49099          2.1769         3.99977
LJ          -3.25915         2.46571        -4.08837
LJ          -5.30404         5.27597        -4.30726
LJ          -3.03978        -4.63233       -0.458832
LJ           6.21312         6.03481        -3.58361
LJ          -1.69362         4.89368        -1.00306
LJ          -3.75596        -5.48514        -2.52742
LJ           2.59916       -0.701988         5.76671
LJ          -3.34079         1.40448        -4.00559
LJ          -3.47236          -1.167         3.62471
LJ          -3.27158         1.59283        -1.85158
LJ          -5.47306         3.06646        -4.44724
LJ           3.19303        0.561165       -0.482339
LJ          -2.55388         3.67265        -1.85696
LJ           3.89394        -3.14821         1.71264
LJ          -1.75096        -1.43302         3.80826
LJ          -5.51673         4.63379        -2.95105
LJ          -3.19767        -1.11096         1.28227
LJ           3.51567        -3.55085         3.79171
LJ          -4.39398         1.08266        -4.72021
LJ           2.89049        -3.71961         4.73982
LJ          -2.63989         5.67505        -4.30344
LJ            3.1969       0.0197015         3.60784
LJ           2.58306         6.45577        -2.00318
LJ           1.98993         3.22907        -4.40067
LJ          -3.24854        -5.49146         1.62225
LJ            0.7348       -0.702319         3.07531
LJ           1.39005         5.89631       -0.593928
LJ          -5.47495        -4.75402       -0.655358
LJ            2.4009         1.02965        0.383125
LJ           3.38766         3.19653       -0.811536
LJ           1.79332        0.210193         4.48471
LJ          -2.45634        -2.12053        -1.20429
LJ          -1.37285         5.17995        -4.88897
LJ           -5.3658         -1.4797        -3.82208
LJ          -3.69204         6.25804        -5.92592
LJ           5.06216         4.42629        -5.70855
LJ           3.45723        -1.91595         5.33845
LJ           3.77552       -0.797193         3.04399
LJ           2.95986        -5.70715         5.85303
LJ           2.20626        -3.60769         2.58306
LJ           1.38674          4.8906       -0.514564
LJ         -0.942179        0.625692         4.33917
LJ           6.02114        -1.15136        -0.97588
LJ          -2.35519        -6.28855       -0.747369
LJ          -1.46809        -4.09756        -5.74256
LJ           1.46282        -5.05161         6.12321
LJ           4.85804        -1.09056         3.89346
LJ          -6.05779        -6.02095       -0.678081
