108
#Comment!
LJ           3.47963         3.11584        -2.96875
LJ          -4.81112        -2.52603        -6.06403
LJ            4.9098         3.03909        -1.77826
LJ           6.20302         1.46529         5.68019
LJ         -0.752483        -3.79271         5.36553
LJ             3.709         -4.7166         2.32745
LJ          -4.05736         6.10408        0.717198
LJ           1.70123          4.4455         4.25388
LJ            2.4184         4.84605         1.63724
LJ         -0.334744        -1.20277        -3.81064
LJ           -4.5048        -3.80591        -4.29135
LJ          -5.79826          4.2008        -3.48541
LJ           5.13844         1.80769         5.64851
LJ           3.40037         4.80227        -6.24735
LJ          -3.59145         3.00413        -3.15976
LJ          -1.99729        -4.79626         3.24812
LJ          -0.65016         -6.0799         3.85247
LJ          -5.23584         2.82762         4.01223
LJ          0.729147         4.96387         4.56534
LJ           3.97299         -2.0715        -3.64261
LJ           2.31693         6.09608         3.14088
LJ          -1.68626         5.18839          4.9043
LJ           3.98813        -4.84668       -0.430201
LJ           4.37801         1.43336       -0.152334
LJ            4.4674         6.33285         1.28503
LJ          -2.43688       -0.735501        -5.14845
LJ          -2.31254        -3.37661        -1.74787
LJ         -0.619853         3.16565         3.36232
LJ           6.45841        -3.37884         1.26313
LJ         -0.681117        0.757083         4.50287
LJ           2.18468         3.08358        0.470587
LJ          0.375932         1.61229         3.02892
LJ           3.77932         3.83428         1.12084
LJ          -5.70831         5.77134         -2.9044
LJ           1.57918          6.4425        -1.51077
LJ          -1.63627        -1.94149        0.445141
LJ          -5.64435        -0.20016         2.28339
LJ          -6.02526         2.17531       -0.105039
LJ          -3.93024        -5.79328        0.436223
LJ          -1.51146        -3.83893        -5.39173
LJ          -1.69063        -4.05581        -3.34881
LJ           4.02301         2.84214        -3.85282
LJ          -5.85119          3.2359         2.38393
LJ           4.72824         5.06114         6.07388
LJ           -5.8251         3.71917         1.02252
LJ           5.78136        -4.36856         2.34739
LJ           3.45347        -1.48172        -2.14534
LJ          -4.69312        -5.47793        -1.00011
LJ         -0.768845         4.82791        -5.90266
LJ          -3.38476        0.454054        -2.14619
LJ           2.73165       -0.163584        0.969279
LJ           3.70269         -3.8935       -0.363795
LJ           2.14157        -4.39176         4.58395
LJ           1.13372        0.962442         2.50194
LJ          -2.21714       -0.745102       -0.864134
LJ           0.86548          3.6861       -0.981824
LJ          -4.32028         1.37354        0.742734
LJ           1.59849        0.961776        -3.12883
LJ          -5.81277         5.52709       -0.157525
LJ           4.57358         5.55085         4.48463
LJ           4.81102        -5.89638        -4.68475
LJ          -2.55259      -0.0552654         4.83271
LJ          -2.97794         1.57088         1.80971
LJ          -6.43605        -3.55783       -0.867837
LJ         -0.370399        0.443225         -4.7844
LJ          -5.44427        -4.00729        -3.71326
LJ          -2.09268         5.04595          1.3087
LJ           3.70504        -0.48401         1.04758
LJ          -5.37996         4.80563         1.24222
LJ          -5.69856        -3.98583         4.52934
LJ           4.62041        -4.34274        -5.12262
LJ          0.008138        -2.97237        -6.32663
LJ           3.22525        -3.31475         1.47636
LJ           5.53456        -2.50501         3.21754
LJ           5.28147          5.3338        -1.18683
LJ           2.19747          5.3238        -5.60274
LJ         -0.447685          5.4567         1.03144
LJ           2.25783        -1.92109        -3.42983
LJ         0.0693372        -2.88959           3.396
LJ          -4.94169         4.80255       0.0516637
LJ            2.0443         2.56161         5.63529
LJ          -6.25005         1.23226        -6.30281
LJ         -0.134216         2.30183        -4.92192
LJ           1.87611         3.63714        -1.36918
LJ            5.4628         1.14723        -4.59044
LJ            4.5134         3.03007       -0.682824
LJ          -3.62914        -2.31986         4.27943
LJ            5.8458          4.4143        -6.44642
LJ          0.898231         4.88345        -4.56703
LJ           2.28843         5.83815         4.38887
LJ         -0.217181         6.24906        -1.47193
LJ           6.18021        -5.28995          2.0856
LJ           4.29204        -4.68725        0.560715
LJ          -5.78468        -5.08256         3.17075
LJ          -1.65539         2.16039         5.02747
LJ           -3.1263        -3.26544        -2.58971
LJ          -5.05327        -5.05086         1.85702
LJ         -0.180072        -3.21454         -5.2113
LJ           6.25691        -3.36226         5.14824
LJ          0.840743         1.51887         5.36921
LJ           2.61234         3.84914        -2.47933
LJ           2.04933        -3.39846         2.41294
LJ          -2.47471      -0.0287133        -2.93492
LJ           2.85424         2.63852         2.00128
LJ           0.34642         -1.5807         1.09993
LJ         -0.480248        -1.34322         3.93084
LJ         -0.617507         1.48789        -5.70892
LJ          -2.63407        -4.50592        -1.84625
