108
#Comment!
LJ           4.09803        -3.81666        -3.79303
LJ         -0.806516        -3.77913         5.49143
LJ           5.12832         2.20933       -0.291936
LJ           6.40666         1.86671        -1.95785
LJ          -5.67698       -0.214943       -0.519142
LJ         -0.532482         5.01905         5.70443
LJ          -5.33848          3.6412        -2.98999
LJ           4.20048        -4.49834        -1.89537
LJ          -3.96034        0.903227         4.21464
LJ           4.55081         2.96001        0.468523
LJ         -0.184681       -0.102204        -3.17633
LJ           2.31682        -0.72115         2.06351
LJ          -1.02048         4.26309        -4.22329
LJ          -3.42656         5.20695         5.39303
LJ          -2.07687        -3.97283        -3.12737
LJ           2.81556         5.23789         4.30709
LJ          -3.75519        0.959002       -0.880406
LJ           0.24984        0.346972         5.91694
LJ          -4.57638        -2.69925        -3.80874
LJ          -2.62011         5.01982        0.279676
LJ           0.89693        0.641809         0.95127
LJ          -1.26978         6.20704        -2.11513
LJ          -6.17551         5.11836         1.13162
LJ          -6.44628         3.95542        -1.94609
LJ          -6.08598         6.44507        -6.01615
LJ          -3.11292         2.77698        -3.97349
LJ          0.385614         2.30754       -0.711641
LJ          -1.00263        0.853719        0.634819
LJ          -1.28719         -5.6255         3.39364
LJ          -1.82171         -0.2603       -0.320966
LJ          -5.81749         5.58299         3.13993
LJ           2.13175        -5.90377         3.18712
LJ          -5.15587        -1.83086        -6.25571
LJ            3.8409         1.48846          5.7252
LJ           1.51938         5.31236         4.32143
LJ           4.78666        -5.75762        0.428625
LJ          -1.45308        -3.91308        -5.25082
LJ           5.71103          3.5681          4.9418
LJ          -4.42482          -2.001         3.11113
LJ           3.34194         -4.5751         2.43407
LJ          -4.99083       -0.670867         6.43209
LJ           4.82736         1.54338         1.10292
LJ          -1.78385         2.52875         4.26359
LJ           4.64452       -0.733871        -2.72996
LJ          -3.92584        -1.08846         5.02132
LJ          -6.43684        0.619565       -0.328987
LJ           3.18941         -6.1772         1.94028
LJ          -2.82441       -0.611545          1.8411
LJ          -4.60712        -4.03648         5.48824
LJ          -3.61234         4.20129        -1.62213
LJ          -3.90637        0.913187         1.93327
LJ          -1.47866         6.40106         4.19347
LJ          -2.35706        -3.40398        -4.20466
LJ          -3.23725          2.7382        0.598292
LJ          -5.13527        -1.25753          5.1798
LJ           2.78177        0.303864       -0.473626
LJ          -1.51926         4.24296        -5.04181
LJ          -3.59665        -2.46985        -5.25114
LJ           -5.1366         4.54965         3.01181
LJ           1.10727       -0.672335        -3.58889
LJ          -1.94251         3.33484         2.82861
LJ           3.88382         3.43478         2.81891
LJ          -2.06985         5.40468       -0.812581
LJ          -3.77336         4.46855         4.70876
LJ           1.61341         3.65574         2.06362
LJ           3.92469         4.56253         3.41006
LJ           4.77632         4.48423         6.34648
LJ           3.31698         4.73394          5.8137
LJ           1.96849        -5.50988        0.930456
LJ          -1.39961         2.42016        -1.68798
LJ         -0.810072        -6.02095        -4.48511
LJ          -3.79714         3.10959        -3.09317
LJ         -0.864817        -3.31953         -2.7383
LJ         -0.946852         4.95339        0.399122
LJ          -2.00552         2.80758        -3.59199
LJ          -2.79292        0.491236        -5.95812
LJ          -5.84565        -3.94881         2.05465
LJ           5.45408        -6.26059        -2.49486
LJ          -1.84399        -1.46714         5.49958
LJ           5.53047        -2.90778        -2.45242
LJ          -1.13768       -0.105458        -2.24816
LJ          -1.47706         5.28423        -5.47866
LJ           -2.8158         2.06352        -1.97094
LJ          0.389752         6.12433         2.25978
LJ           2.71672         1.39291        -5.18952
LJ          0.110462        -5.83369        0.726634
LJ          -5.18324        -4.99085          5.3476
LJ          -4.40938        -3.02707         1.19453
LJ         -0.172062       -0.409095        -4.15029
LJ           3.31498        -2.32138        -5.89574
LJ          0.859375         2.39252         3.49068
LJ           2.38314        -3.73755         1.57664
LJ         -0.462445         3.15514        -4.55694
LJ          -3.81029         3.05369         5.61932
LJ          -5.94025        -2.19217        -3.41653
LJ           1.98107        -5.18946       -0.795631
LJ         -0.791171         2.05205       -0.301223
LJ             3.039         0.49558        -6.13989
LJ          -1.78262         -2.8506         1.38493
LJ          -6.17434         -4.7857        0.584121
LJ           4.38126       -0.195948          4.4196
LJ           2.86087         1.26019        0.828324
LJ           3.61235      -0.0825392         5.15419
LJ          -3.67627         6.27053         5.43288
LJ         -0.903536        -5.38351        -5.84736
LJ           4.63185        -2.21249         -4.8358
LJ           3.74945        -4.23301        -5.26719
LJ           1.34248        -4.78012         2.61698
