108
#Comment!
LJ           2.73619         5.90367        -1.80295
LJ           3.14553         4.23538        -5.98272
LJ          -3.21836         2.31238         5.86578
LJ          -5.87043         3.60697         3.54224
LJ          -2.72025        -1.82472         5.23855
LJ          -1.42513         5.13337        -4.90748
LJ           5.87515       -0.514449        -2.42875
LJ          -5.95046         3.75302         2.61173
LJ          -3.73047         4.78913       -0.706123
LJ            5.9096        -3.06309          1.7027
LJ          0.524792        0.997654        -3.68534
LJ           4.41159        -6.18636         1.28949
LJ          -5.08812        -5.82639        -4.98552
LJ          0.654269        -4.38534         1.02265
LJ           3.72227        -3.39902          5.8413
LJ          -5.60305         5.78279          5.7084
LJ          0.827499        -1.05499         1.02776
LJ          -1.19428        -3.75846        0.468233
LJ           4.91061         2.87642         4.93944
LJ          -1.21424        -1.90638         1.95682
LJ         -0.957047        -4.41242         6.27322
LJ          -4.38797         5.69216        -4.63617
LJ          -2.60978        -4.15884       -0.283942
LJ           5.90976        -4.19089         1.21115
LJ          -6.32089       -0.614749        -1.74465
LJ           4.44541        -6.15124        -2.82157
LJ            2.5104        -5.93161         4.69268
LJ            3.6496       -0.975709         3.24373
LJ            2.2111         5.44823         4.86992
LJ           2.04578         4.61563         5.28342
LJ          -1.97941         1.63791        -3.53091
LJ         -0.118781         2.56161         2.35583
LJ        -0.0208366          3.7889        -6.43441
LJ          -4.59467        -3.30158         1.19522
LJ           1.78811         2.55464        -3.84595
LJ           6.04393        -6.27099         1.03931
LJ          -4.77678         5.13097         3.72431
LJ          -3.31656       -0.270022        -5.22619
LJ          -2.91952          0.2069         6.03626
LJ          -4.49025         1.20774        -2.27767
LJ           4.40393         3.59317        -2.16793
LJ          0.145748         3.48314         4.73473
LJ           -3.2884         5.88824        -2.53186
LJ           1.29704         5.92202        -4.64416
LJ          -1.22808        -3.51148         2.01634
LJ          -4.20482         2.92445        0.954542
LJ           3.71264         6.36867        -1.99909
LJ           -4.2223         3.33319        -1.99937
LJ           5.34651         5.74114         3.90905
LJ           1.02804         4.09018         -4.6977
LJ           2.78375        -1.47212         1.01076
LJ           6.35738        -4.85876         3.63713
LJ           3.76043        -1.05842        -1.68873
LJ           4.29322         3.58966       -0.724508
LJ          -4.28215        -0.33048        -1.78818
LJ           2.76852       -0.280521        -2.63426
LJ           5.06627        -4.28058        -4.29371
LJ           2.36882        -2.87181        -3.12259
LJ           3.59622        0.252403        -4.58213
LJ          -4.94955         5.71466         4.79546
LJ          -4.58291         4.80953         1.12126
LJ           6.09188         5.04698          -1.493
LJ          -2.51097        -5.73577       -0.319843
LJ          -4.39504        -4.32055        -1.78895
LJ          0.795991         4.63516         5.94603
LJ           5.05558        -5.37946        -1.75928
LJ           4.15717        -2.94869        0.804104
LJ          -2.98685         3.77824         -3.5985
LJ          -3.37518        -1.14641        -3.87715
LJ           3.58223         5.21664        -4.44429
LJ         -0.894864          1.8404        -3.19878
LJ           5.83016         5.71524         2.71245
LJ          0.389306         4.91694         -5.9525
LJ          -4.98464        -4.70587          4.1583
LJ           -6.3672        -3.09184        -3.59646
LJ           -3.4229          4.3236        -2.37951
LJ           3.91164         3.43155         2.63367
LJ         0.0794164        -2.92173        -1.82333
LJ           5.66442        0.784593        0.629495
LJ           5.17971        -3.06579        -6.09016
LJ          -3.82693        -5.58227        -4.12746
LJ           1.04294        -2.88052        -6.45706
LJ         -0.495569        -6.34355         2.06102
LJ           2.21536         3.05678         2.53351
LJ          -2.26543         -3.3107        -3.46996
LJ          -4.12328         1.11306        -5.84651
LJ          -1.14029        0.111121        -1.55042
LJ          -4.77469         6.29984        -3.21716
LJ            3.0516       -0.290483        0.487921
LJ          -4.38809         2.56587          2.4639
LJ           3.41708        0.843638     -0.00840682
LJ         -0.728554          6.0683         5.38066
LJ          -0.96327        -3.45352        -3.04971
LJ          -1.16247      -0.0593177         4.98198
LJ           6.02188         2.65747         3.80794
LJ         -0.584554         5.03033        -3.99738
LJ           2.78859         1.36242        -6.04388
LJ           1.71647        0.417266        0.241419
LJ           4.46644         -4.7523        0.678492
LJ         -0.545466         6.03472        -5.65545
LJ          -6.18646        0.602956        -4.28175
LJ          0.447913         6.18194         3.14314
LJ           -3.5797        -3.23392        0.734097
LJ          -2.60415         5.18018       -0.102992
LJ          -5.39125         4.79089       -0.745841
LJ          -2.18727        -5.97049         5.19513
LJ            4.4407        -5.15722         3.14391
LJ          -5.44603         5.89275        0.140506
