108
#Comment!
LJ           4.12668        -3.19121        -3.05367
LJ         -0.911212         -3.7112         4.69696
LJ           4.95297         3.31859       -0.469715
LJ           5.86939         1.57925       -0.472217
LJ          -5.29473        -1.16784      -0.0597622
LJ         -0.940588         4.76836         5.68524
LJ          -5.70048         3.74634        -3.37605
LJ           4.66231        -2.33149        -1.31251
LJ          -2.94667        0.924164         3.17727
LJ           3.00453         3.73205         1.20007
LJ         0.0786245       -0.456848        -1.65344
LJ           1.91493        -1.36813         2.47842
LJ          0.486461         4.87295        -3.29671
LJ          -3.48354         6.26445         5.46574
LJ          -3.26822         -4.0018         -2.8088
LJ           2.08273         4.88841         4.43218
LJ          -4.00002       -0.206461        -1.45881
LJ           0.62563         1.56627          5.8376
LJ          -3.26401        -2.15397        -2.69626
LJ           -3.2074         4.60599       -0.452778
LJ          0.600507         1.57376          1.1504
LJ          -2.03076         6.02764        -1.33726
LJ          -5.70075         4.05206        0.259483
LJ           6.29266          3.5394        -2.88399
LJ          -6.06164         5.83033          5.8739
LJ          -2.92658         2.63237        -5.15835
LJ          -0.81742         1.03567        -1.51903
LJ          -2.10044         1.04479        -1.54791
LJ          -0.84841        -5.32438         3.35923
LJ          -2.11119       -0.362912       -0.256072
LJ          -4.26588         5.81284         3.88536
LJ           3.16933        -4.99351         2.18857
LJ          -5.09056        -2.59645        -6.20523
LJ           4.14378        0.311383         4.60923
LJ           2.75341        -6.39265         4.26974
LJ            5.4688        -5.19349       -0.160383
LJ          -1.11545        -3.25284        -5.21412
LJ          -5.85145         3.93957         4.86611
LJ          -4.37414        -1.23349         3.55166
LJ           3.12451         -3.1881         3.19698
LJ          -4.63321        0.593759         5.07329
LJ           6.38864         1.02436         1.00949
LJ          -2.36601         2.32064         5.82282
LJ           3.84953        -1.20917        -3.25787
LJ          -4.06008        -1.59033         4.57267
LJ          -5.69173        0.897365         -0.3237
LJ           3.92727         5.69595         1.33355
LJ           -3.2489       -0.898265        0.917894
LJ          -5.66742        -4.19393         6.39328
LJ          -4.28759         4.71255       -0.588877
LJ          -2.49162         1.38775         1.55301
LJ          -2.54033        -6.02484         4.34622
LJ          -1.87819        -2.45425        -3.48991
LJ          -4.04481         1.95202         1.16164
LJ          -5.22902        -0.78906         4.87811
LJ           2.13278          1.1672        -1.27144
LJ         -0.117985          4.3671        -5.59995
LJ          -2.96984        -1.90547        -4.81322
LJ          -4.76023         4.82573         3.47908
LJ            2.3994       -0.978666        -3.66464
LJ          -1.85429         4.35101         2.73566
LJ           2.80848         3.21415         2.61264
LJ          -1.99592         4.91104       -0.333343
LJ          -2.71002           3.584         4.52335
LJ           1.06873         3.31672         1.16017
LJ           3.01354         3.88686         3.90073
LJ           5.16524         3.97463        -6.38728
LJ           3.30665         4.72389         4.43337
LJ           2.61937        -5.79573         1.30066
LJ          -1.64863         2.11647        -1.58283
LJ         0.0934285        -5.43175        -5.44969
LJ           -3.9101         2.64537        -2.29997
LJ         -0.876531        -3.12723        -2.30148
LJ          -2.17995         5.39317         1.77404
LJ          -2.01026         2.86295        -4.35436
LJ          -2.41775        0.235518        -6.41794
LJ          -5.34954        -4.19064        0.984377
LJ           5.17751        -5.84597        -2.69525
LJ          -2.88184        -1.73336         6.15746
LJ           5.28478        -3.34901        -3.24396
LJ          -1.49872       -0.630766         -1.4921
LJ          -2.30186         5.21049        -5.38449
LJ          -3.14797         1.42259         -2.1539
LJ        -0.0401999         5.24435         2.95562
LJ           2.36409         2.48554        -4.42303
LJ          -1.45489        -6.40055         1.13366
LJ          -5.35792        -5.37309         6.22913
LJ          -4.32599        -3.04951         1.65524
LJ          -1.36409         1.00011        -4.15909
LJ           5.06058        -2.20609         -6.1025
LJ        -0.0107451         2.29181         3.68841
LJ           2.27875        -3.86882         1.08675
LJ         0.0800807         3.49312        -4.97941
LJ          -2.84765           3.416        -6.22722
LJ          -5.91764        -2.03564        -2.65159
LJ           3.21074        -5.50384       -0.839246
LJ          -1.28803         1.73652       -0.750006
LJ           2.83162        -1.14249        -5.64844
LJ          -1.57469        -3.76052         2.58612
LJ           5.38502        -5.40382         1.22634
LJ            4.7329        0.277005         3.73543
LJ           2.22543         1.43482      -0.0547236
LJ           3.99352       -0.713685         4.68485
LJ          -4.53624        -5.46291         5.57056
LJ          -1.65807         6.10843         6.10263
LJ           3.82603         -2.1207        -3.68703
LJ            5.0299        -5.28417        -6.34917
LJ           2.14039        -4.89335         3.26153
