108
#Comment!
LJ           5.00182         1.04648        -3.60415
LJ          -1.67757         6.22193       -0.510287
LJ           6.13964        -3.23486         5.80051
LJ         -0.604546          1.2032         5.66834
LJ           3.71663        -2.06956         3.01001
LJ          -4.60659        -4.02407         4.19924
LJ           2.92755         5.39498      -0.0408447
LJ           4.50329         4.79181         5.13937
LJ           1.63175         4.09975         6.16186
LJ          -5.51601        -5.50173        -1.82077
LJ          0.277789        -2.50272         0.55026
LJ           2.78144        0.146739         2.81892
LJ           3.34323        -4.08413        -1.91684
LJ            4.8307        -1.71903       -0.379239
LJ          -2.80448        -3.12541       -0.443089
LJ           6.05703         1.51196        -1.39479
LJ          -2.60268        -5.24052        -0.76709
LJ          -3.48532        -4.54773        -1.05719
LJ         -0.238976        -4.19948        -2.12914
LJ         -0.601096         4.78746         0.36005
LJ           2.99779        -1.46057         6.43972
LJ          -5.22165        -1.17985         1.07874
LJ          -3.80179         1.73091        -1.85398
LJ           2.02479       0.0928319        -2.01856
LJ          -6.00409         1.52204       -0.536134
LJ           4.87083         3.20855        -1.56343
LJ          -3.11879         2.31808         2.66067
LJ          -5.35086         6.06182       -0.761068
LJ          -4.23726        0.667837         -4.2939
LJ           3.99838         5.93068        -4.92252
LJ           -5.4152        -1.10723         3.96402
LJ            5.6714        0.491406         3.13251
LJ          -2.97779        -3.61017        0.660323
LJ           6.12736         1.46744         -2.5206
LJ           -3.6331         4.16296         -2.0561
LJ          -5.87099         3.82988         3.26733
LJ          -5.85093         3.19082        -5.29294
LJ           6.26992        -2.45682        -4.31908
LJ          -2.26665        -2.95774         1.30517
LJ          -3.32467         3.21775         5.02657
LJ           4.41869          2.3845        -4.65492
LJ          -5.65195         -2.1959        -1.23372
LJ           2.84371         3.07655        -2.86648
LJ          -6.37538        -5.98775        -4.36223
LJ           2.11084        -2.01975         2.07341
LJ          -2.91076        -1.06796        -6.04156
LJ          -2.61728        -4.44295        -2.32857
LJ           -3.1365          5.2592         2.94166
LJ          -2.66587        0.110397         4.77668
LJ           4.29655           5.365         3.80666
LJ          -2.63999         2.93588         1.37203
LJ          -6.39728        -3.35889        -5.18238
LJ          0.747992        -2.02236        -5.72136
LJ          -1.72349        0.110925         5.74332
LJ           4.03975         1.57014         5.43549
LJ          -4.87002         5.41831        -1.60417
LJ          -2.10434        -1.80767        -5.52758
LJ         -0.187666        -3.13952        -3.59601
LJ          -5.07608         4.69365         2.68262
LJ           5.68096       -0.788912         3.14938
LJ           1.05516         3.70354         1.34163
LJ           4.57631         4.61662        -5.77486
LJ           2.37642         3.91478        -2.44988
LJ          -0.14253         4.78219         3.87266
LJ           5.46589         6.25522         3.58005
LJ          -2.49797        -4.50175        -5.15965
LJ          0.832588         5.65258        0.669773
LJ            2.9172       -0.316459        -4.78146
LJ          -2.60185       -0.788662       -0.949886
LJ           3.33585        -0.67514        -3.39765
LJ           5.04643         5.46657         -6.3985
LJ           4.28119         3.54725        -2.53132
LJ           1.45539       -0.965035        -4.90066
LJ           5.40699        -2.60138        -5.24209
LJ          -3.50111         2.11744        -6.16571
LJ           5.19054         4.54615         3.50855
LJ           2.76879         6.17881        0.535625
LJ          -6.03404        -2.72216        -3.14329
LJ           3.47779        -5.21805        0.178836
LJ           2.57111        -4.52353         3.36344
LJ          -1.10411       0.0477037        -5.48865
LJ          -2.44782         3.46622         4.36269
LJ          -5.86911        -4.48687         1.56182
LJ          -3.69479         3.25487        0.800357
LJ          0.421591         4.88831         5.59976
LJ           -1.9656       -0.624807         1.64382
LJ           1.45815        -3.76595         1.59461
LJ           6.40076        -5.90185        -2.15886
LJ           2.46644         3.12292       -0.624317
LJ          -3.44614        -5.01901        -4.46395
LJ           3.63954        -3.85188        -4.96483
LJ          -5.83697         2.02589        0.560679
LJ          -4.52018          2.4207        -1.50932
LJ           2.67309         -6.1261         1.39204
LJ           1.65355        -3.46661          2.5831
LJ          -5.51634         5.23528         3.96674
LJ           1.45831        -3.78651        -3.65973
LJ          -3.18756         3.90861         3.49799
LJ           4.88465        -6.37021        -4.55434
LJ           2.85708        -4.89071        -4.71599
LJ          -5.03408        -6.41736         3.81994
LJ          -2.48565       -0.986155         4.45117
LJ            4.3038         5.73621          -0.998
LJ          -3.57719         -1.8951        0.559431
LJ           2.21966        -1.95861         1.11589
LJ           3.69052        -5.74354        -5.43322
LJ          -4.37371         3.10275         3.60985
LJ          -5.71684        -5.62913       -0.461649
