108
#Comment!
LJ           3.86765        -5.02853          -6.393
LJ           1.03194        -2.31165          6.4355
LJ           2.92229         1.21149        0.136867
LJ           -4.6367         2.83612        -6.20557
LJ           6.22848         1.96509        -1.49462
LJ          0.393236         5.92796         5.58474
LJ          -4.67499         3.96528        -1.36585
LJ           2.99843         1.75669         -3.9553
LJ           6.17553        0.330429        -5.43415
LJ          -4.27288         1.05161        -1.05908
LJ          0.244748         2.73392        -3.30192
LJ             3.975         1.87632         1.29302
LJ         -0.839279         3.75134        -3.77054
LJ           -2.2223         2.02228        -6.06376
LJ         -0.225861        -6.08423        -1.93192
LJ           4.47963        -6.42274          4.7528
LJ          -2.43945         5.13355        0.469226
LJ         -0.962889        -3.62843         5.55402
LJ            5.3296         -4.6314         4.98862
LJ       -0.00382811        -5.94437         0.99333
LJ          -1.68687        -1.75765         2.37491
LJ          0.417688        -6.32738        -4.57876
LJ           4.86311        -5.26744         3.92845
LJ          -3.63594         4.69988       -0.722279
LJ          -6.09278         -4.4532        -2.88461
LJ          -3.44124        0.635865        -2.55259
LJ           1.93067         5.65217         2.18274
LJ           2.30245        -0.12393         6.01176
LJ          -1.99035        -4.89772         2.64481
LJ         -0.710555         0.55241       -0.584844
LJ           5.61162         4.55637        -1.58854
LJ          -1.36906         4.85515         5.64673
LJ           6.34618        -4.27101          5.3716
LJ           5.87496         5.93283        -5.89639
LJ           -2.1583         2.34286         4.75627
LJ           3.15562         5.55376         3.07951
LJ          -3.49587        -6.42843         4.11159
LJ           3.44544         2.62472         5.04845
LJ          -4.70339        -4.32886         1.32517
LJ           5.12858         4.07723         1.02829
LJ          -4.66807          1.2826        -2.52728
LJ           4.43144         6.05563       -0.797264
LJ          0.878621         2.53019        -1.94837
LJ          -5.90116         1.27291       -0.775404
LJ          -5.68768       -0.282557        -5.84796
LJ           -4.8591         -1.8101       -0.234024
LJ          0.740431        -2.56014         2.43165
LJ          -1.85742        0.635165         4.61444
LJ          -2.80738        -4.28937         2.56355
LJ          -4.56287         4.66132        -3.68234
LJ           4.67366       -0.562544         3.05248
LJ           1.10542         3.16891         5.37788
LJ          -6.04033        -3.23498         -4.6308
LJ         -0.946626         4.76582        -1.17383
LJ          -3.85914        -2.93186         -5.7431
LJ           3.79478        -2.48041       -0.654966
LJ           5.37246         3.00036         5.35672
LJ          -5.70609         -4.3097        -5.65779
LJ          -5.68178         5.08815         3.62515
LJ          -1.56475        -2.12764        -3.68142
LJ          -4.63623        -2.26339          3.3385
LJ           6.25965         3.93188         1.68121
LJ          -2.66183         6.34246       -0.649181
LJ           5.17642         5.23204         4.02533
LJ           2.56545         4.55647         3.60188
LJ           4.29815         5.60859         2.82833
LJ           2.49122         5.91113         5.95162
LJ           2.79263        -6.09735        -3.12434
LJ          -5.64047        -2.26223        0.841267
LJ           1.58326         3.97803       -0.936078
LJ          -3.29163         5.11945        -1.55642
LJ          -4.96802         5.36494        -2.40735
LJ         -0.187821        -3.01595        -4.38194
LJ           2.30169         3.24428        -3.85911
LJ         -0.490653         3.22229        -2.64978
LJ          -4.20561          1.2031        -4.40438
LJ            5.8299        -2.73845         4.65045
LJ           6.17415          5.4599        -1.82353
LJ           1.65658       -0.556276         4.34963
LJ            5.8011        -2.98349        -1.56598
LJ          -1.25174         2.35839        -3.51973
LJ           1.15606         5.62584         -5.9152
LJ          -3.72629         2.19454        -1.37648
LJ           3.05951         -2.4654         1.93346
LJ           3.03689        -1.16172         -5.2495
LJ          0.118933        -6.39379        -0.58662
LJ          -3.02283        -3.19617         2.65786
LJ          -4.68023        -3.56723        -0.41412
LJ          -1.70811        -1.80222        -6.36815
LJ           2.81312        -6.30821        -6.36896
LJ           3.67587         3.98515         3.24764
LJ           1.72988        -3.75077         1.10123
LJ          -3.91655         2.08218        -2.93404
LJ           6.16848         3.09457         4.51706
LJ           -5.9758        -2.80507        -5.72023
LJ          -1.72984        -3.63362       -0.907276
LJ           1.70092         3.10927        0.166006
LJ          0.493081          3.2639        -6.39223
LJ          -2.39511        0.160788        -2.32137
LJ          -2.26164        -2.26562       -0.819662
LJ           3.25251        -1.62921         6.26652
LJ           2.69451        -1.16786         4.79457
LJ           4.22493        0.157481         5.89574
LJ          -1.51351         3.19971         4.99592
LJ           3.49469        -3.40897        -1.64194
LJ           -5.4393        -3.42061         4.74719
LJ          0.276236       -0.966741        -1.56016
LJ          -2.21071         6.22371        0.260317
