108
#Comment!
LJ           4.22571        -5.07181         5.82525
LJ           1.90624        -1.34367        -6.40748
LJ           1.76425         1.25589        0.104583
LJ          -3.82311         3.18721         5.04073
LJ           6.23626         2.08897        -1.26681
LJ          0.255524         6.31593          5.2308
LJ          -4.52716         5.02861       -0.788469
LJ           2.44122       -0.683985        -4.52982
LJ           5.26572       -0.194854        -4.12056
LJ          -2.09031         0.41295        -1.95786
LJ           0.98693          3.3749        -3.40887
LJ           4.70239         3.07406         1.28616
LJ        -0.0327775         4.37603        -4.13092
LJ          -1.76569        0.853488        -5.52399
LJ          0.543459         6.09408        -2.39191
LJ           6.42127         6.20205         3.11853
LJ          -2.16578         4.59812         1.53395
LJ          -1.28242        -5.23561         5.37539
LJ           4.96849        -6.03507         5.60335
LJ          0.576267        -5.06751         1.53873
LJ          -2.63065        -2.20752         3.30581
LJ           1.08053        -6.25575        -5.70435
LJ           3.07614        -5.20344         3.78198
LJ           -2.0977         3.66878          1.0269
LJ          -5.30634        -4.10533        -1.88443
LJ          -4.09989        0.130125        -2.44489
LJ           2.73725        -6.09453         3.36388
LJ           2.36903        -1.09436        -5.59106
LJ          -2.09186        -4.80207         2.58547
LJ         -0.309373         1.38001       -0.697147
LJ           4.30589         3.93333        -3.07432
LJ          -2.06473         4.64874        -6.17546
LJ           5.43922        -4.37634           4.336
LJ          -5.77236        -5.54182        -5.89214
LJ          -3.39839         1.44289         5.14052
LJ           3.61039         6.28236         3.90783
LJ          -4.61355          5.4445         2.83517
LJ           3.75341         1.57283         5.61298
LJ          -4.75169        -5.19866        0.525239
LJ           3.90281          2.9754       -0.499336
LJ          -5.84037        0.284144       -0.070909
LJ           4.65457         -4.9666        -1.68784
LJ            2.6278         2.58844        -4.18538
LJ          -5.84302         2.44758       -0.433515
LJ          -6.44657       0.0372872        -4.79918
LJ          -3.24714        -2.40798        0.273629
LJ        -0.0698627        -1.26233         2.05052
LJ          -2.03056        0.786675         6.08802
LJ          -2.94443        -3.80893         1.39853
LJ           -5.5819         5.45905        -4.04356
LJ           2.87613        -1.15497         3.46429
LJ           2.03025         1.95292         6.23936
LJ           5.43121           -3.19        -4.96417
LJ         -0.256907         5.54378        -1.72123
LJ          -3.54671         -3.5855        -4.71833
LJ           2.26889        -2.21467       -0.529088
LJ           3.55328         2.75154         3.83343
LJ           6.28285        -4.53306        -5.76111
LJ          -4.86932         5.01613          4.9273
LJ            -2.532        -2.88622        -3.16671
LJ           -5.6916        -4.42768         3.22097
LJ          -5.91662          4.1556        0.432567
LJ          -3.62769        -6.25678         -2.0873
LJ           4.82581         4.83464         4.78584
LJ           1.92153         4.13328         2.85461
LJ            2.7156         6.24617         2.05615
LJ           1.57535         5.62428         5.54002
LJ            2.2542        -4.60464        -1.36874
LJ          -2.31145        -1.42578         1.43559
LJ           2.68708          4.5053       -0.695991
LJ          -3.71572         5.63108         -2.1513
LJ          -5.17295         5.99237        -1.75406
LJ         0.0335393        -2.65011         -5.0167
LJ            3.5595         2.26532        -5.43113
LJ         -0.429902         3.23704        -2.80603
LJ          -4.85324           1.548        -3.44951
LJ           5.64841        -1.48985         4.67896
LJ          -6.28486         5.42461        -1.79492
LJ           3.52489       -0.480522         4.35689
LJ           5.60192        -3.41678        -2.17274
LJ          -1.23355         3.53381        -3.58481
LJ           1.76946         5.56258        -6.27717
LJ          -3.89208         1.54887        -1.16644
LJ           3.44521       -0.611383         2.19472
LJ           2.83506        -1.62763        -4.37093
LJ         -0.170646         5.99267       -0.442624
LJ          -1.93176        -3.22614         1.18749
LJ          -4.63427        -3.78929         -1.0529
LJ          -3.13749        -1.91789         5.41371
LJ           2.78252          6.0789        -4.67498
LJ           4.08189         5.21424         3.23921
LJ           1.82249        -4.01058         1.34269
LJ          -3.95568         3.15372        -2.53227
LJ           5.40752         2.82884         5.71747
LJ          -5.88426        -3.61396         6.33701
LJ          -3.22971        -2.65209        -1.04708
LJ           2.54878         3.54596        0.257128
LJ          -1.37948         3.97063         -6.1015
LJ          -2.76342         1.51311        -3.72867
LJ         -0.841935        -1.40727        -1.15545
LJ           2.91979        -2.29812         5.73211
LJ           1.61204        -2.36969         5.78991
LJ           5.93667        0.280043        -5.95398
LJ           -1.0016         1.39923         4.34884
LJ           5.59257        -3.18522        -0.34172
LJ          -3.98689        -4.57644         4.21591
LJ          -1.12996       -0.308452       -0.162681
LJ           -2.1859        -5.78038       -0.599658
