108
#Comment!
LJ          -3.52761        0.473293       -0.898324
LJ          0.813892        -2.23973        0.228315
LJ           1.84944        -1.81183         1.54387
LJ           2.65628         -1.8541        -2.31162
LJ         -0.552207        -2.69722          4.6334
LJ           3.35534          1.2206         4.39208
LJ           3.73972         2.68537         3.16786
LJ           4.92247        -0.13046         1.28403
LJ           -2.4172       -0.569836         4.21919
LJ          -1.21209        -5.89846        0.134246
LJ          -0.87443        -1.95739         1.91682
LJ         -0.244695        -4.94917        -2.64273
LJ          -2.34452           1.485       -0.895153
LJ          -5.60037        -2.52304         3.90415
LJ          -2.96943         5.09971        -5.54178
LJ         0.0802238        -2.68703         3.69117
LJ           3.08522        -3.93565        -3.53776
LJ          -6.35599         3.64049         6.44388
LJ          -1.67197        0.751708        0.219904
LJ         -0.934666        -4.66156        0.225615
LJ          -1.39712        -2.71027        -5.97222
LJ          -3.72832         1.78449        -3.29815
LJ          -6.11698       -0.357645        -3.24048
LJ           3.55544         1.84097         6.25704
LJ          -2.95653        -3.60783         5.85873
LJ           6.31534         1.56716         3.60854
LJ           -2.0079         -2.8211         1.91713
LJ          -3.41701        -1.58417        -6.19346
LJ          -2.14073        -5.69315       -0.107649
LJ          -2.29092        -1.17639        -1.71257
LJ           2.79799         1.69117         5.45579
LJ          -4.62583         1.39057          5.5971
LJ            5.9049        -2.13477        -3.40932
LJ           6.13144        -6.42531        0.509288
LJ           5.60858         5.14931         3.72085
LJ          -4.92414        0.421713         6.13617
LJ           4.68921          2.0728         3.85645
LJ           -1.1529        -1.12227         3.81473
LJ          -5.05908        -6.38979         1.00331
LJ          -1.31537        -4.07908         2.61651
LJ          -1.29857        0.663258         4.16453
LJ          -5.78155         3.23948        0.148221
LJ          0.501615        -5.71716       -0.408896
LJ          -3.33944         6.18442         1.90759
LJ          0.854011        -1.11171        -2.43249
LJ           1.28134        0.640862        -3.00664
LJ          -2.03414        -4.78925         5.39786
LJ         -0.552288       -0.567582         5.65133
LJ           4.69971         6.37622        -2.56762
LJ          -1.06279        -6.06093         6.04957
LJ           3.37078         4.21006        -6.45425
LJ          -5.22348        -4.03166        -5.92045
LJ          -2.44307         6.26357         6.19669
LJ            5.9327         5.04787        0.660861
LJ          -2.68792        -3.44258         3.31672
LJ         -0.126913        -1.26921          4.1833
LJ          -3.97605         5.10803         4.82183
LJ          0.441303         2.97985        -3.45129
LJ           1.23666        -2.71938         5.69833
LJ           2.10442        -5.79506         5.16682
LJ           4.29004         2.36728        0.701045
LJ         -0.526744        -3.53769        -5.46343
LJ          -5.38472        -1.85537        -3.95304
LJ           4.10741         3.84335         3.92776
LJ          -1.88519         1.45058        -1.83249
LJ          -6.23383        0.135744         -1.5263
LJ         -0.564661        -4.18168        -1.46451
LJ          -1.00394          4.6433         1.56378
LJ           5.62459        -1.77666        0.101538
LJ           3.64381        -3.05413        -5.38281
LJ          -5.61231        -3.87723         2.50257
LJ          -6.26901       -0.866685        -2.15233
LJ           3.27063        -6.02661         2.53248
LJ          -4.51174        -3.74939        -4.80559
LJ          -3.13574        0.106252        -5.91223
LJ            2.1766           3.019         3.14784
LJ          -3.71904         3.97411         5.12376
LJ           6.43602        -3.01044        -2.95487
LJ          -2.29977         3.53653         2.21812
LJ           5.42176        -3.27996        -1.74594
LJ         -0.489992         2.62283        -1.41639
LJ          -3.70652         5.38463         2.79056
LJ          -2.48348         4.94007        -2.19207
LJ          -3.99889        0.530135         4.10172
LJ           4.15603        -1.27564        -1.76854
LJ          -4.62805         2.22939         3.18097
LJ           2.34434        -3.68906         4.19345
LJ           -2.9273        -5.72281         2.16014
LJ          -1.77921         -2.7972       -0.967357
LJ             1.952        -2.15536        -4.89302
LJ           4.17215        0.138782        0.663763
LJ         -0.748104        -4.78688        -6.17758
LJ         -0.225198        -2.73509         1.32499
LJ          -1.45815         5.54069        -4.50395
LJ          -3.12884        0.518811         2.37772
LJ           -4.6006         5.08273        -1.96406
LJ          -4.99412        -4.90963       -0.475575
LJ           1.32762        -6.40388        -4.92441
LJ          -2.62778        0.980198        -2.70898
LJ          -5.32697         4.66453       -0.987995
LJ         -0.168742          4.6223        -5.33416
LJ           1.25523        -5.56196         6.14516
LJ         -0.280176        -4.24021         4.14649
LJ           5.83704         2.20901          2.7439
LJ          -3.74935         4.21059        -6.25396
LJ            2.3072         4.89061        -3.43089
LJ           5.74324          5.1174         -3.2639
LJ          -4.86783         1.48875        -4.12848
