108
#Comment!
LJ           2.96176         1.57798        -4.91714
LJ          -4.77818        -4.84404        -3.08501
LJ            2.7583        -0.67107        -6.00614
LJ          -2.54279         4.82136         5.52135
LJ          -4.99568        -4.72947        0.812225
LJ          -3.41051         3.24832         6.04809
LJ          0.343978         1.35438        -2.62699
LJ           5.10467         4.79013        -4.26061
LJ          -1.32836        -1.95355        -2.58193
LJ           6.28608         -6.1529        -1.17138
LJ          -0.93061         3.77494        -1.75707
LJ           3.22896        -1.38418         3.03697
LJ           3.15321        -5.67302        -2.81544
LJ          -4.65446       -0.789727        -4.14404
LJ         -0.477999        -4.39758       -0.540225
LJ           6.38593        0.896394        -4.79149
LJ          -2.56032         4.80244        -2.35382
LJ          -2.02035        -4.02078       -0.198096
LJ          -4.02737        -2.35188         2.84544
LJ         -0.114839        -3.26052          1.9339
LJ           1.73541       -0.617578         6.02637
LJ          -3.73158        -3.01544         4.17143
LJ         -0.180715       -0.607745         -2.0842
LJ          0.529462       0.0113335         2.76096
LJ          -5.47783      -0.0557451        -1.23556
LJ           3.36102        -1.04674        -2.15881
LJ        -0.0486098         2.06097         6.28129
LJ          -4.02473         3.57564        -1.43103
LJ         -0.839621        -2.14052         5.24091
LJ           3.05438        -3.22828        -6.05034
LJ          -5.95471         2.15948        -4.37401
LJ          -3.59865         2.65035         2.46514
LJ          -1.15165         -3.8252         2.15581
LJ           3.53636         1.54018         -4.0623
LJ          0.555854        -3.24963        -3.44994
LJ           5.90642         1.12173        0.404083
LJ          -4.73435          1.3002        -3.91006
LJ          -5.61331        -1.28691         -4.0203
LJ          -1.81701         6.05144         5.18367
LJ          -3.68431         1.66573         3.55145
LJ          -3.17738       -0.734624         5.10687
LJ           3.56225        -1.52847      -0.0668028
LJ           5.11712        -3.90127        -2.50038
LJ           6.29673        -6.15018        -6.22766
LJ         -0.228594        -1.97907       -0.242925
LJ           2.77558         4.80503         4.63264
LJ          -3.62044        -5.90552        -1.82668
LJ           1.06846        -4.30142        0.579128
LJ           -3.2199        -4.66427         4.35009
LJ           1.76873         5.36229         5.46811
LJ          0.102794         3.38883        -2.71222
LJ          -3.69597        -1.60688        -4.12799
LJ           1.88099        -2.16093        -4.90478
LJ           2.80673        -5.93831        -4.13356
LJ           1.92756        0.621826        -4.21905
LJ           5.67837        -3.52474         -1.6561
LJ          -5.61735         -1.6616         5.85616
LJ           2.09672        -5.31465        -4.99695
LJ          -0.69391        -5.47937         5.88847
LJ          -4.37113        -0.44224         3.17458
LJ          -3.01011         3.10197        -1.80179
LJ          -5.34087         5.06772        -4.50864
LJ          -3.32163        -1.11564        -1.38608
LJ          -5.64372         5.19222        -5.86188
LJ          -3.23481         4.89868        0.246423
LJ          -3.44462        -5.60574        -2.85181
LJ           1.77466      -0.0163515          2.8844
LJ          -1.98063       -0.247069        -4.40835
LJ          -3.20765       -0.927116         2.03322
LJ          -1.26949        0.580234       -0.688623
LJ          -6.19819         3.72459        -4.16634
LJ           2.90051        -2.56035        -1.02532
LJ            -1.824         2.40878        -2.07801
LJ           4.00613        -2.52857       -0.149301
LJ          -3.63136         0.89778        -5.70978
LJ           -6.4542         5.04305        -4.67975
LJ          -5.57043        -2.76101        0.907304
LJ           4.55988        -3.28926         6.29319
LJ          -4.67928         1.86284         5.95247
LJ           2.74193        -4.72819         5.40805
LJ          -1.82774        -5.53074        -3.18288
LJ           5.63461         1.39969         3.91557
LJ           4.36341        -6.36138        -1.14628
LJ         0.0950311         2.26692        -5.00373
LJ           -2.7703        -5.96547         3.36865
LJ        -0.0288453        -2.35474         2.53296
LJ           1.34925        -5.41294         1.19117
LJ           6.17519        -4.62831        -1.38052
LJ           2.49697         1.64689        0.116069
LJ           5.13695         4.35863        -2.13829
LJ           1.48751       -0.487293         4.57905
LJ          -3.71032       -0.858689        -2.90147
LJ          -2.55772         3.90121        -4.63428
LJ           6.30119        -2.06447         -2.0249
LJ          -1.14115        -5.06201        -6.10219
LJ           6.29819         4.86631         6.43138
LJ           3.59993        -2.25553         6.05842
LJ           4.98179        0.611595         3.41265
LJ           2.52324         -5.6632        -5.80248
LJ           1.39776        -3.22457         2.80408
LJ          -0.57307          5.3497         0.72118
LJ          -1.51594       -0.540543         3.78785
LJ           5.45695        -2.61859        -2.32244
LJ          -2.88806        -4.58762        0.157224
LJ         -0.421878        -2.16433         -3.2535
LJ           3.13375        -4.63642         6.41502
LJ           5.90145       -0.110323         3.02432
LJ          -5.65747        -6.34357       -0.739325
