108
#Comment!
LJ           2.03027          -3.869          2.1811
LJ          -1.21022         4.57802        -5.77622
LJ          -5.14587         4.39983        -4.12611
LJ          0.840829       -0.601199        -5.37843
LJ          -5.35522         3.70373        0.861068
LJ          -3.22974       -0.224889        -3.02526
LJ            3.0861       0.0241765        -3.47739
LJ           -3.4118         6.26699        0.727473
LJ           1.77389         3.03194        -1.14891
LJ         -0.285604        0.937929         -4.5421
LJ          -1.35698         1.57221          -6.429
LJ           4.52224         4.96948       -0.464022
LJ           1.24324        -5.28369        -3.72335
LJ           1.74337         6.15023        -2.43876
LJ         0.0981656         1.37084        -5.82167
LJ           5.10785          -2.072         6.44094
LJ           5.61133        -2.95522          -3.094
LJ           0.48932        -2.87195        0.658143
LJ           3.38159        -2.48552        0.913666
LJ          -2.12601       -0.615324         2.45429
LJ          -2.08015       -0.710335        -5.83878
LJ          -5.75823        -4.23934         -2.0951
LJ           5.35145         2.73156         3.32146
LJ           3.16665        -3.37673         4.92161
LJ           4.93071         2.69726        -4.85837
LJ           5.69112         5.74203         1.04726
LJ           6.43479        -1.82677         5.85063
LJ         -0.863479        -4.53081         -5.6794
LJ           -3.0389        -5.21656         2.91467
LJ           1.14952         2.50632         4.33991
LJ           2.34595        -0.78877        -2.87093
LJ           1.90873         1.78889         1.86594
LJ          -1.75851         4.38891        -2.03234
LJ          -1.87904           5.581         4.91932
LJ          -1.62438         6.36466         2.21896
LJ          0.385662        -6.30511         5.93504
LJ          -1.17194         1.66415       -0.407733
LJ          -3.06231        -1.19127        -6.28169
LJ          -4.07444        -4.80639         1.82658
LJ           -4.0729        -0.96793        -5.84529
LJ          -2.74999         -4.2392         6.07041
LJ          -2.19664         1.47981        0.202657
LJ         -0.212178        0.184795        -3.85496
LJ           5.85815        -5.36511          4.3505
LJ         -0.209305         2.73268          -4.044
LJ           -6.2724         5.88431         1.64732
LJ         -0.351527        -1.92576        -5.51455
LJ          -5.61197         -4.8963       -0.495043
LJ        -0.0963907        -4.12009         4.36601
LJ          -0.12047        0.760218         2.39067
LJ           3.36327       -0.573206          1.7282
LJ          -4.27432         -3.5796         1.21692
LJ           5.22223         1.85844        -6.31178
LJ           6.35768        -3.67521        0.644882
LJ           6.34097        0.588635       -0.508457
LJ           3.48142       -0.146899        -5.22975
LJ           6.17527        -6.03495        -4.91484
LJ          0.433447        -4.36734        -1.72821
LJ           4.08945         5.33494        -2.82661
LJ           5.99046         5.06854         3.50179
LJ           5.20137         2.02097        -3.65331
LJ           1.42822        -5.88719         2.18922
LJ            1.3419        -4.34378        -3.24733
LJ          -1.25078        -5.65061       -0.464544
LJ           -1.8257         4.46779          4.4843
LJ          -2.71743        -4.32299        -4.49105
LJ           4.85841        -3.39433        -5.81105
LJ          -1.28148          3.0119         1.55174
LJ          -1.93011        -2.22191         3.00371
LJ         -0.376787         5.72174         5.49953
LJ            2.5006         1.04775        -4.62997
LJ          -2.76115        -3.41314         1.99456
LJ           4.83817         1.08651         2.52985
LJ           -6.1504         3.46095         -4.6393
LJ          -3.59717        -1.12175        -3.17511
LJ          0.093765         3.48804        -2.24837
LJ          -1.27046        -4.52323         4.85508
LJ          -1.25378       -0.174095        -3.16376
LJ           2.76494         1.56813        -5.80147
LJ          0.729749         -1.0628        -1.79365
LJ           5.83654        -5.78087       -0.767202
LJ         -0.133629        -5.26064        -5.14083
LJ          -2.59383        -4.75518        -1.35469
LJ            2.5086         2.23568       -0.614998
LJ           6.11406         1.00663         2.88098
LJ          -6.07867         5.06674        -6.07527
LJ          -2.27096        -3.16994        -1.40705
LJ          -2.56764        -4.03302         3.21032
LJ           1.27285         4.15946      -0.0455034
LJ            3.5055          1.6649         1.50414
LJ           4.50366        -1.10549        -4.91332
LJ          -3.24136         2.11208        -2.26987
LJ          -1.21239        -2.75942          3.3131
LJ           6.45294         3.37245         3.83727
LJ           5.29789        -2.32922       -0.445501
LJ           -5.3593         -3.6417          3.6592
LJ           3.28332         3.68231        -4.83587
LJ           1.47247        -1.05397        -2.49683
LJ           -2.6179        -6.29866        -5.02572
LJ          0.396548         4.88083        -2.60729
LJ           6.08315         5.21297         6.10729
LJ            3.2731         3.87028        -5.91638
LJ           2.89007         -1.8196         1.61157
LJ          0.780424        -1.82438       -0.284221
LJ           -4.1443         3.51848        -4.63991
LJ          -4.32176        -6.09669          3.9137
LJ           5.84262         2.05235       -0.860481
LJ           5.31491         3.90904        0.380297
