108
#Comment!
LJ          -6.32253        -4.36018         4.95022
LJ           2.08297       -0.845615         2.80502
LJ         -0.687462         1.56261      -0.0856265
LJ          -2.91405          3.6525         1.73024
LJ          -5.72993         3.40531       -0.107586
LJ          -1.53834        -5.38395         4.06635
LJ          -3.53944         5.76332       -0.936716
LJ           1.03725        -1.77958        -1.67981
LJ           3.93566        -1.09865        -1.93242
LJ           2.32564        -1.02605        -2.97933
LJ           2.78675         3.70602        -3.07473
LJ           5.62766         5.85742        0.997855
LJ          0.296563        -6.34209        -4.99552
LJ         -0.504473        -1.50794        -4.00551
LJ           3.36935         5.82699        -4.80555
LJ          -2.46966         5.37467          1.3688
LJ         -0.767567         3.15188         3.81871
LJ          -2.45094         4.45993         5.06906
LJ           3.63811          5.2702        -5.98801
LJ          0.846654        -3.95501         2.96495
LJ          -3.84865        -2.56005         5.34901
LJ           2.64972         6.16828         4.57146
LJ          0.606329        -2.31913         4.80805
LJ          0.784933         1.59769         4.54126
LJ          -4.07353         -6.0897        -3.32997
LJ          -5.61249       -0.431523        -2.29844
LJ           1.34571         6.07634         1.36806
LJ           3.41279        -4.68607        -3.34251
LJ          -2.64591        -4.22317         2.13398
LJ          0.508928         4.12358       -0.630488
LJ           1.82022         2.40993         -6.1144
LJ          -5.62227         6.32809        -4.37317
LJ           3.79833        -4.70977         2.52903
LJ          -4.33448        -1.80011        -6.41788
LJ          -5.20615       -0.598368         6.17406
LJ           5.15922         5.54792         4.21302
LJ           6.25527         3.72974         0.32154
LJ           4.04882         -1.0672        -6.44821
LJ          -5.28882        -5.64258          -1.422
LJ           1.25178        0.817189         -3.0897
LJ           6.12809        -1.64172         4.27761
LJ           3.92646         -4.4613        -2.51025
LJ           2.12724         1.45332        -5.25985
LJ          -5.96085         4.27925       -0.556028
LJ          -5.63687      -0.0607015        0.450826
LJ         -0.889719        -3.18934       -0.958422
LJ             2.604         3.94364         3.09864
LJ          -3.96124       -0.341175        -3.44176
LJ          -2.35937        -4.32044       -0.126501
LJ           5.35801        -5.82418        -4.61347
LJ         -0.766774        -1.31325         4.15483
LJ           4.10506       0.0864682        -4.55038
LJ           3.16462        -3.35216        -6.41296
LJ         -0.112748         5.93954       -0.758138
LJ          -2.84476        -4.99389        -2.60525
LJ          0.513274       -0.624305       -0.110992
LJ          0.995073         1.86587        0.695925
LJ           6.20515        -4.77986        -5.85508
LJ          -3.16449         4.81151        -5.35169
LJ          -4.72581        -4.66727        -1.97389
LJ           4.91099         4.44121         2.22867
LJ          -5.11406         4.00917        -2.12039
LJ          -5.63867        -5.29053        -3.95579
LJ           5.20127         4.07713        -5.50688
LJ         0.0403712         3.51068         1.59969
LJ          0.131661          -5.047         2.56955
LJ           1.62056         4.81802          4.8557
LJ           1.13089        -1.62273         2.29777
LJ         -0.106811        -2.02295         1.35091
LJ           4.90272         5.49652       -0.237864
LJ          -5.24893        -5.65351        -2.76068
LJ          -4.09436        -5.51952        -1.94998
LJ          0.639092        -2.02207        -6.45792
LJ           5.57709        0.881804         5.18039
LJ         -0.172963         4.08469        -4.15785
LJ          -5.95336         2.14283        -1.20068
LJ          -5.70748        0.680285          5.5628
LJ           -5.9047         4.92475        -1.64996
LJ           3.50151       -0.115691         3.55959
LJ           5.09096     -0.00919386        -3.51715
LJ          -0.51522         5.21979        -3.49129
LJ           1.83859         5.14539         6.06863
LJ          -4.37601        0.158233        -1.24796
LJ           4.13152         3.02341         3.46517
LJ           2.64256        -3.77273          -2.938
LJ         -0.605097         4.65376       -0.730401
LJ          -1.33793        -4.71153        -1.72074
LJ          -2.45606        -2.53345        0.416674
LJ           -6.1064        -2.23788         3.06929
LJ           3.40521         5.64907        -1.06499
LJ           3.85798        -5.66597         2.32101
LJ           2.87625        -4.12883         1.30117
LJ          -4.11287         5.24108        -1.55077
LJ           -4.8938         2.93461         4.47782
LJ           6.20008        -5.84356         6.26511
LJ          -6.30298       -0.998863       -0.769048
LJ           4.56341         4.23897        0.366438
LJ          -2.41337         3.32944        -5.20602
LJ          -4.20079         4.15749        -6.28903
LJ           1.76987        0.553016        -2.06587
LJ           1.62351        -3.07977         5.46779
LJ         -0.111642        -3.96918        -5.06654
LJ          -6.18755          1.4722        -6.35669
LJ          0.877153       -0.395988          1.8753
LJ          -2.89094        -3.04283         1.74425
LJ         -0.700271         5.77152         3.99879
LJ          -3.72482       -0.794681         2.34488
LJ          -2.24566        -3.49626        -2.47099
