108
#Comment!
LJ           2.65416         1.45245         -5.2074
LJ           -5.1438        -5.08909        -3.49858
LJ           2.12553       -0.624685        -6.16623
LJ          -2.99508          5.1862         5.47141
LJ           -4.5665        -5.01043        0.398185
LJ          -3.13903         2.46635          6.4492
LJ        -0.0521762        0.801349        -2.95213
LJ           5.49066          4.8438         -3.8863
LJ          -1.39246        -1.13389        -3.91676
LJ           6.08753        -6.12705        -1.18908
LJ         -0.928863         4.87091        -1.88131
LJ           3.26739        -1.57775         3.07172
LJ           2.96341        -5.88266        -3.07937
LJ          -3.75009        -0.72625        -4.65259
LJ          0.181177        -4.62137       0.0455789
LJ          -6.32238         1.10179        -5.32137
LJ          -2.19554         4.95759        -2.80109
LJ          -2.16129        -3.96404      -0.0407644
LJ          -4.20396        -2.95738         3.04913
LJ         -0.737702        -2.98718         1.82164
LJ            1.6216        -0.22846         5.89984
LJ          -3.93112        -3.49561         4.53327
LJ           0.16078       -0.656384        -2.07018
LJ          0.458513        0.269914         3.42062
LJ          -5.55249       -0.555162        -1.08077
LJ           3.19373        -1.73903        -2.19918
LJ          0.305853         1.97712        -5.99325
LJ          -3.78675         3.33901        -1.38112
LJ         -0.502259        -2.26862         4.87448
LJ           3.40336        -2.65121         -6.0958
LJ           -5.5823         2.42238        -4.01534
LJ          -3.17696         2.87492         2.45646
LJ          -1.03969        -4.40979          2.5314
LJ           2.76934         1.69306        -3.75173
LJ           1.00971        -2.44145        -3.62076
LJ           4.91219        0.404166        0.791106
LJ          -4.82482         1.47114        -4.34699
LJ          -5.19967        -1.22846        -3.83739
LJ          -1.78366         5.32874         5.83616
LJ          -3.81342         1.54219          3.0865
LJ          -2.53723        -1.24323         4.66687
LJ           2.95066        -1.28451        0.835303
LJ           5.15885        -3.06825        -2.61443
LJ           6.26135        -6.29014        -6.45816
LJ         -0.619393        -1.86186        -0.56252
LJ           3.38043         5.72178         4.39062
LJ          -3.91256        -5.93372        -1.44852
LJ           1.69334        -3.63368        0.348084
LJ          -3.67471        -5.35142         4.10969
LJ           1.53436         5.22776         5.61555
LJ          0.543982         3.42847        -3.28015
LJ          -2.84517        -1.17339          -3.946
LJ           1.97923        -2.23144         -4.7279
LJ           3.32974        -4.85071        -3.84634
LJ           1.21918        0.953401        -4.53231
LJ           5.88994        -3.27257        -1.40006
LJ          -6.17152        -1.66632         6.08944
LJ           2.24192         -5.4241        -4.49941
LJ         -0.200519        -4.98892          6.1516
LJ          -4.40669        0.423155         3.42031
LJ           -3.1972         2.92379        -2.60683
LJ          -5.14959         5.16924        -4.46552
LJ          -3.28593        -2.37111         -1.0157
LJ          -6.29005         5.35753        -5.19424
LJ          -2.73264         4.90021       -0.145814
LJ          -3.53454        -5.56495        -2.73501
LJ           2.16158       -0.252343         3.75781
LJ          -2.69053         -0.2506        -4.31781
LJ          -3.29288        -1.00543         2.53471
LJ          -1.91793        0.897907        -1.05876
LJ           -5.9956         3.49515        -4.28892
LJ           2.97021         -1.5507       -0.837266
LJ          -2.36423         2.83407        -1.80275
LJ           3.67402        -2.71662        0.672268
LJ          -3.32743        0.411405         6.08659
LJ          -6.27007         4.90779        -3.90658
LJ          -4.80505        -2.22327         1.02355
LJ           4.17292        -3.19918         5.48358
LJ          -4.31342         1.30885        -6.22987
LJ            2.7698        -4.40535         5.08651
LJ          -1.99084        -6.43655        -3.37511
LJ           4.82472          1.0403         3.86649
LJ           3.78723        -6.39439        -1.58046
LJ          0.765138         2.82908        -3.91956
LJ          -3.09801        -5.63153         3.11589
LJ          0.605224        -2.15996         2.68246
LJ           1.38873         -5.9539        0.618608
LJ           -6.2975        -4.62136        -1.13748
LJ           2.45924         1.45685        0.206618
LJ           4.56783         3.97815        -1.70395
LJ           1.07475     -0.00839387         4.26294
LJ          -3.26905         -1.3368        -2.59509
LJ          -2.14384         4.27499        -4.98806
LJ          -6.17586           -1.87        -2.60986
LJ          -1.99197        -5.57656        -6.02501
LJ           5.96692         4.73661        -6.20129
LJ           3.65494        -2.32391         5.84786
LJ           4.62245        0.109124         3.22227
LJ           2.70079        -5.76513        -6.18492
LJ           1.54717        -3.00282         2.54333
LJ         0.0535851         5.18335        0.321024
LJ          -1.33689       -0.150703         3.98152
LJ           5.48442        -2.13812        -1.95214
LJ          -2.68581        -5.21018       -0.143082
LJ         -0.770041        -2.82326        -4.07721
LJ           2.54083        -4.72836         6.37612
LJ           5.58138        -0.43628         3.33704
LJ           -5.7915        -6.30029       -0.698226
