108
#Comment!
LJ          -2.95907         1.06382        -1.74056
LJ            1.1853         1.47589       -0.446962
LJ          -1.83273         4.13755         1.79794
LJ          0.997043         -1.8748        -5.13366
LJ          0.863507       -0.521955         4.37216
LJ          -6.06469      -0.0113622         4.15177
LJ           2.58457         4.17809        0.707132
LJ           4.18408         4.32204         1.73553
LJ          0.325972       0.0386474        -4.04682
LJ           -6.0516        -5.06551         6.40229
LJ          -4.87397        -4.68542        -4.77686
LJ             1.208         5.16324         1.02932
LJ        -0.0889166        -5.44848       -0.455055
LJ           5.46565        -2.46404         1.85254
LJ          -3.28292         5.90908        -2.17157
LJ           2.62893         1.75373        0.917772
LJ          0.265844        -3.35703        -1.91208
LJ            6.2194        -6.09158        -5.64845
LJ           5.58053         3.06096       -0.941144
LJ          -1.23885        -3.76604        0.173629
LJ          -1.81077        -2.16453       -0.664853
LJ         0.0875027        -1.24742        -3.73381
LJ          -5.61884       -0.226304        -3.64583
LJ           3.82859         2.11024         5.93523
LJ           5.67949         3.72118         5.18839
LJ           5.22111         3.55183         1.24453
LJ           2.57389        -0.25225         3.08943
LJ          -5.81294        -3.99649         -3.0761
LJ            2.6591         4.72019       -0.363418
LJ          -4.78038         3.56265        -3.11106
LJ           5.49076       -0.616918         2.58917
LJ          0.204864         1.26666         3.47468
LJ          -5.36134        -2.42544        -2.84947
LJ           5.10601         2.41275         1.56861
LJ           5.93715         3.76612         2.15238
LJ          -4.77074         1.49295        -6.26401
LJ           5.89604        -1.77753         4.20982
LJ          -2.99032        -2.83314        -3.64427
LJ          -4.62935        -4.19956        0.869628
LJ         -0.994291         5.70953         2.41505
LJ          -1.38758         4.25884        -2.16413
LJ           1.01604          5.0446       -0.219002
LJ             3.315        -5.56529         1.16295
LJ          -4.59055        -6.11208        -1.07378
LJ           1.99848       -0.534583         6.08007
LJ            1.9624         4.11741        -3.48537
LJ          -1.76442        -3.56069         1.47276
LJ           4.50611         1.32024         6.29275
LJ          -4.00738         3.84555        -5.86943
LJ          -3.38642         5.65915       -0.752423
LJ          -4.99791         6.15966         1.68095
LJ          -3.63402         -3.9189         -3.8628
LJ          -2.40574        -3.12764        -5.24255
LJ          -5.04663         3.76718        -5.63228
LJ            6.2541         6.01634        -2.51094
LJ          -1.81259         1.15796         1.44696
LJ          -1.71995          2.2048       -0.214519
LJ          -1.47947       0.0878566         -2.2488
LJ           3.72417        -5.20832          2.0092
LJ           2.66568        -3.03326          3.9537
LJ          -3.86788          2.7794        0.433979
LJ           2.15492        -5.05399        -5.98684
LJ           1.37241        -6.15377        -4.32487
LJ           3.39417         3.78528         2.18046
LJ           0.36733         1.16915        -4.71618
LJ           2.51034        -1.98973         2.69166
LJ          0.260297         1.85835        0.962376
LJ          -4.90327         1.76078         4.58467
LJ          0.328168       -0.341924        -6.06741
LJ          -3.28266        -3.65896        -6.27965
LJ        -0.0316713         4.82002         3.71484
LJ           6.38226          1.1007        -3.87319
LJ           5.58725        -5.20622        -6.43148
LJ          -3.27739        -3.00335          -4.839
LJ          -4.24716         2.04146         5.36044
LJ           4.49261         4.49789         3.02237
LJ          -2.11774         6.40287         1.69066
LJ          -4.34978        -1.96122        -2.44629
LJ         -0.631872       -0.241039         5.75087
LJ          -0.48338        -2.92659        -1.03168
LJ        -0.0562701         2.57122         4.08046
LJ          -1.19261         5.95559         3.50932
LJ           3.15766         1.46528         6.26442
LJ          -4.53501        -6.17609         1.11078
LJ            4.9751         1.72964        -5.02791
LJ          -3.59855        0.901138         1.79684
LJ           1.84399        -3.93586         -4.1863
LJ          -3.65624        -4.93949        -1.23864
LJ          0.407924          3.6369         -3.0937
LJ           -1.1609        -2.81092        -4.13463
LJ           3.03132         4.79234        -1.32554
LJ          -4.24411         4.23206         5.64548
LJ          -3.02065         1.98308         2.33986
LJ         -0.390619         4.47981        -4.14928
LJ         -0.393726          3.7541         2.83282
LJ          -5.52261         5.40548       -0.347277
LJ           2.79081         2.53339       -0.101382
LJ          0.140725         5.46534         5.74828
LJ          -5.45255         2.53135        -3.05003
LJ           5.03473         4.45234        -2.46855
LJ           3.19285         4.78688        -5.38418
LJ          -1.76376        -3.94006        -2.06923
LJ           4.05526       -0.764983         2.77827
LJ          -6.40085         1.60619         1.12672
LJ         0.0418825       -0.765938        -2.57388
LJ           3.17984         4.53028        -4.16703
LJ           1.94189         2.23021         5.79247
LJ          -5.22999        -3.72551        -2.03143
