108
#Comment!
LJ           2.17056         4.15208        -3.49613
LJ           5.17338         5.15482        -6.34309
LJ          -2.19391         0.39695         5.63576
LJ           5.92453         5.71183         4.60167
LJ          -4.04438      -0.0733493         2.18458
LJ          -1.76029        -4.71273        -4.77389
LJ           -4.4267        -1.00857        -2.99038
LJ           6.24675         3.72446         1.11494
LJ          -3.36522         3.65264        0.779014
LJ           5.96129        -4.31364        0.294562
LJ         -0.487436       -0.903752        -3.19335
LJ            3.8254         -4.8785         1.84811
LJ           5.56626         6.42401        -4.74322
LJ           1.04833        -3.37222         3.57444
LJ           4.80725        -5.57039         4.85234
LJ          -4.85578         4.33393         6.23259
LJ           1.59419        0.500469          -1.616
LJ          -1.96437         -4.2141        0.478065
LJ           6.04788         5.04108          5.4197
LJ          -3.49391        -2.60173         1.70394
LJ         -0.348028        -1.44428         6.29591
LJ          -4.91574        -6.39175        -5.71689
LJ         -0.996382        -3.04447         -1.8055
LJ          -5.89347         6.07113        0.277353
LJ           -5.4858        -1.43263       -0.600763
LJ           3.39407        -5.61848        -2.45951
LJ           2.10713          5.6943         5.92748
LJ           5.22537        0.931335         1.57889
LJ           1.71328        -5.51292          3.8133
LJ           2.97823         2.33238          5.8601
LJ          -2.80812         2.65636        -4.05249
LJ         -0.755272          2.9057         2.52016
LJ         0.0703224         4.52224         5.24111
LJ           5.56263        -2.40957       0.0524663
LJ           3.91255         3.38141        -5.17621
LJ          -3.50792         -5.2925         3.08866
LJ          -5.51105         3.86792         4.88856
LJ          -3.33285       -0.284306        -4.31505
LJ         -0.909106        0.457291          6.1727
LJ          -4.33649         1.42746       -0.842782
LJ           2.47561         5.99411      -0.0688118
LJ          0.469909         2.81121         4.62592
LJ          -5.31521         3.16893        -2.76281
LJ           3.96684         4.38275        -4.98691
LJ          -1.81609        -2.03311       -0.363342
LJ          -5.02639       0.0573471         2.20935
LJ           6.04295         6.28357       -0.401183
LJ          -6.24898         1.52912        -1.20084
LJ           5.85232         6.01606         3.51058
LJ          0.692952         4.05764          -5.761
LJ           2.27282         -2.4619        0.193405
LJ           3.98255        -3.20739         5.12801
LJ           2.71131        -1.93514        -2.85907
LJ           4.35067          1.4459        -1.67769
LJ          -2.78554       -0.315389        -2.14332
LJ            2.9606       -0.382455        -1.64625
LJ           4.59236        -2.97818        -4.83895
LJ           2.29915        -3.27738        -3.45946
LJ           3.45144        -1.55299        -5.06368
LJ          -4.50558         6.08223         4.46263
LJ          -3.99758         4.28159         3.82874
LJ          -6.36025         5.17224        -2.57111
LJ         -0.992714        -4.98068       -0.213995
LJ          -5.49048        -4.43541        -1.86089
LJ        -0.0344685           5.097        -4.60569
LJ          -5.65101        -5.68922        -2.04567
LJ           3.99216        -2.07146        -1.91312
LJ          -3.44819         2.92054        -3.17737
LJ          -3.61158        -1.45641        -6.06067
LJ            5.0854         4.10766        -3.82738
LJ           -2.3054         1.72844        -3.72976
LJ           5.08816         3.95795         1.50421
LJ         -0.927798         4.93618        -4.07392
LJ          -5.06581        -3.53057         2.54536
LJ           2.47499        -3.53067        -1.68278
LJ          -4.01357         4.50095        -1.99642
LJ           1.35286         1.81176         2.11052
LJ           1.09662        -3.34154        0.166205
LJ          -6.00084        0.400089        -1.27148
LJ           2.71344        -3.05469          5.2358
LJ          -3.74655         6.09652         -6.0472
LJ           1.74465        -2.22539         5.58674
LJ         -0.195843        -5.61985       -0.235208
LJ           2.65398         3.75471         4.74353
LJ          -2.96073        -4.37984        -2.16914
LJ          -3.11168        0.996831         6.32202
LJ         -0.433948         2.49148        -1.66256
LJ          -4.85579         5.97355       -0.854328
LJ           3.05532      -0.0724971        0.136606
LJ          -1.91723         3.48469         1.24262
LJ           2.86833         0.39679         1.88706
LJ           -0.7838        -5.27589         2.78817
LJ         -0.680788        -4.73346        -2.24231
LJ          -2.78401       -0.396358         6.06135
LJ           5.19525         3.29172         6.40326
LJ           1.73233         4.24234        -4.56961
LJ           2.85292      -0.0195997         5.92384
LJ           2.65266       -0.757247         1.84536
LJ           3.21426        -4.86795         3.04172
LJ          0.505575        -5.69813         5.63242
LJ           4.93056         1.71882        -2.67014
LJ           0.30935         4.42181         4.15351
LJ          -4.23794       -0.795907         1.42248
LJ          -2.42838         5.28925       -0.807402
LJ          -3.37285         5.27996         2.54647
LJ          -1.17116         -5.6373         5.58887
LJ           4.09497        -3.29107         3.50493
LJ          -5.39428        -5.65676       -0.361552
