108
#Comment!
LJ           2.74385         6.32333        -1.03752
LJ           2.51092           4.013        -5.79071
LJ           -3.4772         2.74947         5.98807
LJ          -5.20396         3.31305         3.87856
LJ          -2.72146        -2.54966         5.81058
LJ          -1.19571         4.33748        -4.94627
LJ           5.04016       -0.751309        -2.16625
LJ          -5.77629          3.8944         2.24432
LJ           -3.9726         5.04833       -0.627827
LJ           5.82752        -2.34457         2.24309
LJ          0.771942         1.55349        -3.80445
LJ           4.58177        -6.33504         1.15604
LJ          -4.35956        -5.71163        -4.98041
LJ          0.526858        -4.65885        0.327002
LJ           3.41599        -2.88604          6.0063
LJ          -5.92755         6.24299         5.64533
LJ          0.617339        -1.38018         1.83831
LJ          -1.04946        -3.69424        0.357554
LJ           4.76171         2.25173         4.62036
LJ         -0.644748        -1.70649         2.07297
LJ          -1.11633        -5.22465         6.26301
LJ          -4.24443         5.64791        -4.27482
LJ          -2.96473        -4.75337       0.0811609
LJ           5.68042        -3.94911         1.32867
LJ          -6.30637       -0.392575        -1.87427
LJ           4.68524        -6.32011        -2.69839
LJ           2.63475        -5.58489         4.38011
LJ           3.21125        -1.49465         3.68326
LJ           2.83445         5.86728         4.85049
LJ             1.983         4.48377         5.44347
LJ          -1.66446         1.37457        -3.32724
LJ         0.0597624         2.47127         2.31586
LJ         -0.183092         3.91397        -6.42931
LJ          -4.34758        -3.57204         1.64199
LJ           1.19266         2.35524        -3.48915
LJ           5.09203         -6.3617        0.225781
LJ          -4.65369         5.39883           3.365
LJ          -3.24428       -0.364797        -5.31694
LJ           -3.5011        0.195653         6.01901
LJ          -4.46775         1.05524        -2.64857
LJ           4.94179         2.90329        -2.63193
LJ           0.10085         3.59673         4.71272
LJ          -2.62116         6.38711        -2.45311
LJ          0.525012         6.32348        -4.88048
LJ          -1.03139        -3.85853         2.66516
LJ          -3.96615         3.76563        0.726853
LJ           3.23001        -6.40488        -2.69979
LJ          -3.73613         3.84566        -2.15039
LJ           5.15666           5.724         4.36927
LJ           1.18871         4.31235         -4.0856
LJ           2.87762        -1.59006         1.18736
LJ          -5.93544        -5.33048         3.30442
LJ           4.07916       -0.884447        -1.38452
LJ           4.27116         4.23078       -0.586567
LJ          -4.72026        -0.27485        -1.71203
LJ           2.81871       -0.244707        -2.93491
LJ           5.12948        -4.74272        -4.40231
LJ           2.40181        -2.75079        -3.01618
LJ           3.62486         0.75055        -4.45414
LJ          -4.96952         5.43558         5.07787
LJ          -4.73339         4.86851         0.41679
LJ           5.96796         5.02114          -1.166
LJ          -2.88828        -5.89451       -0.373243
LJ          -4.10167        -4.30975         -1.7672
LJ          0.583315         4.27119         5.44472
LJ           4.38818        -5.38008         -1.7403
LJ           4.20536        -3.19944         1.54546
LJ          -2.78993         3.94548        -3.77837
LJ          -3.30866        -1.18472        -3.24257
LJ           3.24898         5.48169        -4.58116
LJ         -0.593649         1.87742        -3.10124
LJ           6.09758         6.10456         2.71206
LJ          0.785656         4.77311        -6.38663
LJ          -5.00388           -5.04         4.57904
LJ           -5.2017        -2.85424        -3.86289
LJ          -3.35501         4.39086        -2.97891
LJ           4.59346         3.86382         2.77631
LJ         -0.229855        -2.82272        -2.39963
LJ           5.32565        0.891342         1.13438
LJ           5.88004        -2.97406         -5.5856
LJ          -4.00174        -5.38667        -3.64326
LJ           0.85055        -3.06574        -6.21723
LJ          -1.15442        -6.18045         1.69592
LJ           2.10925         2.87032         1.95309
LJ          -2.36561        -2.99233        -3.87889
LJ          -4.39273         1.37798        -5.93218
LJ          -1.33437       -0.530271        -1.54023
LJ          -4.81672        -6.40449        -3.92654
LJ           2.95861       0.0646043        0.574789
LJ          -4.93007         2.06298         2.71816
LJ           3.63179        0.856123       -0.531563
LJ         -0.975771         5.80104          6.2749
LJ         -0.672992        -3.19321        -3.22666
LJ         -0.422891        0.297675         4.96974
LJ           5.92083         2.18496         3.31512
LJ          -1.26053         5.32508        -3.99248
LJ           2.77737         1.73158        -5.76652
LJ           1.43517        0.743043        -0.18606
LJ           4.91737        -4.88497       0.0672794
LJ         -0.832313         5.50632         -5.1585
LJ          -5.80779        0.685605         -4.9906
LJ          0.980115         6.00181         3.61234
LJ           -2.9355        -3.52105        0.580738
LJ          -2.57366         5.25385        0.136677
LJ          -6.03388         5.02461         -1.7563
LJ          -2.40561        -6.08458         5.09084
LJ           4.55208        -5.68823         2.98258
LJ          -5.52835         5.44585        0.250751
