108
#Comment!
LJ           3.84769         4.91815        -5.39517
LJ          -2.47574        -2.32831         6.27517
LJ          -6.25858       -0.296047        -2.96855
LJ          -2.77974        -1.18293        -6.36707
LJ          -3.04069        -4.05624         5.94987
LJ           3.62085          1.6891         3.22737
LJ           -3.9906        -4.80071        -1.20345
LJ           5.92284         4.18555          1.0748
LJ         -0.275455         3.40402         5.58646
LJ           3.27762        -3.40359         1.88293
LJ            6.0921         6.28345        -4.02044
LJ          -6.37997         4.50596        -2.63519
LJ           4.99542       -0.587239        -5.74302
LJ           0.91411        0.632734         6.31732
LJ           4.80488          2.1364        -2.75908
LJ           0.58762        -6.16432         2.91762
LJ           1.90885         4.36118         4.63593
LJ           2.62268        -5.85636         4.87707
LJ           1.62375        -4.75253       -0.620167
LJ           2.26835        -3.67607         6.08275
LJ           1.25834        -4.95939         5.07524
LJ         -0.660289        -5.94681      -0.0262166
LJ            1.3122        -3.67626        -1.31043
LJ           6.40836       -0.380212        -1.50486
LJ            1.7325          5.6308         3.97786
LJ          -1.62638         0.22108        -6.02361
LJ          0.246803        -2.81504        -3.33159
LJ          0.196183         1.55706         4.99348
LJ           -3.5695       -0.890856         3.82243
LJ           3.18407        0.544131      -0.0105185
LJ          -1.77569         3.35644        -2.45666
LJ           3.68921         1.23934        0.795112
LJ         -0.391733         3.14348         3.08681
LJ           2.74965         3.14144        -3.55958
LJ          -1.75151        -5.60668        0.984226
LJ          -2.37081        -3.82152        -1.42539
LJ           5.95935         3.84644        -1.88059
LJ          -4.93294         6.16937        -2.97368
LJ           5.03293        -4.44357        -0.59564
LJ         -0.129354        -4.91159        -1.55498
LJ          -3.67334        -5.93151        -2.42611
LJ           2.91699         5.41395        -5.30596
LJ          -4.59077         4.10784         1.38494
LJ           3.82538         4.04156         5.07468
LJ          -4.25662         5.45998          4.6292
LJ           5.33975        -4.77189         2.42163
LJ          -5.76491         1.23048        -1.25078
LJ          -5.46888        -5.87444        -1.39216
LJ            5.7598        -4.45162        -3.75062
LJ        -0.0412059         2.21907         2.03094
LJ           -1.6698        -3.36369         2.82798
LJ          -3.90896        -1.21269        -1.05711
LJ        -0.0997295        -4.50373         1.70881
LJ           3.63121         2.46656        0.960067
LJ          -5.48345        -1.27062     -0.00630034
LJ          -3.73346         5.04772        -2.49164
LJ         -0.294038        -4.01363        -2.87824
LJ           5.29135        0.653493        -3.14956
LJ           5.41821         4.90667        0.245886
LJ          -3.82964         6.04569        -4.18892
LJ          -5.86502         5.59772        -2.02819
LJ            3.7676         1.16655         4.50461
LJ          -2.05052          -3.012        -5.23305
LJ           -2.0006        -1.45947        -2.77947
LJ           2.13843        -3.98948        -3.19621
LJ          -5.13424         1.13963         4.60353
LJ          -5.11811        -6.20808        -5.07587
LJ            1.6282         1.73101         2.39041
LJ           5.85922        -6.14423         2.25227
LJ           3.88282        -3.74217        0.305007
LJ          -6.24689         6.45089         -2.6854
LJ          -1.41667          5.6441        -3.17537
LJ           2.30576        -5.12849        -4.77959
LJ           5.07419        -2.75962        -4.80267
LJ          -4.25479         -5.7077          2.0035
LJ           3.06143        -1.30753         5.26653
LJ           1.53355        -5.67476         2.54929
LJ           3.68641        -4.12909         5.44974
LJ          -2.51515        -3.37694         1.84461
LJ          0.195877       -0.337264         2.26901
LJ          0.819999         6.28801         4.12155
LJ          -6.14124         5.70767        0.547829
LJ         -0.111665         6.30393         6.15211
LJ           5.31488         5.63297        -5.13305
LJ         -0.255788         4.05721        -5.91998
LJ          -3.94791         1.35831          0.9556
LJ           5.82756        -6.37809         6.18339
LJ          -3.71842        0.387151         5.01167
LJ          -1.67328         4.47131         4.14794
LJ           5.45135         1.25931         5.21286
LJ          -4.03096         3.63436        0.259583
LJ           6.41762        -5.54608         3.32494
LJ           1.33856        -3.52245         1.29141
LJ          -3.50364        -1.31646         2.30521
LJ          -2.73295         1.90072         3.96503
LJ           5.11789         5.45478        -6.24064
LJ          -5.02137         4.34042         4.35621
LJ         -0.516096        -6.03528        -2.01025
LJ          -4.33271        -3.96452         5.31349
LJ            0.3514        -2.08615         4.88557
LJ           1.41705        -4.60141        -5.14866
LJ         -0.788984       -0.857827        0.493389
LJ          -5.30199         1.47259        -5.44247
LJ           4.04919         2.63895         4.68309
LJ          0.167462          0.9942         2.56755
LJ           2.61454         1.27407         3.17824
LJ          -0.20562         4.57552          5.3438
LJ          -3.42506        -1.73192         1.03506
