108
#Comment!
LJ           2.75648          6.0279        -1.60092
LJ           2.97219         4.17286        -5.92989
LJ          -3.28891          2.4341         5.89851
LJ          -5.68594         3.52958         3.62518
LJ           -2.7206        -2.02461         5.39582
LJ          -1.37044         4.90299        -4.91636
LJ           5.65396       -0.580583        -2.35115
LJ          -5.90297         3.79114         2.52082
LJ          -3.80025         4.85938       -0.690389
LJ           5.88862        -2.85747         1.85574
LJ          0.594425          1.1461         -3.7194
LJ           4.45046        -6.23083         1.25497
LJ          -4.89421        -5.79067        -4.99628
LJ          0.620952        -4.46124        0.831195
LJ           3.63748        -3.25789         5.88633
LJ          -5.65528         5.89523         5.65132
LJ          0.770546        -1.14406         1.25062
LJ          -1.15286        -3.73976        0.435972
LJ            4.8669         2.70466         4.85488
LJ          -1.05934        -1.84969         1.98935
LJ          -1.00054        -4.63482         6.27085
LJ          -4.34384         5.66847        -4.54497
LJ           -2.7349        -4.23315       -0.130968
LJ           5.85125        -4.12958         1.24223
LJ          -6.32487       -0.552548        -1.78705
LJ           4.52274         -6.2016        -2.80267
LJ            2.5449        -5.83068          4.6058
LJ           3.52902        -1.11842         3.36508
LJ           2.37302         5.52293         4.88315
LJ           1.91527         4.60478         5.33851
LJ          -1.90545         1.56143        -3.47832
LJ        -0.0701911         2.53657         2.34465
LJ        -0.0801161         3.80535        -6.42988
LJ          -4.53445        -3.37559         1.32309
LJ           1.62716          2.5013        -3.74743
LJ           5.78924        -6.29817        0.813908
LJ           -4.7398         5.20355         3.61728
LJ          -3.29594       -0.297465        -5.24948
LJ          -3.07819        0.203247         6.02728
LJ          -4.48409         1.17011        -2.38165
LJ           4.55227         3.40243        -2.29844
LJ          0.129723         3.50925         4.72201
LJ          -3.10283         6.02763        -2.50945
LJ           1.08765         6.03608        -4.70724
LJ          -1.17418        -3.60868         2.19765
LJ          -4.13709         3.15193        0.891116
LJ           3.54633         6.39727        -2.17749
LJ          -4.07243         3.49213        -2.06428
LJ           5.29132         5.73553         4.04195
LJ            1.0731         4.15014         -4.5272
LJ            2.8085        -1.51145         1.06216
LJ          -6.39826        -4.98847         3.54321
LJ           3.84737        -1.01272        -1.60232
LJ           4.28622         3.76624       -0.683652
LJ          -4.40078       -0.319209        -1.76467
LJ           2.78027       -0.269805        -2.71815
LJ           5.08342        -4.40808        -4.32352
LJ           2.37796        -2.83873        -3.09344
LJ           3.60513        0.388973        -4.54672
LJ           -4.9936         5.65445         4.92217
LJ          -4.63857         4.83713        0.928895
LJ           6.06112         5.04028        -1.40841
LJ           -2.6141        -5.78433       -0.335827
LJ          -4.31484        -4.31727        -1.78314
LJ          0.875351           4.549         5.76169
LJ            4.8754        -5.37064        -1.74511
LJ            4.1681         -3.0166         1.00781
LJ          -2.95406         3.84021        -3.61319
LJ          -3.35694        -1.15782        -3.70099
LJ           3.49127         5.29031         -4.4813
LJ         -0.803335          1.8562        -3.16686
LJ           5.90663         5.82194         2.70707
LJ          0.504189         4.89165        -6.05733
LJ          -4.98545        -4.79657          4.2769
LJ          -6.04629        -3.02628         -3.6697
LJ          -3.39929         4.30354        -2.55767
LJ           4.09946         3.55086         2.67259
LJ      -0.000931336        -2.89171         -1.9756
LJ           5.57174        0.814009        0.768697
LJ            5.3731        -3.03999        -5.95156
LJ           -3.8637        -5.51834         -3.9894
LJ          0.989983        -2.93136        -6.39104
LJ         -0.677753        -6.29868         1.95981
LJ           2.18583         3.00533         2.37359
LJ          -2.29855        -3.22276        -3.58464
LJ          -4.20004         1.18788        -5.86879
LJ          -1.19369      -0.0655536        -1.54729
LJ          -4.79756         6.35936        -3.39887
LJ           3.02625       -0.196471        0.517038
LJ          -4.53545         2.42442         2.53407
LJ           3.48154        0.857071       -0.159268
LJ         -0.796511         5.99483         5.62332
LJ         -0.882273        -3.38536        -3.10277
LJ          -0.95861       0.0389502         4.97848
LJ           5.99338         2.52368         3.67029
LJ         -0.770735         5.11154        -3.98698
LJ           2.78498          1.4645        -5.96877
LJ           1.63401        0.509094        0.122533
LJ           4.58653        -4.78636        0.505468
LJ         -0.622278         5.90323         -5.5243
LJ          -6.08281        0.625647        -4.47679
LJ          0.594847         6.13215         3.27254
LJ          -3.37027        -3.39656        0.635541
LJ          -2.58719         5.20119      -0.0325581
LJ          -5.57409         4.85184        -1.02414
LJ          -2.24952        -6.00119         5.16528
LJ           4.47019        -5.30222         3.10039
LJ           -5.4572         5.76551        0.177669
