108
#Comment!
LJ           -4.0559        0.706945      0.00154116
LJ          -3.75904        -3.35201        -5.45535
LJ           5.60514         3.20397        -2.61464
LJ          0.990796         6.19758          2.7541
LJ           1.55008         3.45559         1.30236
LJ           3.51634         1.20283         1.52431
LJ          -1.16727          3.9253         1.78828
LJ          -5.93392         2.03619          1.6407
LJ           5.43659         2.72828        -5.20867
LJ            1.9145        -2.60424         5.75655
LJ          -3.77684        0.712637         5.49977
LJ          -6.03089        -6.31694        -4.05769
LJ          -1.19527         5.84219         4.17987
LJ          -3.17761         5.19664        -4.39636
LJ           2.18709         2.38324        -3.40835
LJ          -4.40621        -1.89137         2.95358
LJ          -4.61922        -6.27323         3.73911
LJ          -4.58691        0.382474         1.79426
LJ          0.370928        -6.21604        -4.41929
LJ           6.35437        -2.40331         3.50467
LJ           1.65854        -5.65885         5.73869
LJ          -4.44797         5.27114        -3.97017
LJ            6.1522         5.01927        -2.95141
LJ           3.08983         4.51966        -1.33862
LJ           3.75218         5.54003         2.21037
LJ          -1.25617        0.759083        -2.13325
LJ          -2.26188         5.73476         4.10587
LJ           6.44195         2.73273        0.124584
LJ           2.60637        -4.66781          1.2724
LJ          -3.90789         1.71823        -2.20155
LJ          -2.19226        0.497773          4.9084
LJ         -0.081896        0.157557         3.77544
LJ          -3.15387         3.98137         3.96723
LJ           1.31169        -2.48252        -4.43166
LJ           5.11388         1.70271        -3.48602
LJ          -1.09578         2.15818          1.6329
LJ           -3.6285         -4.7224        -5.81766
LJ          -6.10049        -1.52823         3.40954
LJ          -3.38594         6.18773         4.36769
LJ          -3.02389        -2.90372         6.02501
LJ        -0.0805347        0.255366        -1.62537
LJ           -5.3584         1.71907       -0.544639
LJ           4.60272         4.70952         5.64357
LJ          0.145777        -3.22058        -6.36055
LJ            5.4899         2.35424         -1.7782
LJ           4.91422         -5.5498         3.64902
LJ           6.11148         1.36307        0.535062
LJ          -1.22381        -2.90326       -0.824761
LJ           3.25663        -3.32823        -2.34572
LJ        -0.0955491         -1.9052        -5.34581
LJ          -6.30594         1.51087        -4.76033
LJ           -1.3505        -4.54211         2.21152
LJ           5.66592         -4.0961        -4.03901
LJ           1.09882         1.86476         3.51128
LJ           1.88306        0.552192       -0.843916
LJ         -0.304001         1.35123         3.29746
LJ          -6.09496          5.7436          4.1631
LJ          -1.42683         2.37069        -3.05629
LJ           2.82316         -4.3574        -3.40582
LJ           4.75118        -6.03921         2.13002
LJ           2.08523         6.40981        -6.39819
LJ           5.54502        -1.54027         5.29289
LJ          -5.26292        -5.96973        -5.55965
LJ           3.33233        -4.21135        0.487118
LJ          -2.73759         1.42108         1.44544
LJ         0.0320503        -4.57224          1.2592
LJ            -2.646         1.50968         5.41427
LJ          -5.98485        -5.24701        -3.99026
LJ          -4.76516         2.12678          4.6947
LJ         -0.855657       -0.657163        -2.50277
LJ          -2.07849        -3.06532         3.27725
LJ          -0.67085        -1.51368         4.62707
LJ           2.49457         1.51958        -3.81925
LJ           5.53296        -3.67267         -3.0786
LJ           3.13343         2.46304        -3.75798
LJ          -3.26047         4.40098        -2.87418
LJ          0.191921         1.94312        -1.48199
LJ          -5.27536       -0.339633         5.31665
LJ           3.32407        -2.48368         5.81672
LJ           5.63296         5.44657         3.72414
LJ            4.4753        -3.67682         4.02673
LJ          -4.35222        -4.92298         4.41999
LJ         -0.289464        -1.33523        -3.56913
LJ           -2.3741         5.61239         2.75635
LJ          -6.25057        -2.72324         5.38784
LJ           5.09635       -0.239121        -2.22769
LJ         -0.486495        -2.75919        -5.88617
LJ          -4.54801        -5.17523        -5.20201
LJ          0.614126         6.03925         4.96884
LJ          -3.54639        -1.65016         2.30954
LJ           4.34302        -3.66778        -2.99239
LJ           -6.0756          -4.478         1.00468
LJ          -5.76109        -4.97796        -1.22746
LJ           1.99947        -6.19508        0.299152
LJ            -2.773         4.58415         6.36958
LJ           5.23626        -3.16424         5.16664
LJ          -4.93926        -1.73606          -1.318
LJ          0.858862        -2.91189         1.79251
LJ           5.46222         6.28843         3.28688
LJ           1.23373         3.18806         3.97222
LJ            3.6878       -0.897498        -2.82671
LJ           3.18432         5.85787         4.13505
LJ          -0.82547        -1.00661        0.703323
LJ           4.39568         3.81743        -2.11411
LJ          0.855289        -6.08425         1.10346
LJ          -5.24992        -2.80203         1.91769
LJ          -5.20307         5.96168        -5.48862
LJ           1.22919         4.30009        -2.17813
