108
#Comment!
LJ          -2.36781         1.06725        -1.66399
LJ            1.1582         1.11505        -0.40272
LJ          -1.42483         3.35355         1.68499
LJ           1.07499        -1.80263        -4.77998
LJ          0.769459       -0.729733         4.26059
LJ          -6.25541        0.154265          4.3451
LJ             2.718          3.8921        0.697898
LJ           4.00714         4.68323         1.81163
LJ        -0.0107615      -0.0559444        -4.15042
LJ          -5.76028        -5.16412         5.72193
LJ          -4.40625         -4.3855        -5.51591
LJ          0.935567         5.60268        0.613986
LJ         -0.586519        -5.76446       -0.364833
LJ           5.68397        -2.47884         2.09059
LJ          -3.29451          5.7736        -2.57101
LJ           2.27731         1.17279         1.21816
LJ          0.600804        -3.42061         -2.0664
LJ           6.19256        -6.30951         -5.8476
LJ           4.72831         2.53781       -0.735284
LJ          -1.19432        -4.66017        -0.02071
LJ           -1.3412        -2.00884        -1.51491
LJ         -0.822733        -1.03217        -4.00175
LJ          -5.86411       -0.439202        -3.73507
LJ            3.7811          2.2322         5.97375
LJ           6.17899         4.35455         5.24248
LJ           5.49718         3.32117         1.40941
LJ           1.95774        -0.55061         3.09943
LJ          -5.81781        -3.84084        -3.41925
LJ            3.7586         4.48783      -0.0199618
LJ          -4.47343         3.09781        -2.73213
LJ           4.98463       -0.335468         2.78737
LJ         -0.403959         1.38231         3.60937
LJ          -5.50365        -2.16566        -2.86608
LJ            5.0133         2.41172         1.90969
LJ           5.60424          4.1427         2.54353
LJ          -4.59894         1.36879        -6.21067
LJ           5.70478       -0.835264         3.95243
LJ          -2.52112        -2.92919        -3.97822
LJ          -4.71879         -4.3962        0.831079
LJ         -0.869277         5.99815         2.12264
LJ          -1.22205         3.86195        -2.29001
LJ         0.0948867         4.85923       0.0739895
LJ           3.28825         6.30077         1.42195
LJ          -4.11423        -6.18535       -0.772064
LJ           1.93352       -0.562937        -6.33528
LJ           2.21161         3.75133        -3.56292
LJ          -1.64355        -3.68013         1.95855
LJ           3.89792        0.836547         6.04539
LJ          -4.43075         4.19456        -5.67362
LJ          -2.98336         5.87797        -1.50269
LJ          -5.78455         5.91437         2.15012
LJ          -3.34374        -3.88894        -3.95617
LJ          -2.29274         -3.4174        -5.24341
LJ          -5.44107         3.98991        -4.85227
LJ          -6.19351        -6.45832        -3.28651
LJ          -1.39344        0.966038         1.65491
LJ          -1.99765         2.84637        0.347516
LJ          -1.56687         0.63016        -2.19333
LJ           3.50967        -4.86337         2.32245
LJ           2.50269        -3.27907         4.09381
LJ          -3.09797         2.43302        0.110554
LJ           1.61689         -5.0884        -6.00368
LJ           2.48393         -5.5386        -4.31348
LJ           3.34226         3.89432         2.65759
LJ        -0.0376938         1.79598        -4.09883
LJ           2.97021        -1.78142         2.08693
LJ          0.235986         2.76398        0.920346
LJ          -4.51702         1.97743          4.1109
LJ          0.918489       -0.364215         6.14121
LJ          -2.41105        -3.58469        -6.44189
LJ         -0.738206         4.96546         3.72278
LJ          -6.18815        0.930276        -3.88116
LJ           5.62706        -5.70361         6.13165
LJ          -3.67602        -3.11236        -4.55531
LJ          -4.07365         1.85987         5.75601
LJ           4.73633         4.53745         2.63005
LJ          -2.38426         5.99564         1.90479
LJ          -4.58718         -1.9922        -2.30558
LJ         -0.899203       0.0144066         5.20485
LJ          -0.22949        -2.71116        -1.15312
LJ          0.133068         2.69549         3.55022
LJ         -0.927424         6.08571         3.23809
LJ            2.4171         1.75189        -6.03235
LJ          -4.43537        -5.40401         1.54972
LJ            5.3596         1.45976        -4.42212
LJ          -3.82003         1.10466         1.96452
LJ           1.96574        -3.86861        -4.67987
LJ          -3.65515        -4.80159       -0.875346
LJ         -0.734191         3.15736        -3.02779
LJ         -0.657696        -2.67961        -4.17488
LJ           3.09911         4.27377        -1.23063
LJ          -3.81569         4.75095         5.63614
LJ          -2.67839         1.57922         2.53136
LJ         -0.611581         4.00901        -3.58498
LJ         -0.888902         3.35442         2.96836
LJ          -5.39141          5.3753       -0.563252
LJ           3.20102         3.26805      -0.0223705
LJ          0.284489         5.57253         6.00868
LJ          -5.13134         2.31776        -3.10008
LJ           5.35057         4.34637        -2.23985
LJ           2.75406         4.63044        -5.18778
LJ          -2.08389        -3.80207        -3.09526
LJ            3.4838        -1.37664         3.18405
LJ           6.45803         2.02922        0.912359
LJ         -0.280283       -0.492188        -3.17575
LJ           2.84973         4.36978        -3.98477
LJ           2.45375         2.60608         6.14149
LJ          -5.06545        -3.50947        -2.49536
