108
#Comment!
LJ           3.06058         1.65439        -4.82066
LJ          -4.42583        -4.67788        -2.73177
LJ           3.19128       -0.716539        -5.95028
LJ          -2.27347          4.4811         5.54955
LJ          -5.34689        -4.49099         1.14375
LJ          -3.63246         3.88839         5.71701
LJ           0.66348         1.80817        -2.36091
LJ           4.89996         4.75411        -4.58957
LJ          -1.19761        -2.63644        -1.54137
LJ           6.38168         -6.1032        -1.18644
LJ         -0.985776         2.81379        -1.66833
LJ           3.18644        -1.21554         3.00991
LJ            3.3001        -5.50975        -2.65163
LJ          -5.05982       -0.814413        -3.64628
LJ          -1.04882        -4.19771       -0.996276
LJ           6.25378        0.803934        -4.33444
LJ          -2.85569         4.64841        -1.97323
LJ          -1.81562        -4.02678        -0.34822
LJ          -3.84438        -1.88851         2.72565
LJ           0.18472        -3.85709         1.81781
LJ           1.90424       -0.940399         6.12851
LJ          -3.57389        -2.61097         3.81315
LJ         -0.472185       -0.590153        -2.10969
LJ          0.442788        -0.19246           2.073
LJ          -5.41484        0.348665        -1.36604
LJ           3.49347       -0.501269        -2.08884
LJ         -0.336046         2.13018         5.79433
LJ          -4.34232         3.84816        -1.35328
LJ          -1.11734        -2.03154         5.53601
LJ           2.85409        -3.70743        -6.12227
LJ          -6.25242         1.89216        -4.67204
LJ          -3.94988         2.41177         2.53049
LJ          -1.12492        -3.27275         1.82221
LJ           4.26462         1.39644        -4.15406
LJ          0.134155        -3.86698        -3.31252
LJ          -6.20532         1.70715       0.0871507
LJ          -4.71756         1.19033        -3.57664
LJ          -6.12081        -1.43887        -4.18357
LJ          -1.74675         -6.2368         4.67538
LJ          -3.57869         1.80645         3.87674
LJ          -3.69744       -0.317094         5.45748
LJ           3.79823        -1.22792       -0.806738
LJ           4.99302        -4.69759         -2.5755
LJ           6.33363        -6.07049        -6.03081
LJ         0.0897246        -2.07724       0.0153178
LJ           2.22665          4.0978          4.8786
LJ          -3.44947         -5.9649        -1.83687
LJ           0.51936        -4.86744        0.760333
LJ          -2.92924        -4.01123          4.6788
LJ           2.01482         5.43261         5.30202
LJ         -0.258682         3.38085        -2.24536
LJ          -4.43749        -1.91119        -4.58215
LJ           1.80689        -2.10545        -5.05823
LJ           2.30715         6.15969        -4.42298
LJ           2.55502        0.392244        -3.98592
LJ           5.62079        -3.62564        -1.73739
LJ           -5.1612         -1.6565         5.66472
LJ           1.80186        -5.04823        -4.80025
LJ          -1.14459        -5.87233         5.71736
LJ          -4.32815        -1.13278         2.96306
LJ          -2.62433         3.14996        -1.27903
LJ          -5.49844         4.96452        -4.65459
LJ          -3.36729      -0.0816201         -1.7411
LJ          -4.98828         5.13225        -6.09313
LJ          -3.64607         4.89481        0.560811
LJ          -3.32037        -5.52312        -3.26088
LJ           1.48295        0.192613         2.22245
LJ          -1.42107       -0.265317         -4.4706
LJ          -3.16682       -0.870596          1.6566
LJ         -0.735833         0.31831       -0.395045
LJ          -6.35277         3.97927        -4.10826
LJ           2.93887        -3.34166        -1.11562
LJ          -1.43959         2.14599        -2.28274
LJ           4.46146         -2.9044       -0.929253
LJ          -3.65957         1.09145        -4.75802
LJ           6.22391         5.05735        -5.34408
LJ          -6.19109         -3.2122        0.813271
LJ           4.81763        -3.38229        -5.97485
LJ          -5.19171         2.53507         5.32772
LJ           2.71202        -4.99327         5.66108
LJ          -1.73454        -4.79274        -3.01464
LJ           6.28395         1.66886         3.94283
LJ           4.85037         -6.3283       -0.800355
LJ          -0.44989         1.79329        -5.93931
LJ          -2.42113        -6.30482         3.44949
LJ         -0.647921        -2.05055         2.64338
LJ           1.32796        -4.93706         1.67099
LJ           5.76023        -4.67909        -1.60858
LJ            2.5279         1.80143       0.0419009
LJ           5.60459         4.67398        -2.50154
LJ           1.96219       -0.927516         5.01581
LJ          -4.15309       -0.412529        -2.86652
LJ          -2.89808         3.59493        -4.34323
LJ           6.01082        -2.20555        -1.51417
LJ         -0.413218        -4.66708         -6.2261
LJ            6.4267         4.90205         6.08177
LJ           3.50735         -2.2502         6.33084
LJ           5.32269        0.992219         3.53386
LJ            2.6943        -5.69758        -6.06575
LJ           1.47428         -3.5759         3.00033
LJ          -1.08731         5.48678          1.0475
LJ          -1.66594       -0.867028         3.63298
LJ           5.37529        -3.04083        -2.57271
LJ          -3.10196        -4.12908        0.412679
LJ         -0.160656        -1.61546        -2.51304
LJ           3.57401        -4.57464        -6.35717
LJ           6.13062        0.210029          2.8146
LJ          -5.49669        -6.37732       -0.754823
