108
#Comment!
LJ           3.44496         3.18359        -3.05561
LJ          -4.76253        -2.44898        -6.08804
LJ           4.61248          2.9776        -1.68614
LJ          -6.36731         1.12536         5.70976
LJ         -0.724318        -4.02924         5.35698
LJ           3.72898        -5.16785         2.53372
LJ          -4.16071         6.14832        0.583287
LJ           2.15179         4.46115         4.35537
LJ           2.28776          4.9503         2.03931
LJ         -0.223116        -1.39785         -3.4716
LJ          -4.60898         -4.1324        -4.13645
LJ          -5.73288          4.1401         -3.4602
LJ           5.33627         1.58288         5.80283
LJ           3.07574         4.82345        -6.39906
LJ          -3.90772         3.02157        -3.14868
LJ          -1.88667        -4.98373         3.30944
LJ         -0.434873        -6.08542         3.86621
LJ          -5.59659         3.15042         4.08117
LJ          0.791281         5.11264         4.17763
LJ           3.89527        -2.06251        -3.97987
LJ           2.28771         6.02676         3.10468
LJ          -1.66854         5.31929         5.46134
LJ            3.8602        -4.90146       -0.420706
LJ           4.47246         1.29235       -0.232462
LJ           4.44316         6.29125         1.37084
LJ          -2.71873       -0.691652        -5.27734
LJ          -2.13229        -3.23959         -1.9762
LJ         -0.642574         3.05874         3.48404
LJ          -6.15784        -3.18722         1.39792
LJ         -0.366997        0.665988         4.15455
LJ           2.52593         3.18428        0.229449
LJ          0.472889         1.60342         2.85886
LJ           3.34202         3.67713         0.93691
LJ          -6.01379         5.61174        -2.90774
LJ           1.36304        -6.30477        -1.40814
LJ          -1.65765        -2.18809        0.329305
LJ          -5.77196       0.0319348          2.0248
LJ           -5.9883         2.43396       -0.271965
LJ          -4.06656        -5.74197        0.231846
LJ          -1.45705        -4.01338        -5.00544
LJ          -1.80942        -4.27177        -3.40195
LJ           3.70263         2.97508        -4.13259
LJ          -5.81802         3.16585         2.37492
LJ           4.57012         4.93839         5.98368
LJ          -5.65241         3.90585          1.2485
LJ           5.79617        -4.31673         2.26495
LJ           3.42447        -1.59178         -2.4176
LJ          -4.83258        -5.63767        -1.02089
LJ          -1.13345         5.15881        -5.63729
LJ          -3.16671        0.607878        -1.87331
LJ           2.38304       -0.255808         1.21259
LJ           4.04755        -3.61861        -0.49663
LJ           1.93642        -4.53193          4.4297
LJ           1.33107         1.13866         2.45022
LJ          -2.44388       -0.821923       -0.848703
LJ          0.557259         3.88506        -1.10817
LJ          -3.99564        0.914226        0.654218
LJ           1.82853        0.933314        -3.13806
LJ          -5.70819         5.65211       -0.234243
LJ           4.56323         5.48238         4.66262
LJ           5.02627        -5.71067        -4.52707
LJ          -2.17353       0.0533786         4.84399
LJ          -2.89268          1.2613         2.20488
LJ          -6.13326        -3.61903        -1.00527
LJ          -0.27727        0.561234        -4.96272
LJ          -5.75483        -3.94376        -3.98114
LJ          -2.35727         5.44523        0.900002
LJ           3.56538       -0.236798         1.34727
LJ          -5.62737         4.99444         1.11646
LJ           -6.0689        -4.10271         4.25829
LJ           5.01175        -4.40483        -4.90693
LJ         -0.133187         -3.3179        -6.16205
LJ           3.22445        -3.44948         1.08337
LJ           5.48877        -2.50724         3.53942
LJ            5.4318         5.50921       -0.957829
LJ           2.54158         5.45956        -5.94242
LJ         -0.382243         5.59581         1.12493
LJ           2.65307        -1.96099        -3.22737
LJ         -0.165269        -2.92142         3.29269
LJ          -4.73412         4.50288         0.42701
LJ           1.80113         3.00178         5.60028
LJ          -6.29161         1.64003        -6.07481
LJ         -0.119303         2.54736        -5.07833
LJ             2.145         3.69331        -1.68742
LJ           5.09848         1.38789        -4.61118
LJ           4.92819         2.98621       -0.598256
LJ          -3.83779        -2.60543         4.39414
LJ           6.06803         4.04176        -6.37809
LJ          0.747554         4.88167        -4.86467
LJ           2.70084         5.55204         4.46731
LJ         -0.456738          6.0626        -1.38387
LJ           6.22492        -5.38344         2.18496
LJ           4.13186        -4.57268         0.65049
LJ          -5.51312         -4.9056         3.09179
LJ          -1.68665         2.16993         4.94794
LJ          -3.15064        -3.59245        -2.54314
LJ          -5.09921        -5.25829         2.05073
LJ         -0.222511        -3.28199        -5.06356
LJ            6.4572        -3.19994         5.25557
LJ          0.852254          1.2356         5.37379
LJ           2.46065         4.15974        -2.58423
LJ           1.86304        -3.24267         2.28166
LJ          -2.65113       0.0639625        -3.12424
LJ           2.82478         2.52876         2.15947
LJ           0.31331        -1.35097         1.10294
LJ         -0.214107        -1.21364         3.84544
LJ         -0.327765         1.40485        -5.51062
LJ          -2.84055        -4.18833        -1.81614
