108
#Comment!
LJ           3.78812        -5.04819        -6.24307
LJ          0.855894        -2.53105         6.40403
LJ           3.21739         1.21365        0.158219
LJ          -4.83245         2.74446         -5.7927
LJ           6.27635         1.88987        -1.51506
LJ           0.33191          5.8602         5.68105
LJ          -4.65723         3.76196         -1.5164
LJ           3.13467         2.39286        -3.75606
LJ           6.37407        0.457346         -5.7513
LJ          -4.82871         1.18401       -0.862536
LJ          0.100468         2.49857        -3.41087
LJ            3.7858         1.59074         1.26516
LJ          -1.00488         3.70139        -3.65066
LJ          -2.33474         2.31287        -6.21022
LJ         -0.401633         -5.8619        -2.05219
LJ           4.01183        -6.18392         5.14818
LJ          -2.60725         4.67973        0.381391
LJ         -0.884225        -3.22919         5.59961
LJ           5.56002        -4.22809         5.17092
LJ         -0.144645        -6.16535         0.83526
LJ          -1.42098        -1.53897         2.21742
LJ          0.279499        -6.36955        -4.32532
LJ            5.0919        -5.44376         3.66306
LJ          -4.17011         4.69716       -0.623396
LJ          -6.09599        -4.66218        -3.18387
LJ          -3.36143        0.819239        -2.61456
LJ           1.79056         5.33972         1.90031
LJ           2.29645       0.0271511          5.6039
LJ          -1.85014        -4.99515         2.64464
LJ         -0.808092        0.485121       -0.550458
LJ            5.9003         4.61812        -1.16375
LJ          -1.18988         4.88818         5.37187
LJ          -6.29176        -4.16351         5.61315
LJ           5.55596         5.59061        -5.89835
LJ          -1.81148         2.51873         4.66945
LJ           3.25577         5.74495         2.78258
LJ          -3.22723        -6.17273         4.42995
LJ           3.32291         2.84306         4.95121
LJ          -4.68461        -4.10286         1.51356
LJ           5.42402         4.35225         1.41199
LJ          -4.60958         1.24007        -2.97082
LJ           4.38218         5.58197       -0.582234
LJ          0.555382         2.47318        -1.32344
LJ          -5.91356         1.00685       -0.919892
LJ          -5.42814       -0.373349        -6.05869
LJ          -5.27007        -1.69883       -0.344468
LJ          0.943053        -2.88323         2.52196
LJ          -1.92181        0.493494         4.34768
LJ           -2.8725        -4.34388         2.85599
LJ          -4.32151         4.48325        -3.54935
LJ           5.09986        -0.41771         2.94213
LJ           0.85388         3.47419         5.21652
LJ          -5.64452        -3.27973        -4.62398
LJ          -1.13162         4.58495          -1.003
LJ          -3.94312        -2.77048        -5.99625
LJ            4.1145        -2.42311       -0.587515
LJ           5.93668         3.11906          5.6535
LJ          -5.48535        -4.15828        -5.62397
LJ          -5.88213         5.10995         3.29993
LJ          -1.31633        -1.94673         -3.8129
LJ          -4.41296        -1.69319         3.28388
LJ           6.07449          3.8603         1.99826
LJ          -2.62813         6.28547       -0.691842
LJ           5.32028         5.23642         3.91013
LJ           2.58523         4.33738         3.83322
LJ           4.63285         5.42503         3.11043
LJ           2.72141         5.73447         5.97361
LJ           2.92589         6.46044        -3.55626
LJ           -6.4364        -2.46878         0.66945
LJ           1.31369         3.85608        -1.01124
LJ          -3.06015          5.2949        -1.89542
LJ          -4.85962         5.17926        -2.57337
LJ         -0.252593         -3.0985         -4.2222
LJ           1.98986         3.46382          -3.466
LJ         -0.684727         3.30018        -2.68798
LJ          -4.03641         1.12788        -4.60509
LJ           5.88999        -3.07316         4.65336
LJ           6.07737         5.54516        -1.88871
LJ           1.26288       -0.648893         4.39081
LJ           5.65539         -2.7491        -1.35357
LJ          -1.24736         2.01513        -3.39378
LJ          0.878306         5.60904        -5.95068
LJ          -3.71524         2.38874        -1.48878
LJ           2.96434        -2.91783         1.89439
LJ           3.08129        -1.03658        -5.52361
LJ          0.179339        -6.30733       -0.400569
LJ          -3.35715        -3.28283         2.95093
LJ          -4.69481        -3.49462       -0.242251
LJ          -1.35523        -1.77757        -6.08576
LJ           3.02993        -5.88661         6.35381
LJ           3.44381          3.6722         3.13472
LJ           1.70583         -3.6822         1.04716
LJ          -3.57947         2.06306        -3.10434
LJ           6.28087         3.15489         4.25268
LJ          -6.01932         -2.6836        -5.44808
LJ           -1.3684        -3.80776       -0.863598
LJ           1.48957         2.98103         0.15232
LJ          0.976341         3.09012         6.40943
LJ          -2.33044       -0.168876        -1.95415
LJ          -2.60751        -2.53206       -0.736742
LJ           3.30064        -1.41496         6.40168
LJ           2.90008       -0.801837         4.57737
LJ           3.74325        0.134209         5.57638
LJ          -1.57313         3.81432         5.07791
LJ           3.04466        -3.58993        -2.06632
LJ          -5.79347        -3.19008         4.97199
LJ          0.613521         -1.2757        -1.91762
LJ          -1.96028        -6.45486        0.619898
