108
#Comment!
LJ         -0.781412        -1.11973         1.31748
LJ          -2.87638        -4.35228        -5.66958
LJ           5.39538          2.5651        -3.55881
LJ           -2.4945         -5.4442         1.02485
LJ           2.48273         6.30214        -1.40388
LJ           6.13085         2.66548        0.373244
LJ           1.37609         2.06302         1.03057
LJ            4.6221         1.81032         3.16053
LJ           -6.3364         1.35334         5.22011
LJ           2.37446        -2.82194         4.41892
LJ          -2.79139         1.29028         4.93264
LJ           5.75345         5.10061        -2.29579
LJ          -2.84663        -5.68774         5.69347
LJ           -1.4974         5.95792         -3.0638
LJ           4.05839         3.13574        -3.07114
LJ          -6.21904         -1.3792         3.12743
LJ           -5.4192         3.80941          2.8267
LJ            6.2545       -0.260743          1.0614
LJ          0.433137        -5.15971        -2.92239
LJ          -5.25859        -2.41423         3.12289
LJ          0.708582        -4.93999         6.24891
LJ          -5.30934         5.80993         5.11078
LJ          -6.02192         3.81692        -4.06107
LJ           2.67283        -5.96791        -3.21416
LJ           3.32598         5.47185         3.64883
LJ         -0.385428          1.6755        -1.12588
LJ          -3.45796         3.45236        -6.26814
LJ          -5.99952         3.28757        -0.20593
LJ           1.35983        -4.67195         1.30076
LJ          -2.63812          0.8179       -0.314004
LJ          -4.46956       -0.114726         6.23287
LJ         0.0862626        0.370691         3.08245
LJ          -2.28504         3.49503         5.93739
LJ           3.94318       -0.381408        -5.38501
LJ          -6.03566       -0.590467        -4.66818
LJ         -0.838821         3.69206          1.9794
LJ          -1.50895        -4.32043         -4.4539
LJ          -5.17854        -2.03105         4.46563
LJ          -4.49808         6.10794         6.40914
LJ          -4.50571        -3.95481          6.3909
LJ          0.195876         2.09855        0.707708
LJ          -4.13879          1.3264        -1.46932
LJ           3.51637         5.63241         -5.1467
LJ            1.0591        -3.52597         4.43237
LJ           6.42823         1.99421        -1.75877
LJ           4.62814          6.4134          3.8534
LJ          -5.41613         2.36907        -2.16766
LJ          0.703235        -2.04239        -0.78551
LJ           5.21995         6.01385       -0.581506
LJ           1.21332       0.0624557        -5.64683
LJ          -5.35275         2.14275         5.14963
LJ          -1.77596         -3.5079         2.24272
LJ          -5.59463          6.0381         6.43459
LJ          -1.42729          1.1355         5.65098
LJ           3.34532          1.0894       -0.877787
LJ           1.52458         0.40733         4.04566
LJ          -6.13652        -5.86107         6.05051
LJ           -1.5377          3.9683        -1.83824
LJ           2.77829        -3.47343        -4.11544
LJ           4.30012        -4.99743         1.68435
LJ            2.3753        -4.93712        -4.94713
LJ          -4.74313        -1.11188          5.1072
LJ           5.98854        -4.47271         4.22688
LJ           2.39626        -4.92531        0.899101
LJ          -3.90179          2.0353         3.75056
LJ           2.11449        -4.75616         3.54443
LJ          -3.70786       0.0513287        -5.84921
LJ          -4.80152        -4.85369        -6.28005
LJ          -4.58262         0.26164         4.67203
LJ           1.41273         1.23046        -1.08059
LJ          -4.80933        -2.24361          1.0773
LJ          -1.25905        -1.60353         3.54689
LJ          0.948987       -0.644406        -1.77894
LJ          -6.32761        -2.54884       -0.978742
LJ           4.99795         4.90717        -3.43245
LJ          -5.79068          4.2719        -2.13849
LJ           1.15905        0.453128        -3.18642
LJ           4.28496         1.09206         4.57217
LJ           2.65739        -3.89684        -5.85017
LJ           5.01329         2.71579         1.27576
LJ           4.50805        -5.20085         2.73705
LJ          -3.40218        -4.85335         4.84958
LJ         -0.982773        -1.88832        -3.36436
LJ          -6.06449         5.96877         2.39406
LJ           3.80838        -5.36283        -6.12888
LJ           5.13955        -2.02302         -3.9805
LJ           -2.8185        -4.17507        -3.22499
LJ           -3.7623        -4.53783        -2.60663
LJ        -0.0941798        -5.38762         -3.9353
LJ            6.3404         1.00105         2.23585
LJ            3.6354        -2.75858        -3.03539
LJ          -5.19025        -3.27998        -0.42954
LJ          -4.56394        -4.63699        -2.19198
LJ         -0.323797          5.9675       -0.111335
LJ          -4.53554         6.38582        -4.92019
LJ           3.83961        -3.83935         2.22614
LJ          -4.92677       -0.383211        -2.66719
LJ           1.38208        -3.32755       -0.642258
LJ            5.0419         6.35055         2.70297
LJ           1.24181         4.76256         1.90587
LJ           4.91411        -2.72996         -3.1043
LJ           3.36701         4.93143         4.54074
LJ          0.957799         -1.6849         2.57856
LJ           2.79118         4.06233        -2.33199
LJ           1.28508         5.19472        0.428155
LJ          -6.06368        -2.75912      -0.0767206
LJ          -5.20721        -5.44134        -5.57538
LJ            2.6211         2.89835        -1.86878
