108
#Comment!
LJ         -0.594393         6.00267         5.19638
LJ           2.86761        -3.00342         6.07235
LJ          -2.04959        -3.99568        -4.98714
LJ           2.99061        -5.09656         -4.9712
LJ           3.77686         -4.4022        -5.62496
LJ          -5.44131        -4.29174         6.42252
LJ           3.26469         -5.1043         -2.3817
LJ          -4.93212         6.39925        -3.94684
LJ          -5.68908         6.22472         4.89054
LJ          0.296707         -5.5736        -5.95861
LJ          -5.90379        -4.99524        -5.92263
LJ          -1.25225         5.78419        -3.54078
LJ          -1.17422        -1.43803         -5.1449
LJ           2.71683        0.165984        -5.80977
LJ         -0.710706        0.829891         -3.0932
LJ           3.02227         -2.0575        -4.56634
LJ           2.95304       -0.972466        -6.31217
LJ          -5.35294        -1.88965         6.43248
LJ            1.2175        -1.87397        -4.31501
LJ           1.41985        -5.55776         5.09914
LJ          -3.65212        -2.92115         6.08715
LJ           1.61594         2.45614         4.88543
LJ          -3.67508        0.570998        -6.42115
LJ          -1.81656        -2.37555        -3.18174
LJ         -0.377563         6.06531        -6.29296
LJ           3.64122         3.47703        -6.27268
LJ         -0.332498         5.44656        -4.25972
LJ           3.38699         2.05425        -5.16747
LJ           3.72178         1.62386         5.53998
LJ          -5.96827          2.8495        -4.39746
LJ           3.29628         4.25564        -3.74243
LJ          -5.61554         3.93295        -3.38402
LJ           -5.1049         2.44987          6.1356
LJ          -1.42395         3.71429         5.74371
LJ          -5.19157         4.94448        -5.45175
LJ         -0.738738         2.45947         -3.6161
LJ         0.0461859         5.47683        -1.83939
LJ           1.23005        -4.40361        -3.26342
LJ        -0.0135694        -4.11753       -0.759167
LJ           2.61485        -6.35609        0.978739
LJ           3.18138        -6.09435        -1.66891
LJ          -5.89307         -5.3458        -3.78546
LJ          -3.34268         6.01797         0.10708
LJ           5.99244         5.54882         1.25209
LJ          -6.04437         6.36605        -3.44905
LJ            4.9119        -4.66448         6.23718
LJ          -4.93377         6.38377       -0.611142
LJ           -1.0558        -5.71635        0.417083
LJ         -0.912396        -1.55787        -2.71675
LJ           4.07069         1.74832        -3.71549
LJ          -2.19939         2.11955        0.338816
LJ           2.41404        -1.75362       -0.387187
LJ          -1.74556        -1.51708       -0.383547
LJ          -4.75441         1.21228        -1.43486
LJ           3.35277       -0.552391       -0.915274
LJ           2.34518        0.752474       -0.771139
LJ           2.52947         -3.5527         3.29619
LJ          -1.93073         0.38342        -2.32773
LJ           4.83901           2.819        0.588218
LJ         -0.150893        -4.51988        0.650213
LJ          -2.22836         3.28889        -1.67916
LJ           6.20893         2.59069        0.846172
LJ          -2.39581         4.37608        0.379676
LJ           3.29555         2.03034        -2.19521
LJ           3.85752         4.13066        -2.69067
LJ          -5.26641         5.36881       -0.861303
LJ           3.70334          3.9011         1.52912
LJ          -5.33688         1.43911        0.420047
LJ           4.56572         4.11492        -4.36427
LJ         -0.205593          2.0971        -1.45566
LJ          -5.62197            4.41       -0.210407
LJ          0.390697         3.02222        -1.34929
LJ         -0.640302        -6.41347         1.81002
LJ           3.76527        -4.47297         1.00811
LJ         -0.843186        -6.11567         4.57061
LJ           3.01431        -6.27874         3.85791
LJ           2.93212        -5.66128         3.06094
LJ          -5.63449        -4.76405         2.50345
LJ        -0.0888452        -3.73688         2.01818
LJ           -6.0796        -4.97652         4.37049
LJ          -4.94461         5.85013         2.97848
LJ          -1.64014        -4.94183         2.22798
LJ          -4.47652        -4.13187         4.55465
LJ          -1.66339        -6.20398        -6.34956
LJ          -3.98299         -5.5993       -0.999196
LJ           1.67111       -0.147481         1.88377
LJ         -0.627643          2.5924         4.71385
LJ           2.36604        -2.60548         3.73105
LJ          -3.54582        0.773556         2.34111
LJ           3.61163        -1.04755         3.45948
LJ           4.09273         1.36757         2.95015
LJ          -4.64346        -3.29462         3.88524
LJ           -4.7331        -2.38184         1.62817
LJ          -1.52427        0.783812         2.52105
LJ          -5.04272        0.463774         5.23625
LJ           3.03651       -0.277525         5.76924
LJ          -2.73171         1.15254         5.19741
LJ           2.55667         4.93121         2.58827
LJ          -2.17951         4.23148         5.19436
LJ            3.4663       0.0491016         3.98915
LJ          0.828779       -0.102923         3.68078
LJ          -4.02024         4.11481        0.369711
LJ           3.72376         3.54131         4.26252
LJ          -5.58228         1.34799         4.83435
LJ          -5.68066       0.0982654         2.48566
LJ         -0.299779         3.81624         1.77012
LJ          -5.72726         4.43721         5.35063
LJ          -2.07487        0.924327         4.45012
