108
#Comment!
LJ          0.865316        -2.75563         1.89179
LJ          -1.93996          6.1943        -5.89978
LJ           6.39509         3.04211        -3.91501
LJ           4.34796        -2.74534        -2.27571
LJ           4.53531       -0.624361          5.8144
LJ          -4.05027        0.856737        -1.16599
LJ           3.82966       -0.527779         -1.9753
LJ         -0.424054         5.27153         1.70308
LJ          -2.00139         1.35903        0.333981
LJ          -4.94124          5.2558         6.12919
LJ          -1.86997         1.41462         5.77156
LJ           4.91798         3.67637       -0.853414
LJ           5.24009          -3.993        -4.57087
LJ           1.11497        -5.10923         -0.7845
LJ          -3.44815          2.6088        -4.42205
LJ           4.78684        -1.65116         4.75392
LJ          -6.09478        -0.83774        0.338074
LJ           2.99442        -1.39905        0.790816
LJ           1.26356        -4.46051       -0.108224
LJ          -3.01651       -0.188444         2.81395
LJ           -1.0718        -3.58246        -5.66493
LJ          -6.26262        -5.27578        0.509924
LJ           6.27124         2.95929         5.88197
LJ           2.41889        -3.94743        -5.39919
LJ           2.93864         4.45142         5.69877
LJ           2.85154         3.64032         1.10101
LJ          -3.04875        0.397714        -4.27949
LJ          -2.68789        -5.67699        -3.73383
LJ         -0.325361        -4.67867         1.47728
LJ         -0.657938        0.630962         2.69237
LJ           5.31067       -0.861887         -4.0828
LJ           1.40679          1.2352            2.28
LJ          -2.15703         2.96474        -2.40774
LJ          -4.55066         3.01215         5.92659
LJ          -2.99106        -4.75353         5.33897
LJ          0.338377           6.217          2.7635
LJ        -0.0524511        -1.42193        -1.99709
LJ          -3.09723        -1.70962         5.78425
LJ          -4.18691          -5.976        -1.65727
LJ          -4.61274        -1.79828         5.89465
LJ         0.0465116          5.2929         4.22495
LJ          -2.54859         1.08401        -2.70509
LJ          0.799349        -3.71805        -3.02239
LJ           2.41477         -4.6564         2.22657
LJ          -2.31025          1.9865        -2.16863
LJ           6.11163         6.43911         3.21778
LJ          -2.79899        0.880763        -5.19943
LJ           4.47166        -2.13585       -0.749609
LJ          -3.97078       -0.602327         1.96043
LJ          0.559711        -4.77475         4.66614
LJ           4.22498        0.467289         1.45468
LJ          -2.92761        -2.69857         2.04688
LJ          -6.11697         3.43861        -0.84961
LJ          -4.56431        -1.81791         -1.3842
LJ           5.25133         1.74003       -0.616782
LJ           3.12289      -0.0251563        -6.42875
LJ          -6.03248        -6.15252        -5.49279
LJ           -1.2376        -6.21464        -1.26648
LJ            4.1531        -5.16063        -1.84528
LJ           5.64727        -6.04521         1.22344
LJ             3.699      -0.0711512        -5.19741
LJ         -0.967892        -3.90961         3.66205
LJ           4.00651        -4.09836        -1.54038
LJ          0.187825        -5.93361         1.58492
LJ          -3.33571         3.86689         3.89543
LJ          -6.28686        -4.36948         6.42452
LJ           5.99187        -1.46387        -4.88274
LJ          -2.76925         5.10918         2.13521
LJ          -3.85375        -1.44704          4.4959
LJ          0.858697         4.76991         2.65571
LJ           3.80348        -1.26935         -3.5539
LJ          -1.91538        -1.87549         1.92673
LJ           -4.0972         -2.2017        0.359258
LJ          -5.88817        0.759174        -3.19589
LJ          -5.16942        -3.65742        -2.75136
LJ           3.15236         3.32795        -1.22035
LJ           2.05421        -2.36896        -5.21841
LJ          -2.07027        0.585891        -3.97339
LJ           2.48628         4.54163        -5.51551
LJ           3.47381        0.146517        0.596998
LJ           4.43974        -6.16122        0.644929
LJ          -2.00317        -4.98363         6.37576
LJ           -1.9324        -3.33732         -2.9032
LJ           3.30637         4.39263        0.213374
LJ          -2.51927         3.71339       -0.909867
LJ           4.97899        -6.17748        -5.01566
LJ          -2.25987        -3.90303         -1.5617
LJ          -1.24719        -4.25974        0.967916
LJ         0.0783472          6.1349        -1.20369
LJ           2.95921         2.51807        0.103789
LJ           3.44537        -1.87935        -4.38674
LJ          -4.87459       0.0338118        -1.97764
LJ            2.2167         -4.4145        0.917834
LJ          -4.03045         4.27673         1.72772
LJ           6.14067         -4.5804        -2.74876
LJ           4.74434        -2.97169          1.1307
LJ           6.00883          1.9664        -4.20847
LJ           1.59286        -2.94536        -2.73852
LJ          0.959669        -6.38427          5.5891
LJ           1.19776         6.23283        -2.38956
LJ            5.8551        -5.38194         -5.5208
LJ            3.6607         3.41626         5.26989
LJ           4.06947        -1.38588         3.24804
LJ            1.0674        0.728596        -1.41612
LJ         -0.308561         3.94501        -1.74518
LJ          -5.02102        -4.63621         2.35443
LJ           6.10709       -0.966104        -3.27119
LJ           4.15333         3.39488        0.050912
