108
#Comment!
LJ           -3.4863        -3.29866         3.24936
LJ           3.25398        -1.04552        0.695935
LJ          -2.81739         2.03714       -0.288448
LJ          -2.96818         4.02704        -1.35391
LJ          -4.44477         3.94793         1.42122
LJ          -3.29364        -4.78421         2.48901
LJ         -0.746238        -5.69613        -2.39284
LJ          -1.48504        -2.67518        0.277961
LJ            2.6111        -2.04312       -0.311546
LJ           6.23293        -2.73238        -3.06451
LJ           4.40183           4.126        -2.86514
LJ           5.28006        -5.02449       -0.281734
LJ          0.501891        -4.21629        -5.61883
LJ          0.752355        -3.90731        -2.40712
LJ           6.37588         5.03078         6.30472
LJ            1.6884         3.70864         2.43087
LJ           1.81805          1.6451         6.06591
LJ          -4.09732         1.48145         4.29073
LJ           2.11877         3.38314        -5.34705
LJ         -0.120794        -3.98487         4.01714
LJ          -4.14804         -2.8424        -5.86674
LJ           1.74436         6.34274         4.35817
LJ         -0.424358        -2.42975         5.02213
LJ           4.26976        -2.01819         5.90221
LJ          -4.17488         5.45961        -4.28021
LJ           6.20564       -0.971517        -1.41896
LJ         -0.639052         6.06147       -0.117853
LJ           2.55424         5.37834        -1.00378
LJ          -2.96775        -2.86762         1.47359
LJ           1.44895         6.22356        -1.39309
LJ          -0.73329         1.45495        -6.18817
LJ           3.61225        -5.34118         -2.5473
LJ             2.251        -2.69173         2.72471
LJ          -3.19996         1.40755         5.36646
LJ          -6.17602         -3.4676        -4.58678
LJ            5.5624         3.63404         3.44278
LJ           5.93524         2.55175        -2.71869
LJ            5.0977        -3.62306        -5.86256
LJ          -6.37669         6.23558        -0.26421
LJ          -1.08933        -1.58623        -4.97105
LJ           5.23014        -2.78023        -4.40846
LJ           5.73739        -5.85434       -0.784398
LJ          -1.29574        0.607332        -4.98147
LJ          -5.71161         5.63415        -1.07743
LJ          -5.03353        0.809895         4.27192
LJ          -2.55883          -5.721        -3.11452
LJ          -4.71485        -5.21638         2.40838
LJ          -5.55732         -1.7417        -1.77711
LJ          -1.67952        -5.69292         -1.4873
LJ           3.97348        -4.34098        -5.44669
LJ          -2.52399        0.476672         5.04838
LJ           5.89972        -1.71777         -2.0575
LJ          0.717322        -3.24648         4.54002
LJ          -1.64311         4.34291         0.17841
LJ          -2.62353          6.4273       -0.399605
LJ           2.21835         2.14814        0.582618
LJ          -1.75967        0.734168        -2.23585
LJ          -5.83776         6.44887        -5.30379
LJ          -1.61982          3.5651         -2.8158
LJ          -5.82746        -4.43608        -3.75839
LJ           2.54297        0.492024        0.883285
LJ          -5.67987         3.88129         -3.8703
LJ           5.88822        -4.11787        -4.35671
LJ           5.38238         3.56273        -3.09465
LJ          -2.46596         3.71564        0.472693
LJ         -0.962035        -3.60093          4.5507
LJ           3.72775         4.47881          5.1165
LJ          -1.10411         1.42544         5.39614
LJ           2.18836        -1.81727         1.62031
LJ          -6.41936         5.93735         2.31077
LJ           -4.8326        -3.07165        -4.69483
LJ          -3.35736        -5.24292        -3.47861
LJ           1.96562        -2.28049         6.08487
LJ           5.24419       -0.603719         4.14118
LJ         -0.340827         6.09768        -4.98571
LJ           6.16207         3.04816         1.60229
LJ          -4.93375         2.83851         5.21609
LJ          -6.20894         4.49673        -3.09017
LJ          0.884783         1.63186         3.17672
LJ           4.86344         4.35566        -4.87125
LJ          0.727664         5.90598        -3.99644
LJ           2.40936         4.81373         5.01057
LJ           -5.7096       -0.578873        0.558866
LJ           5.16722        -5.85123         4.42666
LJ          0.755728        -5.09772        -3.38921
LJ          0.470262         5.19376       -0.835063
LJ          -1.70259         5.95361        -4.62087
LJ         -0.297187         -1.6992         2.72206
LJ            6.1829        -4.26959       -0.413233
LJ           4.19752         5.29576         2.59941
LJ            3.7736        -6.19092        0.839888
LJ           3.92058         -3.9881       -0.230315
LJ          -4.81506        -5.93625        -1.67708
LJ          0.238146         3.45727         1.33628
LJ           4.51526        -5.24838        -5.35799
LJ           3.98917       0.0019761         -1.0506
LJ           6.20601         5.43043         1.25075
LJ          -2.70379         3.52263        -4.34089
LJ          -6.20552        -5.76412         4.36919
LJ           4.05421         2.48698        -4.43149
LJ          0.680725         -2.2049         6.04956
LJ          -1.20461        -4.80656        -3.37238
LJ          -5.71575         3.59132        -5.96667
LJ           1.97806        -2.37132        -1.24335
LJ           1.37807         -2.6617         2.30481
LJ           1.06629         4.11199         3.45048
LJ          -6.12861       -0.937798         4.70132
LJ          -2.56388        -1.79521        -4.44054
