108
#Comment!
LJ           2.74611        -6.32792       -0.542159
LJ           2.07971          3.8738        -5.66995
LJ          -3.65291         3.03224         6.07335
LJ          -4.76825         3.11237         4.08565
LJ          -2.72228        -3.02925         6.19042
LJ          -1.01294         3.91324        -4.96122
LJ           4.58138       -0.909108        -2.12158
LJ          -5.65248         3.98355         2.00742
LJ          -4.08583         5.25867       -0.597966
LJ           5.76552        -1.88881         2.58918
LJ          0.708315          1.5231        -4.05233
LJ            4.6732        -6.41843         1.11289
LJ          -3.87598        -5.66963        -4.87987
LJ          0.432253        -4.83505       -0.133286
LJ           3.21336        -2.54592         6.11591
LJ          -6.15991        -6.38088         5.63068
LJ          0.641296        -1.58167         2.39219
LJ         -0.958228          -3.658        0.289094
LJ           4.67486         1.83802         4.39439
LJ         -0.427996        -1.59367         2.13213
LJ           -1.2254        -5.77557         6.25348
LJ           -4.1527          5.6488        -4.01909
LJ           -3.0935        -5.30903        0.228867
LJ           5.50082        -3.77527         1.40786
LJ          -6.28914       -0.248617        -1.95859
LJ           4.78159        -6.39707        -2.56052
LJ           2.72014        -5.38785         4.18042
LJ            2.9207        -1.83933         3.97308
LJ           3.24226         6.19139          4.8184
LJ            2.2146         4.40388          5.5076
LJ           -1.3843         1.23082        -3.17645
LJ          0.182259          2.4125          2.2897
LJ          -0.20176         4.08038         6.46098
LJ          -4.16465        -3.75298         1.92417
LJ          0.990494         2.63369        -3.07177
LJ           4.48543        -6.39307       -0.363547
LJ           -4.5831         5.57606         3.14901
LJ          -3.20146       -0.419806        -5.39082
LJ          -3.89179        0.192512         6.03289
LJ          -4.45577        0.932973        -2.88236
LJ           5.29764         2.44808        -2.93474
LJ        -0.0252856         3.50452         4.49907
LJ          -2.18572        -6.21381         -2.4033
LJ        -0.0092625        -6.35831        -5.04546
LJ          -0.90058        -4.08498         3.08807
LJ          -3.77851         4.33143        0.594813
LJ           2.98203         -6.2864        -3.16088
LJ          -3.52188         4.06294        -2.08672
LJ           5.03692         5.71737         4.65907
LJ           1.29342         4.45921        -3.68715
LJ           2.94283        -1.65009         1.29803
LJ          -5.50559        -5.64955         3.09943
LJ           4.20799       -0.752144         -1.0537
LJ           4.26446         4.65987       -0.501377
LJ          -5.03434       -0.220776        -1.67983
LJ           2.85994       -0.221039        -3.13289
LJ             5.172        -5.04833        -4.47381
LJ           2.42332        -2.66925        -2.94513
LJ           3.63602         1.08374        -4.37141
LJ          -4.96091         5.25185         5.20813
LJ          -4.58657         4.63384       0.0560687
LJ           5.80064         5.00947       -0.919722
LJ          -3.13862        -6.17874        -0.52177
LJ          -3.90416        -4.30613        -1.75294
LJ          0.219085         4.19433         5.51937
LJ            3.9464        -5.43261        -1.76993
LJ            4.2596        -3.37159         2.03446
LJ          -2.47801         3.92639        -4.19105
LJ          -3.26468        -1.20945         -2.8255
LJ           3.02419         5.65478        -4.67162
LJ         -0.430813         1.86623        -3.06769
LJ           6.26844         6.37253         2.72616
LJ          0.997968         4.59155         6.17015
LJ          -5.03592        -5.27113         4.83991
LJ          -4.42849        -2.69713        -4.03955
LJ           -3.3787         4.71344        -3.24671
LJ           5.04775         4.14887          2.8729
LJ         -0.298773         -2.6265        -2.49248
LJ           5.09878        0.962253         1.46834
LJ           6.34306        -2.91562        -5.24921
LJ          -4.17361        -5.32405        -3.37604
LJ           0.72335        -3.18893        -6.05833
LJ          -1.59092        -6.07084         1.45333
LJ           2.03655         2.74615         1.56932
LJ          -2.41721        -2.78059        -4.14222
LJ          -4.56696          1.5404        -5.99326
LJ          -1.46325        -0.95538         -1.5354
LJ          -4.77463        -6.19422        -4.44214
LJ           2.90287        0.312761        0.603807
LJ          -5.29854         1.74681         2.89444
LJ           3.75434        0.829202       -0.849603
LJ          -1.13219         5.61779        -6.02307
LJ         -0.634329        -3.14855        -3.63902
LJ         0.0667239        0.534412         4.96174
LJ           5.85134         1.88097         2.99813
LJ          -1.70495         5.49955        -4.05761
LJ           2.77375         1.97334        -5.57411
LJ           1.26544        0.952569       -0.464272
LJ           5.22477        -5.00666       -0.319281
LJ          -1.03255         5.08038        -4.81478
LJ          -5.54571        0.745468        -5.46586
LJ           1.33559         5.88226         3.92672
LJ          -2.62186        -3.38132        0.697685
LJ          -2.59083         5.30379        0.278502
LJ          -6.37154         5.17982        -2.43684
LJ          -2.54173        -6.16035         5.02891
LJ           4.63422        -6.04898         2.86946
LJ          -5.88436         5.37744        0.215519
