108
#Comment!
LJ           4.80743        -2.39392          -2.163
LJ         -0.941495        -3.48948         3.65049
LJ           4.73553         4.77157       -0.610531
LJ           5.41365         1.17687         1.56134
LJ          -4.72299        -2.28337        0.536137
LJ          -1.35774          4.3913         5.81256
LJ          -5.92965         3.93288        -3.97342
LJ           5.29947        0.549958       -0.668305
LJ          -1.49844         1.07672         1.57479
LJ          0.925679         4.38316         2.45212
LJ         0.0624477       -0.853277        0.543552
LJ           1.40507         -2.2479         3.04479
LJ           2.51336         5.60201        -2.11532
LJ          -3.98192        -5.08211         5.98277
LJ          -5.01952        -4.24948          -1.852
LJ           1.27548         4.82061         4.98191
LJ          -4.26694        -1.72583        -2.19818
LJ           1.12753         3.22668         5.71581
LJ          -1.38406        -1.75928        -1.49186
LJ          -2.78088         4.46427         -1.1606
LJ          -1.25056         2.94154         2.28978
LJ          -3.16781         5.32627      -0.0280674
LJ           -4.9429         2.72604       -0.946326
LJ            5.8302          2.9093        -4.02843
LJ          -5.92792         5.05104         4.46007
LJ          -2.36393         2.57693             6.1
LJ          -3.35657       -0.135564        -2.24841
LJ          -2.52123         1.75977        -4.12945
LJ         -0.096542        -4.73812         3.13449
LJ          -2.67254       -0.176974       -0.186894
LJ          -2.45592         5.74256         4.77806
LJ           4.08573        -3.97165        0.641436
LJ          -5.03433        -3.69918         -6.2242
LJ           4.20164       -0.273713         3.87509
LJ            4.1266        -4.92723         4.05144
LJ          -6.44307        -4.43167       -0.562768
LJ         -0.281735        -2.54477        -5.74259
LJ          -3.97364         4.64927         4.66899
LJ          -4.67755       0.0591465          3.0797
LJ           2.97616        -1.65298         3.83745
LJ          -4.10888         2.23606         3.38595
LJ          -4.30995        0.441565        0.666883
LJ          -2.21146          1.1169        -6.02567
LJ           4.17632       -0.183763        -2.23956
LJ          -4.31563        -2.09584         5.20587
LJ          -4.96813          1.3591       -0.189848
LJ           4.83776         4.36481         0.46521
LJ          -3.70413        -1.16467       -0.463696
LJ           5.95673        -4.80194        -5.42769
LJ          -5.63178         5.24974        0.671853
LJ         -0.852812         1.87216         1.04829
LJ          -3.89243        -5.76826         4.14689
LJ          -1.57424       -0.656277        -2.43655
LJ          -5.09463         0.70734         1.84919
LJ          -4.87268       -0.579431         4.28203
LJ           1.54563         2.12033        -2.37371
LJ           1.62743         4.65247         6.42216
LJ          -2.05757        -1.19671        -4.12954
LJ          -3.90158         5.69581         4.47835
LJ           2.84686        -1.75473        -4.66787
LJ          -4.71923         3.83295         2.50459
LJ           1.35001         2.73787         1.38861
LJ          -2.62362           4.303       0.0453957
LJ          -1.58529         2.62698         4.70277
LJ          0.363629         2.75541       0.0431853
LJ           1.97156         2.88496         4.67283
LJ           5.68848         3.30323        -6.15523
LJ            2.8877         5.27737         2.66142
LJ           2.73982        -5.62549         2.45638
LJ           -2.0536         1.46117        -2.52164
LJ           1.25929        -4.64681         6.13395
LJ            -3.827         1.47982        -1.34785
LJ          -1.08403        -2.72392        -1.83911
LJ            -3.635         5.95412         3.44867
LJ          -2.31335         2.98187          -5.523
LJ          -1.94211      -0.0331752         5.90098
LJ          -4.62703        -4.42254       -0.433117
LJ           4.79802        -5.26158        -2.94742
LJ           -4.3561         -2.0757        -5.91782
LJ           4.31051        -3.73293        -4.07733
LJ          -1.58054       -0.926309       -0.381096
LJ           -3.2801         4.90028        -5.32938
LJ           -4.3296         0.84199        -2.36268
LJ           2.35187         6.23427         3.87122
LJ           1.87225         3.94394        -3.40853
LJ          -3.76747         5.43803         2.07053
LJ           -5.9118        -5.41947        -5.34675
LJ          -4.33087        -3.17493         2.21672
LJ          -3.02186         2.93215        -4.20046
LJ          -5.49226        -2.07447        -6.33089
LJ         -0.849483         1.92913         3.64417
LJ           1.92936        -3.99468       0.0591001
LJ          0.768182         3.89907        -5.40927
LJ          -2.43387         4.72681        -3.60927
LJ          -5.88105        -1.84411        -1.62016
LJ           4.88211        -5.91738       -0.843748
LJ          -1.62571        0.168684       -0.837447
LJ           2.58837        -3.26484        -4.85588
LJ          -1.54463        -5.17355         4.21671
LJ           4.44743        -6.27702         1.38326
LJ           5.57012        0.480622         2.35676
LJ           2.62213          1.9686          -1.987
LJ           5.51069        -1.61577         4.55657
LJ          -5.22745        -4.23481         5.65842
LJ          -2.93135         4.24883         4.74914
LJ           2.63527        -3.51184        -3.15053
LJ          -6.09928         6.24382         5.14509
LJ           2.80969         -5.9399         4.21795
