108
#Comment!
LJ          -4.54683       -0.379328       -0.369194
LJ          0.591798         -4.2278        0.767382
LJ           3.27451        -4.65005         2.37962
LJ           3.82143        -4.54312        -1.09681
LJ          -2.16368        -4.09896         4.21435
LJ           1.52949         2.70776         4.72508
LJ           4.27648         2.77516         5.15025
LJ           6.43385        0.073218         2.43495
LJ          -2.88178        -1.69764        0.498457
LJ           3.08432         6.22974        -2.84275
LJ         -0.489072        -1.45633        -2.93669
LJ        0.00157578        -3.91251         -4.7357
LJ          -3.85664        -1.63651        -1.58394
LJ          -4.55912        -2.57708         4.93384
LJ          -3.72459         4.71672          6.2321
LJ          0.301699        -5.43466         5.32874
LJ           4.82713         -3.9706        -4.41728
LJ           5.99659         3.17595          5.6972
LJ          -5.58984        0.594345       -0.239516
LJ         -0.855548        -5.45089        0.273079
LJ            2.4255        -4.21944         5.28226
LJ          -4.25078         3.22509        -1.62132
LJ          -5.61672        -1.90552         -1.6041
LJ           4.21725          1.8654        -5.73278
LJ         -0.305162        -0.54081          6.1894
LJ          -5.36065        0.658937         4.07228
LJ          -1.83143          -1.288        -2.20719
LJ           -3.8029        0.386627            4.91
LJ        -0.0741796        -3.44351       -0.214735
LJ          -1.72278        -3.19662        -1.99891
LJ           1.41559         2.45207         5.86428
LJ          -6.08548        0.930446         6.34487
LJ           4.80253        -2.81226        -3.33615
LJ          -5.92446        -3.07883       -0.818418
LJ           4.92569         5.86901         4.37973
LJ          -5.73044       -0.852448          4.6137
LJ           3.35635        0.634694         4.69943
LJ          -1.37211        -2.74972         3.91757
LJ          -5.05583         5.27549         1.16386
LJ         -0.814072         6.16841         2.89152
LJ           -1.5613         4.14723         -4.9484
LJ           3.82743         2.20654       -0.303572
LJ          -0.23806        -4.24297        -2.24704
LJ          -4.93508         4.91121         3.01733
LJ          0.255434        -1.23401        0.577309
LJ        0.00233008         1.35132        -2.89964
LJ          -4.37142        -5.38032        -6.23201
LJ          -2.93523       -0.476009         -5.5466
LJ           2.55857        -5.68083       -0.521205
LJ        -0.0666586        -6.06239         3.82722
LJ           1.41458         3.22695        -4.06247
LJ          -6.01104        -3.78693         6.31978
LJ           -2.2966         4.48271         4.21123
LJ           4.78722         4.61657          3.6342
LJ          -3.46337        -2.01793         2.94935
LJ          0.712637        -4.34417         5.28535
LJ          -5.18687         5.23108         4.03449
LJ          0.662122         2.34051        -1.95483
LJ         -0.584896        -2.33106         -4.6271
LJ           3.98752          5.1609         3.93463
LJ          -4.03154          2.6417         1.25043
LJ          0.692814         0.27392         -4.2965
LJ          -4.81375      -0.0433316        -2.69048
LJ            3.3483          4.4067         3.91569
LJ          -1.33493         1.43168        -1.29282
LJ          -4.01677         1.16523        -3.56188
LJ          -1.80416        -1.32821        -3.32519
LJ          0.863805          6.4196        0.469616
LJ          -4.22418        -3.50205        -2.27144
LJ          -6.23795        -2.82219        -5.48449
LJ           4.56793        -1.93642         1.66744
LJ          -6.43842       -0.370964        -1.33061
LJ           2.13233        -4.92432        0.355901
LJ          -4.87124        -4.18462        -6.24112
LJ          -3.67508        -2.20394         6.45312
LJ          0.632271        0.940921         3.50377
LJ          -4.62456         4.48616        -5.93197
LJ           5.62207        -4.04362        -3.11047
LJ          -3.28856         6.26848        0.491841
LJ          -4.14619        -4.78806        -5.43081
LJ          -1.17093         1.98469        -4.69486
LJ          -6.20156         4.61635         4.19193
LJ          -4.77746        -4.83385         -0.8688
LJ          -4.18426         3.79029         4.99493
LJ          0.817991        -2.32148         -1.1775
LJ           -4.9624         2.38855         4.09936
LJ           1.92852        -3.66575          1.1792
LJ          -2.56273        -5.35875          3.0728
LJ           1.86096        -4.78712        -1.55358
LJ           3.48856        -2.04035        -5.48154
LJ           3.68689        -1.94641         1.10135
LJ          0.537627        -5.19621        -4.54298
LJ           2.55716        -5.09232          2.9096
LJ          -1.60852         6.37757        -5.84635
LJ          -3.85456       -0.970322         2.36026
LJ          -4.55591         4.79465        -1.65206
LJ          -2.39717        -3.22713       -0.564632
LJ           1.80707         -5.6614        -3.81568
LJ          -1.80667       -0.145172         -2.8284
LJ          -4.88132         4.84381       -0.567658
LJ           -2.0179        -5.85553         6.11546
LJ          0.747189        -6.30149         5.67433
LJ         -0.347939        -3.13685         3.79844
LJ           6.43835        0.864191         5.46205
LJ           -4.0421        -5.37849        -3.52279
LJ           1.86772         5.20277        -3.29134
LJ          -5.20579        -5.97095       -0.894604
LJ          -4.15084         5.69877        -3.67366
