108
#Comment!
LJ          -5.25469        -3.95896         4.30801
LJ           2.32954       -0.876705          1.7512
LJ           -1.5546         1.73617       -0.163165
LJ          -2.96269         3.79527          0.5395
LJ           -5.1445         3.61775        0.543423
LJ          -2.21026        -5.18335         3.48284
LJ           -2.4643         6.18111        -1.54591
LJ          0.493974        -1.94351       -0.759461
LJ            3.4707        -1.45206        -1.25058
LJ            4.0886        -1.68169        -2.85907
LJ           3.44937         3.82831        -2.98143
LJ           5.42717         -6.0171        0.698619
LJ          0.396895        -5.55469        -5.25953
LJ        -0.0303874        -2.39196        -3.39404
LJ           4.56642         5.82343        -5.59677
LJ         -0.878065         4.82183         1.80435
LJ          0.231547         2.62746         4.61221
LJ          -2.99453         3.31554         4.90125
LJ           3.06616         4.55658        -5.67177
LJ          0.632665        -4.02025         3.39817
LJ          -4.31649        -2.57775          6.2019
LJ           2.74446          5.9817         4.02364
LJ          0.226801        -2.34852         5.14238
LJ           1.97305        0.618043         5.51825
LJ          -4.08907         6.24911        -3.76746
LJ          -6.19391       -0.572383          -1.985
LJ          0.614988         5.83721        0.454874
LJ           3.00855        -5.79855        -2.46986
LJ          -2.84391        -3.76374         1.86837
LJ          0.750984         5.26364       -0.571983
LJ          0.952083         1.63518         6.16061
LJ            5.9091        -6.06974        -3.64283
LJ           3.15316         -3.8872         2.38989
LJ          -3.91311       -0.456964         6.06535
LJ          -5.27117          -1.866        -6.13433
LJ            5.5171         4.79586         3.92676
LJ           6.02671         3.20192       -0.914568
LJ           4.29775        -2.08316        -6.25916
LJ          -5.86997        -6.05131       -0.690246
LJ          0.341591        -0.12395        -3.79224
LJ           5.88841        -1.99198         5.89188
LJ           4.73541          -5.058        -1.82919
LJ          0.834037         1.13499        -5.08903
LJ          -6.19376          4.7661       -0.397093
LJ          -5.20705        0.137478         2.37471
LJ          -1.33449        -4.40023        -1.92507
LJ           4.30739         5.83481         3.22742
LJ          -4.73207       -0.797866        -2.25514
LJ           -1.9913        -4.69131       -0.698606
LJ           4.71893        -5.19043        -4.87015
LJ          -2.64547       -0.512168          4.1082
LJ           4.78308       -0.465264         -3.6777
LJ           2.45031        -3.42281         5.73628
LJ          -0.34958         5.49433       -0.218094
LJ          -2.83609        -5.56966        -1.65891
LJ           1.00526        0.646946       0.0728629
LJ          0.137372         1.23636       -0.377624
LJ          -6.28203        -5.27254        -5.40431
LJ          -2.57667         4.34855        -4.37434
LJ          -5.32211        -4.68153        -2.29368
LJ           4.03257         2.92979         1.72734
LJ          -5.35261         3.99989        -2.77554
LJ          -6.21091        -4.99937        -4.39843
LJ           5.28291          3.8557        -4.52545
LJ         -0.890224         3.50319         1.14347
LJ         -0.406066        -4.09206         3.01723
LJ           1.69334          4.6859         4.46226
LJ          0.780079       -0.263151         3.51533
LJ          0.618448        -2.10505         1.58759
LJ           5.75326         5.78854        0.202492
LJ          -4.98411        -4.57967        -3.70056
LJ           -3.8646        -5.40855        -2.57134
LJ           1.12323        -1.89438         6.16856
LJ           6.45328         0.42187         4.54118
LJ         -0.290242         4.85102        -4.55302
LJ          -6.33171         2.48081       -0.157472
LJ          -5.36443         1.49971         5.39852
LJ          -5.59544         4.93478        -2.15926
LJ           2.00055        0.349104         3.57619
LJ           4.99576         1.62795        -4.06377
LJ         0.0352266         5.45708        -3.61264
LJ           1.99211         5.11489         5.91096
LJ          -4.74926       -0.407671        -1.30824
LJ           4.35827          4.4679         3.89715
LJ           1.91334        -4.24994        -3.11717
LJ         -0.360732         4.58563        -0.97401
LJ          -1.34602        -5.12862        -2.64176
LJ          -1.69555         -2.1172         1.19933
LJ          -6.33644        -2.99251         1.75053
LJ           3.65622         5.46712        0.309046
LJ           3.80186        -5.86165         1.78028
LJ           3.33274        -4.08473        0.942775
LJ          -4.72787         5.67978        -1.71827
LJ           -2.9667         3.10773         3.27028
LJ           5.47253        -6.07603        -6.25118
LJ           5.56591       -0.612143       -0.805161
LJ           5.49994         4.67963        0.375439
LJ          -2.52969         3.38084        -4.89618
LJ          -4.95683         5.29604         5.77762
LJ           2.63902         1.27968        -2.94173
LJ           1.01696        -2.97554         5.59858
LJ         -0.706896         -4.4637        -4.31971
LJ          -6.03759          2.3146        -6.14148
LJ           1.17572        -1.27142        0.607709
LJ          -1.10203        -3.13421         2.30274
LJ          0.674664         4.98245          4.0884
LJ          -4.67222        -1.01835         3.28383
LJ          -2.38371        -2.83144        -3.22712
