108
#Comment!
LJ          -1.62555       -0.569432          1.0253
LJ           -3.2313        -3.90709        -5.66608
LJ           5.12839           3.027        -3.15515
LJ         -0.985567        -6.02409         1.81061
LJ           2.10178         5.02642       -0.232831
LJ           4.87666         2.06542        0.971589
LJ          0.355861          2.9094         1.35006
LJ           5.58204         1.66142         2.65156
LJ           5.90294         1.96799         6.30186
LJ           2.06688         -2.8089         5.03997
LJ          -3.33295         1.26867         4.72132
LJ           6.44039          5.8454        -3.33413
LJ          -2.05893        -6.28087         5.02178
LJ          -2.22191         5.62556        -3.64596
LJ           2.87403         2.86848        -2.95319
LJ          -5.42678        -1.58515         2.91444
LJ          -5.13139          4.9809         3.26931
LJ          -5.85246       0.0294089         1.22888
LJ          0.363789        -5.64321        -3.65825
LJ          -5.96552        -2.86246           3.632
LJ           1.16913        -5.26889         6.01682
LJ          -5.05661         5.45932        -6.17234
LJ          -6.33601          4.2923        -3.60008
LJ           3.07073         5.61076        -2.42398
LJ            3.6844           5.678         3.02319
LJ         -0.940077          1.3153         -1.6305
LJ          -2.93931         4.51653         5.62029
LJ          -6.21177         3.09328      -0.0157346
LJ           1.86753        -4.69456         1.28919
LJ          -3.11332          1.1973        -1.14921
LJ          -3.45502      -0.0212601         5.64031
LJ         -0.127721        0.150323         3.33373
LJ          -2.63226         3.57478         4.98965
LJ           2.88151        -1.23187        -4.95853
LJ           6.11698        0.425759        -4.15977
LJ          -1.03506         3.00398         1.85168
LJ           -2.4238        -4.53667        -5.15428
LJ          -5.49599         -1.6887         4.09187
LJ          -3.98729         6.18794         5.47381
LJ          -3.87883         -3.5124         6.29979
LJ          0.121959         1.26148       -0.428128
LJ          -4.64295         1.46253        -1.08951
LJ           3.99534          5.2233        -6.08225
LJ          0.836396        -3.28991          5.3447
LJ           5.89147         2.21671        -1.86846
LJ            4.4847        -6.29723         3.83037
LJ          -5.96855         2.01112       -0.721613
LJ         -0.169459        -2.40556       -0.823015
LJ           4.34116        -5.35312        -1.32027
LJ            1.4166        -1.94804        -5.02183
LJ          -5.59701         1.87376        -6.41627
LJ          -1.59271        -3.96112         2.23056
LJ          -6.40051        -5.71666        -5.39374
LJ         -0.290631         1.68265         4.77897
LJ           2.72423        0.851086       -0.846265
LJ          0.894185        0.901751         3.71052
LJ          -6.15091        -6.45543         5.17836
LJ          -1.49283         3.28237        -2.38173
LJ           2.00681        -2.85524        -4.69566
LJ           4.58691        -5.53813         1.87333
LJ           2.26211        -5.60678        -5.59406
LJ          -5.95995        -1.24246         5.36221
LJ            6.3299        -4.85854         5.64147
LJ            2.9099        -4.59672        0.649608
LJ          -3.25643         1.64123         3.06539
LJ           1.15364        -4.67436         2.62101
LJ          -3.09894        0.742575        -6.38887
LJ          -5.23121        -4.83001        -5.22788
LJ          -4.81527         1.11225         4.63352
LJ          0.533166        0.267794        -1.57816
LJ          -3.59714        -2.60289         2.04543
LJ          -1.01067        -1.58136         4.03367
LJ           1.60854        0.344195        -2.59594
LJ           6.14477        -3.03573         -1.9057
LJ           4.43972         3.68869        -3.53764
LJ          -4.65858         4.32681        -2.44131
LJ           0.71773          1.1401        -2.50102
LJ            5.7823        0.656075         4.54463
LJ           2.78908        -3.18062        -6.04352
LJ           5.35732         3.86283         2.24442
LJ           4.49749        -4.57643         3.34765
LJ          -3.82922        -4.85499         4.63194
LJ         -0.682582        -1.64497         -3.4552
LJ          -4.37276         5.88464          2.4728
LJ           5.52112        -4.30527         5.73609
LJ           5.27632        -1.12797        -3.23708
LJ          -1.91244        -3.54463        -4.22746
LJ          -4.19103        -4.76099        -3.84441
LJ          0.200867        -6.07522        -5.59883
LJ           -5.1029      -0.0680038         2.35859
LJ           3.88798        -3.27066        -3.05374
LJ          -5.53942        -3.93976        0.142531
LJ          -5.09412        -4.79778        -1.75892
LJ          0.645452         6.39759       -0.145587
LJ          -3.75668         5.71626        -5.60995
LJ           4.39706        -3.39851          3.5301
LJ          -4.92949        -0.98133         -2.0757
LJ           1.16692        -3.13105        0.428727
LJ            5.2914         6.39697          2.7033
LJ           1.20809         3.91664         2.83311
LJ           4.27558        -1.91855        -2.93652
LJ           3.23085         5.27908         4.47963
LJ          -0.42086         -1.1398         1.45586
LJ           3.51767         4.27677        -2.20349
LJ           1.12859         5.83599        0.925553
LJ          -5.75142        -2.65943         0.86347
LJ          -5.14433        -6.32757        -5.09928
LJ           2.21684         3.30024        -2.28092
