108
#Comment!
LJ          -3.09966        -2.36538          4.9614
LJ          -1.75028        -5.95669        -5.62094
LJ          -4.37509         3.42266        -3.05566
LJ           5.60007        0.474071        0.494545
LJ          0.793428        -3.83675         4.90041
LJ          -5.53336         -3.5918        -2.96514
LJ          -3.09084         6.26198         4.57266
LJ         -0.473624        -4.31199         6.41765
LJ           5.11201         2.91261        -1.92297
LJ          -4.23343       0.0312772         3.93386
LJ          -5.08493         1.68039       -0.245417
LJ          -2.10609         2.75277        -5.74299
LJ           6.27515        -4.83621         -4.8297
LJ          -6.01331         5.52288         1.15223
LJ           2.39139         5.79649        -6.43121
LJ           2.41659          3.5969        -1.10755
LJ          -4.54538        -1.75672        -2.81162
LJ          -1.19286         3.11658        0.181707
LJ           2.24441        -1.00767         3.75205
LJ          -2.68504        -4.66476        -5.61994
LJ           6.23681        -3.46807         2.87422
LJ          -1.91926         5.42059       -0.684825
LJ           -0.5891        -5.76463         4.99266
LJ          -2.07791          3.9081        -3.90307
LJ          -5.30023        -5.36605         2.48908
LJ           2.70126        -3.44249         1.12267
LJ          -5.84661         4.15588        -1.90602
LJ          -5.46449        0.461598        -6.25439
LJ           5.17904        -2.34317        -1.51477
LJ          -3.90792         -6.3107       -0.524488
LJ            5.8839        -3.66386          4.2915
LJ           -1.8729         2.37279        -2.95053
LJ          -4.85561       -0.952573        -6.44691
LJ           2.82178        -2.06753       -0.448015
LJ          -5.79673          4.2974         1.51457
LJ          -2.08797         2.22016         3.17654
LJ          -5.90145        -1.17818        -5.08287
LJ           -6.4312        -1.96502         0.22008
LJ          -3.67783         6.24692         -5.4195
LJ           3.87401        -2.01132        -3.50547
LJ          -0.66323        -5.57422         3.29629
LJ          -3.54277       -0.863099         2.93035
LJ           5.06604         5.15476       -0.174215
LJ           1.46683        -3.94074         3.07269
LJ           2.23855         -2.3012        -4.91102
LJ          0.414275        -1.38969         0.46859
LJ           4.22155        -3.29164         1.06453
LJ          -5.47003        -4.72935         1.64723
LJ          -1.54442        -2.00335        -1.93012
LJ          -5.15595        -2.19729          5.4854
LJ           4.47982        0.657307       -0.524575
LJ          0.634399         3.00253         3.01085
LJ           1.57683         3.49695         3.52864
LJ         -0.803707        -5.12315         1.99297
LJ          -2.79343         2.11353         -1.6803
LJ           2.32946      -0.0147534       -0.410702
LJ           -3.5735        -6.44959         5.41881
LJ          -1.13158         3.53914        -6.06692
LJ          -5.02239        -3.67918        -6.34751
LJ          0.799591        -5.74939         -5.0183
LJ           2.99072        -0.45144         3.24519
LJ          -2.50154        -3.35432        -3.29017
LJ          0.144651        -3.71364         3.18546
LJ           1.59556        -5.92959        -2.45641
LJ           3.85864        -4.59656        -2.00264
LJ          -6.12094         2.54248        -5.02759
LJ          -1.80268        0.519672        -4.96298
LJ           4.76875        0.999247        -1.75678
LJ           3.07724         3.68064         4.60282
LJ          -5.98993        -6.11526        -2.81511
LJ          -5.82729         2.34348        -3.43955
LJ          -1.85049        -1.96804        -2.91872
LJ          -2.62398         1.05296        -2.44959
LJ           3.13896         4.90215         3.15368
LJ          -4.39719        -5.97439          0.5256
LJ          -2.19052        -1.44644         4.70469
LJ          -5.21364        -1.40722         2.08977
LJ           1.18472         4.06186         -2.1313
LJ          0.867232         5.17046         5.79113
LJ           3.29689       -0.413854         1.24124
LJ            2.3478         0.53366          4.0744
LJ           3.34436        -3.22058        -4.11362
LJ          -4.46698         -3.9221         5.59895
LJ          -4.91178         3.70239        -5.85728
LJ           4.65778         2.30505        -4.44986
LJ           5.34347        0.219352        -3.66078
LJ          0.975379        0.610682         2.59661
LJ          -4.82722         1.34391         2.20647
LJ          -1.38438         6.41297        -3.70972
LJ         -0.597753         2.44354         3.67208
LJ           0.74002         4.99031        -3.22972
LJ           1.69973        -2.68401         1.93328
LJ         -0.196914          1.8583         2.02837
LJ            4.2257       -0.937772          2.7363
LJ           6.25999        0.496791         1.27788
LJ           2.23307        -2.72544        -3.54961
LJ           4.73979       -0.470847         4.12603
LJ         -0.833913      -0.0994142         -4.6967
LJ          -1.60607         2.29983         2.01618
LJ          -1.31042         3.30677        -4.70671
LJ          0.925043        0.648118        -4.34626
LJ           0.94718        -2.85571        -3.63131
LJ           1.73107        -4.85954         -2.2182
LJ         0.0804708        -4.89836        -1.88493
LJ          -1.78092         1.41073         6.44582
LJ          -3.70278        -5.41147         6.29071
LJ            2.4434          4.5571         1.51148
LJ         -0.329783         1.81565         5.49168
