108
#Comment!
LJ           -2.0752        -2.90481        -5.45707
LJ          -3.55847         5.80172        -4.94604
LJ          -4.40113         4.01468        -4.27276
LJ           5.85661        0.768013       -0.139733
LJ          0.703734        -3.11704         4.09653
LJ          -4.24662        -1.39481        -3.16199
LJ           -4.2502         5.48066         3.98178
LJ           -1.1654        -2.29021        -5.14914
LJ          -5.72761         4.27887        -1.08108
LJ          -3.40599        0.680257         4.52244
LJ          -4.26161         1.59487       -0.974887
LJ          -1.04336         3.69468         5.49231
LJ           4.68816        -4.94611        -3.98436
LJ          -5.68848         3.64529       0.0626403
LJ           4.31581        -5.90091        -5.79803
LJ            2.2056         3.38143        -1.24255
LJ          -3.20624       -0.907869        -4.74464
LJ          -2.56494         3.24928       -0.325077
LJ           2.69338       -0.412316         3.66588
LJ          -1.93157        -5.77553        -5.22621
LJ          -4.67731        -3.33154         3.05745
LJ         -0.785065         6.15473          2.1116
LJ         -0.420306         6.23612         5.67072
LJ        -0.0390886         2.78788        -2.21897
LJ          -5.35046        -6.21742         2.03591
LJ           3.15836        -4.19011         1.63764
LJ          -4.85032         4.46343        -1.74296
LJ           6.04682         1.97777         6.17258
LJ           3.98398        -2.38438       -0.271218
LJ          -4.93215         5.49971        0.404485
LJ          -5.40412          -2.368        -5.97861
LJ           -1.8491          1.2104        -2.73009
LJ          -2.14596      -0.0467693         5.56859
LJ           2.75897        -3.05395         2.01884
LJ          -5.21997         3.89742         1.28101
LJ           -1.9609         1.44834         4.59282
LJ          -6.07445       0.0307809         5.39327
LJ           5.52828       -0.594821        0.143988
LJ          -3.96418        -5.42013        -5.22321
LJ           3.92172       -0.662365        -3.06238
LJ           -1.5932         -5.4827         3.28046
LJ          -5.32148        -2.42338         3.28677
LJ           3.26497         4.51452        -1.77425
LJ            0.5611        -5.84675         3.11169
LJ            1.4667        -4.49831        -5.45504
LJ          0.790407        -1.56578          1.7363
LJ           4.30938        -2.93193         2.25667
LJ           5.76793        -5.77958         1.51307
LJ          -1.65284        -3.62321       -0.688312
LJ          -5.42312        -0.57381        -6.05403
LJ           4.44635        -1.90143         1.50287
LJ          0.488221         2.44586          2.6488
LJ           2.09828          3.5765         2.75071
LJ         -0.863822        -4.20615        0.993926
LJ          -1.41673         4.17096        -2.50613
LJ           3.36636        -2.20388        -1.23051
LJ           -4.8689        -6.34026         4.98057
LJ         -0.827834         4.85199         5.93262
LJ          -3.54481        -2.99423         5.73688
LJ         -0.407213        -5.55628         -5.7903
LJ           3.85079        -0.18156         4.00147
LJ          -3.24309        -1.22852        -3.63798
LJ         -0.851978        -2.82044         1.64153
LJ          0.722957         6.30824         6.29704
LJ           4.25985        -5.93296        -4.08674
LJ           4.26246         2.23158        -3.05193
LJ          -1.75287         0.20834        -5.78499
LJ          -6.32356        -1.23927        -2.02181
LJ           2.09541         4.90476         6.04472
LJ          -5.73619         4.37819        -2.71737
LJ          -4.42319         1.90857        -4.00903
LJ         -0.115543        -1.13119         -2.7009
LJ          -2.85072        0.892748        -3.17883
LJ           2.32712         6.10074         2.03198
LJ          -2.76474        -5.69339        0.431363
LJ          -1.90493       -0.215622         3.29734
LJ          -5.15496        0.356032         2.60292
LJ           1.51848         2.62718        -3.18638
LJ           1.95521         3.53134         5.10149
LJ           2.70057        -1.34946      -0.0435657
LJ           4.45979        0.595061         4.93025
LJ            3.8062        -4.25039        -4.65786
LJ          -4.20395        -5.56403         4.52067
LJ          -5.69869         4.52362        -5.67105
LJ            2.8199         3.78419        -4.25287
LJ            6.2634         3.11451        -3.98492
LJ         -0.582467        0.821828         4.18255
LJ          -3.68279         1.58697         1.56906
LJ          -2.27664        -6.03643         -4.1663
LJ         0.0327226         2.47275         3.77975
LJ         -0.687648         4.73467        -2.56296
LJ            0.9175        -3.79707         1.88133
LJ           -2.1346        0.760251         3.15963
LJ           3.04249        -1.52777         4.02247
LJ           6.03623        0.940137         1.22386
LJ          0.564079        -3.50279        -4.70068
LJ           5.45922        -1.47842         4.63995
LJ         -0.141584        -1.18768         -6.0294
LJ          -1.51642         4.42568          3.0481
LJ          -2.07437         2.88069         6.30322
LJ           1.58444        0.102106        -3.78065
LJ           1.72443        -3.49393         -2.0193
LJ         -0.529509        -3.17128        -2.01919
LJ          -1.22548        -4.00872        -1.52262
LJ          -1.97383         2.66663         5.33058
LJ          -5.49711        -4.20047         5.76065
LJ           4.37366         3.38136         2.77177
LJ         -0.437445         0.83723        -6.27205
