108
#Comment!
LJ          -4.37686        -5.19175        -6.10244
LJ          -2.12308        -5.84024        -4.15688
LJ          -5.97905        -5.26075        -6.40277
LJ         -0.623646        -6.03263        -3.98261
LJ          0.957005         4.78699        -6.05827
LJ           4.44542        -3.88737         5.03935
LJ          -4.86386        -5.32855        -3.01974
LJ        -0.0865098        -5.71285        -3.07593
LJ           6.35911         5.76963         6.08769
LJ           1.20444        -3.62787         -4.2803
LJ           1.79953          3.9226        -6.44587
LJ           2.66042         5.57428        -4.33193
LJ           4.05418        -2.13607        -3.77924
LJ          -2.61049         1.36989         6.24743
LJ            -5.696         3.54574        -2.02628
LJ             -5.14        -3.60744        -2.61564
LJ           -1.5773        0.345798        -5.39878
LJ           1.46921        -3.66997         5.42838
LJ           -2.0196         2.70727        -5.05655
LJ           1.68874        -2.22196        -3.62438
LJ           3.41751        -2.26862        -5.75738
LJ           2.87446         3.45021        -4.36441
LJ           3.91249        -3.07561        -1.68263
LJ          -5.37645        -2.24106        -2.64162
LJ           5.61884         2.21044        -5.47505
LJ           6.07535         4.81448         5.60596
LJ          -5.53884          2.1297        -4.76646
LJ           -4.4708         3.72782        -4.14392
LJ           -2.7202        0.220577        -4.33569
LJ          -3.93872          3.6339         6.23634
LJ          -4.15106         5.82121         -5.5689
LJ          -3.52275          2.4203        -4.21798
LJ           2.83536          0.9501        -1.83739
LJ           1.54495         1.89427        -6.03419
LJ          0.905503         4.09988        -4.99447
LJ           1.73444         6.01563        -2.75024
LJ          -4.07485         4.05376       -0.639809
LJ           -4.6965        -6.42852        -2.40804
LJ          -5.34366          4.5192       -0.356533
LJ           -5.0662        -4.36223        0.886804
LJ         -0.676162        -5.42742        0.165994
LJ          0.410987        -2.40466        -4.25884
LJ          -4.04503        0.348766        -1.53923
LJ          -1.04683        -5.79208        -2.41624
LJ          -1.72697        -5.63858        -3.14925
LJ          -3.26036        -2.45617        -1.07728
LJ           2.58574        -4.24175        -1.93231
LJ           3.14452        -5.55681        0.183967
LJ           4.28312         3.35104        -2.02803
LJ          -2.51381          1.7671        -4.77305
LJ           4.16098         -1.5889        -2.67178
LJ          -6.27697       -0.550808         -3.9439
LJ         -0.294693        -3.68085         3.85564
LJ          -1.55321         3.04314        -2.65603
LJ         -0.498752        -1.35122       -0.372218
LJ          0.252414        -4.01801         2.39057
LJ           2.35293        -4.43521        -3.62812
LJ           4.83193         1.37727         -3.4792
LJ         -0.663447        -1.81819        -1.62171
LJ           2.38388        -1.09974       -0.488897
LJ           6.35475         5.28761        -1.99454
LJ          -2.91017         3.37008          -3.121
LJ            2.2845         4.38415        -0.20518
LJ          -4.74373        -0.40122        0.303306
LJ          -2.68984        0.425471         1.18971
LJ         -0.384601         2.85081        -4.04331
LJ          -1.17655         1.04427        -1.23822
LJ           1.36636         4.36602        -2.75201
LJ           0.50021          3.6604        -3.53021
LJ           1.49168         4.31142        -1.00562
LJ          0.338446           3.586         1.42987
LJ           2.99171         4.31924         1.78548
LJ          -5.65725        -6.15088         2.04336
LJ          -4.95401        -3.70198         4.51103
LJ          -5.95255         -1.8883         3.75441
LJ          -5.01922         4.63735          2.5987
LJ          0.575824         4.46514         4.42627
LJ         -0.280416        -5.20537         3.74336
LJ           1.26488        0.860095         4.42464
LJ             1.131        -5.07284         3.72995
LJ         -0.363534         5.06568        0.759886
LJ           4.99964        -5.09779          1.2945
LJ           3.86696        -5.28627         3.57654
LJ            3.6615         5.37239         5.48855
LJ           5.87738        -3.16634         2.13032
LJ           5.43075       -0.788539         1.67242
LJ          -5.05379         1.63777         4.49242
LJ           6.31677        0.137745         1.98648
LJ           -5.3579        0.899377         1.38318
LJ          -2.13713        -4.38567         3.46034
LJ          0.836058        -1.60484         3.28634
LJ           1.55697        -2.84146        -4.81738
LJ           3.50843        -3.52308        0.772196
LJ           3.85721         1.21742         2.19166
LJ           6.06078         2.38926         3.55351
LJ           4.75164        -1.77286         1.93592
LJ           5.80393         2.06752        0.571424
LJ          -4.87048         6.18846         2.49509
LJ           -4.5726         2.59031         5.00401
LJ           -1.1224          2.2413         1.63957
LJ          -1.61505         1.12298         2.17703
LJ         0.0486578         4.94709         1.99108
LJ         -0.805355         3.83815         6.46285
LJ          -1.42702         1.67805        -5.44544
LJ           3.07734         3.68167         2.57711
LJ           5.60214         2.09297          2.0999
LJ          0.630034         1.62708         3.94518
LJ           5.49723        0.533705         5.79916
