108
#Comment!
LJ          -2.29028         5.68747        -1.00523
LJ          -5.18277         4.13521        -4.81833
LJ          -5.00994         5.38683        -5.92181
LJ           6.05709        0.640172       -0.154711
LJ         -0.083375        -2.88021          3.2259
LJ          -4.02746         1.79539        -2.76592
LJ          -5.76373         4.09165          2.4844
LJ         -0.837003        -1.81918        -3.50423
LJ          -2.48642         3.58528         1.17147
LJ          -2.30247          2.8251         3.12473
LJ          -2.67993         1.39067        -1.91115
LJ          -0.14654          3.7534         3.49008
LJ           1.66992        -5.30618        -2.99398
LJ          -4.10379         2.11542        -1.06725
LJ          -5.58769        -4.31985        -4.08062
LJ           1.69608         3.26131        -2.11102
LJ          -1.55306        0.582645         -6.3035
LJ          -4.42082         3.24213        -1.74439
LJ           4.40519       -0.660385         4.30168
LJ         -0.566085         5.03385         -4.4421
LJ           -1.7766         -2.4199         3.57485
LJ          -1.48891         -4.7715          5.9993
LJ          -1.13355         6.26763        -5.35563
LJ           4.15507         1.24925      -0.0952737
LJ          -5.74333         5.01494        0.979203
LJ            2.7777        -4.70147         2.59162
LJ         -0.727552        -6.14816      -0.0820266
LJ           3.75701         4.23011         5.31331
LJ           2.62753        -2.56686         2.71648
LJ          -6.13181         3.09832         1.91224
LJ          -2.51731        0.283152        -1.65083
LJ          -4.27296        0.370157       -0.530379
LJ           1.53864         2.21868         3.07514
LJ           2.01156        -5.42732         4.86247
LJ          -5.56292         4.38086      -0.0599211
LJ          -2.46477       -0.442426        -6.38315
LJ           6.45622         1.66842         1.46719
LJ           4.27387         2.63242       -0.171002
LJ          -4.52802        -4.79027        -4.96787
LJ           3.84917         1.51326        -2.32285
LJ           -5.5925        -6.14862         3.49187
LJ           4.78867        -5.36004         4.03796
LJ          -1.02161         4.12485        -3.63314
LJ           2.37036           5.148        -0.53448
LJ          0.155988        -4.99713        -6.33413
LJ           2.04697        -1.12147         3.23812
LJ           6.03185        -5.09407         5.51712
LJ           3.39928         5.31447         1.49464
LJ           -1.8558        -5.51134         2.79427
LJ          -6.04772         2.16345        -3.96124
LJ           4.20548        -4.44025         2.12026
LJ          0.968452          3.0232         2.99623
LJ            1.7732         2.06782         1.88272
LJ           -1.1683        -2.94689       -0.608136
LJ          -4.21551         3.81237        -3.17391
LJ           4.02961        -5.08461        -3.74369
LJ          -5.87565          5.5878          3.6201
LJ          -0.37182         5.98497         4.74519
LJ          -1.39402       -0.521224          4.4274
LJ          -2.28093        -6.27323        -6.10408
LJ           4.84587        -0.62435         5.34016
LJ          -1.91938         2.57133         5.63097
LJ          -2.45281        -1.69822        -1.16232
LJ           1.51276         3.78886         3.62146
LJ           5.14826         6.02622         4.98759
LJ          0.959769         1.76133       -0.511213
LJ         -0.805864        -0.20147         5.22066
LJ          -3.31536        -4.83617        -2.39949
LJ          0.233812         4.59156        -5.08157
LJ          -5.08649        0.323332        -2.36806
LJ          -2.15317         1.69922         -4.8407
LJ           1.63635        0.395811        -1.85093
LJ          -3.00132      -0.0872686        -3.19231
LJ           1.83449        -3.08441        0.228274
LJ          0.166492        -4.89968        0.284817
LJ         -0.658722        -2.31395          2.3085
LJ          -6.29276         2.87481         3.39484
LJ           1.96948         0.49478        -4.89811
LJ             4.253         1.33433         4.17934
LJ            2.3913        -3.39816        -1.49128
LJ           -5.2895        0.289692         5.86312
LJ           4.76263         6.20619        -5.56684
LJ          -4.85958         4.49945         3.48946
LJ          -6.34449         5.85312        -4.36624
LJ         -0.188655         6.06237        -3.48031
LJ           5.87539        -4.70617        -4.02165
LJ          -3.38096       -0.229645          4.0404
LJ          -1.88981         1.96495        0.593636
LJ          -3.85262        -5.04494        -5.76412
LJ           2.11143         3.09168          3.1862
LJ           1.61143        -5.30937        -1.93417
LJ          -0.80307        -5.12131          1.8925
LJ          -4.44235         3.79699         4.19578
LJ           1.21795       -0.159637         5.56048
LJ           5.62921         1.31444        0.503908
LJ           -2.5095        -5.16733         6.12612
LJ           5.85083       -0.974439         3.87754
LJ          0.635071        -2.82775         4.82085
LJ          -1.27999        -4.03544         4.05944
LJ          -2.79712         3.86794        -6.42773
LJ           3.28876       -0.380739        -3.40387
LJ           3.13201        -4.58438         0.36336
LJ          -3.90643        -1.37052        -1.66893
LJ          -2.84744        -1.69748        -2.06528
LJ          -1.50189         4.01985         1.35412
LJ            5.6362        -2.85079        -5.07153
LJ          -5.32591         1.23387         4.32825
LJ          -1.33563       -0.533373        -3.07847
