108
#Comment!
LJ         -0.113795        -2.32999         5.46632
LJ         -0.978592        -2.77791         4.61156
LJ           3.92831        -6.43316         5.51392
LJ           4.21312         3.91045         1.91929
LJ        -0.0939542        -1.38867        -3.85499
LJ          -5.95066         2.76707        -3.15824
LJ          -4.01864         2.37788        -3.39116
LJ          -5.42982        -6.14305         -1.0549
LJ          -1.99305        -5.04436          3.5562
LJ         -0.457416         4.36642         2.94752
LJ           2.07112          3.4177        -1.62467
LJ          -2.60577       -0.299931         5.12616
LJ          -3.91617         4.77055        -2.38465
LJ          -3.27754        0.488608          6.0205
LJ           4.58339        -2.86523        -2.06903
LJ          -1.39925        0.875192        -2.48858
LJ          -2.32758        0.788977         5.89967
LJ          -5.55719         5.62099        -6.12974
LJ            6.3147         2.80377          5.5343
LJ          -2.17974        -3.39579        -5.16939
LJ           5.14755         6.42339       -0.987668
LJ           4.76259        -1.04351        -4.38325
LJ           -4.9161         5.39138        -1.79744
LJ          -6.37581        -4.34306         3.14987
LJ           5.55714         6.29224        -2.80892
LJ        -0.0915756        -5.99147          3.4458
LJ           5.38601        -5.29374         2.03386
LJ          -5.76046         5.26341         2.60794
LJ          -2.91943         5.56116        -3.83043
LJ           -4.3483       -0.710284         4.01315
LJ            4.8613         2.85152       -0.525855
LJ          -1.87994         1.79508         3.64526
LJ           4.25503        0.722179        -1.08283
LJ             1.906         3.02998        -3.67301
LJ           2.49788         4.87948        -3.40564
LJ         -0.850852        -4.21459        -0.71827
LJ           2.32142         5.13656        -4.39023
LJ           2.02197        -4.02154         -1.9066
LJ          -4.32625         3.37607        -4.95338
LJ           2.41223        0.869111        -1.01357
LJ           6.23416        -5.24691         0.12898
LJ          0.521303         4.10878         4.81189
LJ         -0.388689         3.54773         5.78435
LJ           3.52856         2.19155         4.48277
LJ          -1.42759        -1.94276         2.67958
LJ           4.81162         1.59183         6.13274
LJ            4.4135        0.568638        -5.52573
LJ          -3.24973        0.445607         2.62791
LJ          -6.05039         4.81638        -1.17556
LJ           1.09697        -5.12039         1.66428
LJ           5.98963        -4.00272        -5.65364
LJ           -1.7308         4.85542         3.00604
LJ           1.55126        -2.18919         -4.2264
LJ          -2.16713         2.02889        -4.99643
LJ          -5.95097         6.14211        -5.17441
LJ          -4.01427         4.61239         5.53821
LJ           6.08508           4.966        0.998331
LJ           1.61371        -2.72672        -6.32878
LJ          0.592373         3.60803        -5.00658
LJ          0.610774        -5.69369        -4.84861
LJ          -5.77933       -0.883465         -4.2904
LJ           1.13304        -3.48114        -2.74704
LJ           -3.6704       -0.606461        -2.16201
LJ           5.61724       -0.377739         2.35496
LJ           5.50794         -5.8983          2.8674
LJ           4.03825         3.72885       0.0294822
LJ           3.19929         2.03325         5.52271
LJ          -1.33865         3.14338        0.212164
LJ           3.06198         1.03836        -5.27835
LJ           3.59069         2.29707         3.41789
LJ           2.51048        0.831672          5.4177
LJ           3.38126         4.22827         3.00542
LJ          0.860063         1.56235         -2.9909
LJ         -0.642423         6.00509        -3.76653
LJ          -1.74482         3.72024        0.936457
LJ           1.07556        -4.43599        -3.32546
LJ           2.55269         2.83883         3.73895
LJ           2.58447        -4.79688          3.8504
LJ           6.19754       0.0777206        -4.68213
LJ           6.02658         2.58039        -3.88931
LJ           1.71876       -0.129934        -2.81078
LJ          -5.24907         1.78343         4.93571
LJ           1.38446         4.53928         4.29836
LJ          -6.01079        -3.34361       -0.812315
LJ          -3.81452         1.63476        0.296439
LJ         -0.471917        -0.42825        -3.47989
LJ           6.39309        -4.03168         4.71324
LJ           2.70511        -2.13517        -4.16537
LJ           6.09733        -4.54096         1.07142
LJ           -1.3309         1.11723        0.119941
LJ           1.57101         6.39215       -0.808379
LJ         -0.543123         6.39879       -0.596883
LJ          -3.92617        -6.34538        -1.73495
LJ          -5.42286         2.11408         3.95562
LJ           4.64466         1.17619         2.10661
LJ           5.76839         4.38589        0.133283
LJ          -6.43589        0.102025        -2.06914
LJ           3.78032        -5.83718        0.731273
LJ           4.11662        -1.28408            4.54
LJ          -5.02882         3.69337        0.146421
LJ           3.12254         -2.3399        -1.10304
LJ           4.96806         4.76749          3.8195
LJ          -2.27004        -3.24815         2.70322
LJ          -3.32652        -1.93735        -2.66206
LJ            1.8191         5.18742         5.77482
LJ          -6.27812         4.06518       -0.489182
LJ           1.25728       -0.474068         -6.2812
LJ          -1.16086        -4.29787        -4.16189
