108
#Comment!
LJ          -4.57298          2.9541         4.34363
LJ         -0.603112         3.24261        -3.99307
LJ          -3.85138         5.30923         4.32592
LJ           4.08562        -4.90357        -1.08165
LJ           2.56993        0.235274         2.46186
LJ         -0.831944        -4.17419         1.63372
LJ           4.18328         -1.7353       -0.362041
LJ           3.76856         2.05901        -3.95094
LJ          -1.92139         2.92386         3.57396
LJ          -5.65367        -2.65962         1.69715
LJ           1.21737        -2.98317        0.897004
LJ          -1.10133         4.58354         4.77376
LJ          -1.02654         5.95405         4.77008
LJ            1.2462         3.83717         -6.1672
LJ           -2.7408        -5.38268         1.77631
LJ          -3.74117         6.16087        -4.10961
LJ          -2.35278       0.0119771        -1.61587
LJ           5.25256         4.51433         2.13867
LJ          0.291822         3.04372         -4.6055
LJ           5.77449         -1.7508        -2.60172
LJ           4.40163         -3.1941        -2.13753
LJ          -2.48703        -6.19505        -3.18115
LJ          -5.80856          3.8326        0.874626
LJ            -3.699         -2.9701        0.932316
LJ           5.58649         5.18796        -6.01302
LJ           2.68791         4.17403         2.72035
LJ           3.16181        -5.02896         5.27359
LJ            4.9286         4.37312         4.26767
LJ          -1.84288        0.191252       -0.603742
LJ           2.07125         4.60367        0.696995
LJ          -4.28034         2.66446         5.95687
LJ           6.32826         1.40585        -5.43161
LJ         -0.344296         4.76177         3.08019
LJ          -4.56406        -1.11782        -2.76952
LJ           1.70598         3.85963         4.72706
LJ            2.9348        -5.25529       -0.998305
LJ          -4.93784        -0.94103        0.913049
LJ          -3.25401         4.23711        -0.05722
LJ          -2.19844        -2.67887       -0.327686
LJ          -5.56093        0.381716        0.271981
LJ           2.94945        -3.77643         5.69179
LJ           1.59881        0.369404         4.90167
LJ          -6.44201         5.42744        -3.30365
LJ          -1.89023         5.35685         4.75015
LJ           4.93145       -0.386229        -2.19564
LJ            4.4119         1.19622           3.015
LJ           2.57497        -2.12073         4.65431
LJ           1.42614         -3.9442      -0.0930062
LJ           1.15189       -0.060749        -2.46227
LJ           5.36115         1.65744         3.32058
LJ            6.2453        -5.42693         5.59984
LJ            3.9847        -1.42491        -5.86979
LJ          -4.38184        0.430252      -0.0147701
LJ          0.669368         1.27334         1.44598
LJ            2.5119        -3.68701        -1.35853
LJ          -1.55197        -3.78027         3.40366
LJ           2.65977        -2.72063         5.80755
LJ           5.22527       -0.423998        0.789205
LJ           1.38068         6.37341        -5.93066
LJ         -0.445991        -1.22002       -0.773071
LJ          -2.74276        -3.98821        -3.91176
LJ           3.03026         5.52811        -1.14244
LJ          -4.17602         5.47398        -1.15713
LJ          -6.08653        -4.76103         1.22326
LJ           -3.9785        -3.60612        -5.62318
LJ           2.28948        0.925836      -0.0520677
LJ           1.14578        0.695027        -3.17872
LJ           2.26009       -0.399136         -1.9208
LJ          -3.49215          5.6507        -2.73959
LJ          -3.16263        -6.29966        -2.22299
LJ         -0.779807         2.86557        -2.30025
LJ           5.32723         6.45152       -0.685751
LJ          -4.89685        -5.26728         1.91149
LJ          -5.33612        -1.65334         -2.9013
LJ          -4.44866          4.0367         2.48817
LJ          -5.47322         4.07699        -2.79443
LJ           4.87056         0.86732        -4.18383
LJ          -2.18714        0.508742          -5.702
LJ         -0.318422        -1.65903         4.89577
LJ           3.65516        -3.82745         2.07305
LJ          -4.18152         2.61997        0.353488
LJ           4.69627        -6.07115         1.30999
LJ           6.10723          5.7396          2.0197
LJ            2.3876         3.09657        -5.53934
LJ          -6.44072        -2.90258         2.55727
LJ           4.96094         1.70046         -1.4338
LJ           -1.7707         2.72789         1.19396
LJ            5.3261         2.18821        0.870668
LJ           -6.2728         1.63309         1.23206
LJ           6.22227         4.95382         5.18047
LJ           4.42414        -4.95752         4.38944
LJ         0.0801888        -4.48042        -4.52561
LJ           4.70475        -3.36441         4.04363
LJ           5.30954         3.39007         1.38644
LJ          0.646462        -5.79681        -1.21937
LJ           3.39087         6.31319       -0.500101
LJ           1.96504         5.91633        -3.43407
LJ          -4.35864         -6.4582         5.65896
LJ           1.53333         4.61839         6.01448
LJ           3.23885         2.50701       -0.598132
LJ         -0.616285         2.39137         1.18966
LJ          -6.27625         3.41192         1.95922
LJ            4.4319         3.47678        -2.04757
LJ          -2.96984       -0.475882         6.34695
LJ           2.68281         4.36571         5.95218
LJ           6.22409        -2.25331         3.58042
LJ          -5.30589      -0.0852092         3.75463
LJ           5.94759        -4.76227         6.45759
