108
#Comment!
LJ           3.30765         3.56317         2.17287
LJ          -1.79994         1.53819         3.85937
LJ          0.155542     -0.00106293        -1.54571
LJ          0.251694       -0.171581        -6.24307
LJ          -2.27747         4.53695        -1.31408
LJ           -4.8769        -5.98043         2.91062
LJ           -1.9154        -4.89525        -2.89267
LJ            2.5857        -6.05511         1.49232
LJ         -0.256413         5.71798         5.96749
LJ           3.00052        -3.88448        -5.96979
LJ           4.26748         5.48496         5.90679
LJ           4.39448         2.09179        0.315104
LJ          0.165576          2.9564         -4.6262
LJ           1.19972        -1.05735         5.33021
LJ           2.21778         -5.2389       -0.538818
LJ          -4.88903        -3.90886        -2.73041
LJ         -0.823459        -3.07556        -1.65468
LJ          -6.16001        0.910541         3.83151
LJ           1.76268          1.1619        -1.38035
LJ           1.38049         1.37218         1.94237
LJ          -2.14183        -3.90202         1.61774
LJ          -2.85936        -1.61252         4.27773
LJ          -4.83025        -1.56546         2.00757
LJ           1.12411         4.34849        -0.15371
LJ           3.30713        -3.37767       -0.776089
LJ          -3.43246         2.68404        -4.47716
LJ          -5.58161         4.27782        -6.10964
LJ          -4.60544         4.05378         4.05732
LJ           3.04977        0.716977        -3.15754
LJ          -4.53284      -0.0527805        -1.66954
LJ           3.53157        -2.48385         5.96148
LJ          -6.10282          3.5759         2.46042
LJ           5.01469         3.25001         5.28042
LJ         -0.917694        -1.93937        -3.16349
LJ           4.90505         1.15906         -5.4889
LJ           1.99716        -1.35612        -3.54212
LJ           6.28272         4.57899        -1.96352
LJ            5.6199        -4.38344         4.29495
LJ         -0.742836        -4.72469         1.71698
LJ          -5.41993        -3.35489         5.23513
LJ          0.660355         1.50776       -0.610966
LJ         -0.704701        0.220944         4.55417
LJ           -1.2157       -0.684067         4.28301
LJ           3.30645         4.69789         3.89561
LJ           -6.2043        -4.49335         6.13167
LJ           4.71057        -3.09201         3.35506
LJ           1.95036         5.97659         2.07533
LJ          -1.24859          -5.824        -5.86218
LJ           4.36387         1.40354        -1.11642
LJ          -1.68921         1.32922        -6.42692
LJ          -4.72297         6.32337         4.37373
LJ           1.66314         3.23457         1.01124
LJ          0.799671         -5.0931         -1.3096
LJ           5.08298        -3.42696        -2.35457
LJ          -5.10565         4.52059         3.24673
LJ           -2.9045        -1.71403        -2.57935
LJ          -3.60015         4.43711         1.61312
LJ           5.99642         4.23441       -0.989341
LJ           3.89402        -5.73873         5.33066
LJ          -3.42331        -3.57651         2.81032
LJ           1.87652       -0.916347         2.88099
LJ          -5.20619        -2.47264         2.59736
LJ          -6.33467        -3.61061         4.44081
LJ          -5.37106          1.6212         2.34549
LJ          0.612919        0.922594        -4.08274
LJ           2.76425        -5.41244          4.9965
LJ           5.69362         5.47036        -2.45889
LJ          -6.17442         1.15768         5.43507
LJ           4.02657        -2.50217        -2.41635
LJ          -1.01598         4.34272        0.318034
LJ           5.37671         5.33007        -0.37608
LJ           5.26723         1.80831       -0.823503
LJ           2.12904        -6.27755        0.632889
LJ          -4.07565        -5.59269        -6.42354
LJ         -0.816288         1.95911         3.58701
LJ          -4.24315        0.294492         5.32481
LJ          -2.51559         2.20196        -4.02579
LJ          -4.76205         5.35857         1.88629
LJ           4.67386        -3.16616         1.22978
LJ           -5.2805         5.72618         5.35023
LJ           1.30837        -5.76199      -0.0608056
LJ          -5.54521        -5.43206         1.96089
LJ          -3.47767          3.6908        -3.34779
LJ          -1.64785         3.22378         4.92601
LJ           2.13457         5.54954        0.589395
LJ          0.827944         2.69323         4.85837
LJ           3.61707         1.87502         1.13549
LJ         -0.592694         5.86582        -1.53374
LJ           3.99954         5.80752        -2.55652
LJ          -3.46108         4.93759         5.89366
LJ           -4.7466          3.2094         5.84431
LJ           3.02489       -0.300996         2.13562
LJ          -4.57291         5.11741         5.90035
LJ            2.2101       -0.939618         3.86526
LJ          -6.43682         2.23079        -1.40342
LJ           5.81748         3.05417         3.39267
LJ           -1.4301          6.4092         5.99155
LJ           5.34537         4.52845        -6.45464
LJ           -3.4276       -0.552711         2.29196
LJ           6.21286        -5.15678         4.20855
LJ           2.67294       -0.628068       -0.300961
LJ          -5.88954         6.09015        -1.47457
LJ           3.67324         2.55195         3.61747
LJ          0.212225       -0.134518         3.35397
LJ          -3.61554        -2.65084         3.10347
LJ          -6.11943        -1.92973        -4.81954
LJ           4.24746        -5.84576         2.41485
LJ          -3.78389         -4.1655        -6.13618
