108
#Comment!
LJ           3.56148         0.07624       -0.157654
LJ           2.18074        0.283049      0.00283118
LJ          -3.59737        0.286527        0.020446
LJ          -5.21696        -5.51985       -0.766605
LJ          -1.49517        -5.37693         2.89076
LJ            3.1618        -2.84902        0.369658
LJ          -3.03554        -1.45439        -4.60962
LJ          -4.94619        -4.92607        -2.30362
LJ           2.68313        0.782746         -4.2182
LJ          -5.61421          2.5885        -1.43756
LJ          -2.45236        0.984744        -6.13653
LJ          -5.47787         6.35923          3.2023
LJ         -0.354143          4.7571         2.60479
LJ           5.00543        -3.60693        0.406387
LJ            1.1058        -3.41736        -1.69435
LJ         -0.476086        -6.40836         2.53543
LJ          -4.81202        -1.82383         -5.1348
LJ          -1.42458         3.07894         2.26587
LJ           5.37293      -0.0939877       -0.355676
LJ           -1.7396        0.361809        -4.52562
LJ           4.62262        -3.17711        -6.07782
LJ           5.59663        -4.66384        -3.82245
LJ           4.95154        0.660205        -3.74681
LJ          -3.75977        0.989166        0.943866
LJ           1.60543         -4.4112        -4.13127
LJ          0.593673         3.14755        -2.96579
LJ          -4.27534         2.75072          2.8108
LJ          -1.76586         3.67172         4.92628
LJ          -4.79044         5.96505         2.43763
LJ           4.40722         6.11889         1.00338
LJ          -4.14329         1.29638        -5.58779
LJ          -5.63405         2.19781          4.9136
LJ           -2.3825        -3.81117        -2.90138
LJ           4.14561        0.264669        0.862172
LJ           5.20111        -1.97848        -4.98325
LJ           6.37299         3.88071         5.31252
LJ          -0.36734         4.76097        -3.19344
LJ          -1.57062         4.75309        -2.83378
LJ          -4.35661        -3.80856        -1.14155
LJ          -4.70569          3.5976        -1.75303
LJ           4.50566         1.87453         4.06529
LJ           3.53402         3.19998        0.618309
LJ          -4.03949       -0.400744        -6.35737
LJ            3.3513        -2.92825        -4.94304
LJ           2.45126       -0.439294         4.24187
LJ          -4.18947         2.81445        -2.74017
LJ           4.25866        -2.57533        -4.99982
LJ           3.93762         1.17455         1.28006
LJ          -1.66123          5.4664         3.22058
LJ          -3.85351         2.58527        -6.24325
LJ          -2.52259        0.607603        -2.90219
LJ          -2.60236         2.13579       -0.122437
LJ           6.30998         1.30123        -5.05209
LJ          -2.87952         4.87716        0.445974
LJ            5.4717       -0.322654        -3.13147
LJ          0.580726       -0.723899         2.19464
LJ           2.49624         6.19155        -1.10262
LJ          -6.01235       -0.475236          0.3789
LJ           3.42663        -0.68983        -4.35026
LJ           5.01417         4.14757         3.38514
LJ          0.126139        0.396085         1.87879
LJ          -2.80666         5.31704       -0.600455
LJ          -4.18956         3.91797        -4.51058
LJ           -6.1414       -0.287426        -5.78567
LJ           5.22093         5.59588        -2.11383
LJ          -4.16239        -5.21554        -5.59315
LJ          -1.70341         5.27932       -0.372864
LJ           -1.0655         1.91062        0.122604
LJ          -5.54167         4.30544         1.56656
LJ          -1.27373        -4.83476        -4.33974
LJ         -0.283416         2.03674        -3.96532
LJ           1.03227        -6.09392        -0.18878
LJ           -5.0796          6.1195        -5.65249
LJ           2.46682        -4.94295        -3.79285
LJ          -1.88321         4.91977         2.12941
LJ          -4.70844         2.65106       -0.824895
LJ         -0.892859      -0.0767039         1.01006
LJ           1.55746         -3.4126       -0.334466
LJ          -2.21464        -4.22102         2.23634
LJ           5.39089         1.78281        -1.80992
LJ          -4.19079         -3.0187         6.02482
LJ          -5.06547        -5.82507         4.82462
LJ           2.47973        -4.05419         2.73675
LJ        -0.0178881        -1.24129         4.45998
LJ           1.86856        0.599519         -6.1045
LJ          -2.43158         3.59622        -3.23715
LJ           6.16834       -0.954015         3.66916
LJ          0.803766        -2.51219         3.46714
LJ           1.61779         5.28659        -1.17261
LJ           2.33686        -5.51613       -0.410467
LJ          -5.44586         -5.2928        -3.36048
LJ           -2.6952        -2.02105       -0.895625
LJ          -3.02372         1.15372        -2.24576
LJ          -5.33466         1.81543          2.3344
LJ         -0.945849        0.684588        -5.30276
LJ           1.67688         1.51745        -3.57653
LJ           5.46273         3.67167       -0.298454
LJ           1.65004         1.58012         4.87099
LJ          0.984416        -2.56996        0.471587
LJ           4.33043         -4.3151        -1.49841
LJ          -6.11754       -0.646269        -3.49467
LJ           1.47563        -6.31101         -5.2074
LJ           1.28889        -5.94123        -1.17844
LJ          -2.14661        -0.15318          1.5888
LJ          -4.69037         1.26616        -2.38189
LJ          -4.36823         2.30857         1.48846
LJ          -6.34554         3.68321        -5.18246
LJ          -4.63121        -0.19233        -3.77696
