108
#Comment!
LJ          -2.31754         4.86459       -0.156176
LJ          -5.22093         3.82902        -5.08004
LJ          -5.22471         5.62036        -6.05438
LJ           6.04622        0.559832       -0.192131
LJ         -0.432125        -3.00073         3.29339
LJ          -4.12822         2.28369        -2.82942
LJ           -6.0814         3.75248         2.10978
LJ          -1.43821        -2.55331        -3.67797
LJ          -2.01934         3.24832         1.59319
LJ          -2.14109         3.01938         2.53005
LJ           -2.3017         1.39869        -1.98679
LJ         -0.435636         3.71366         3.26473
LJ           1.00817        -5.50078        -2.90273
LJ          -3.73801         1.97719        -1.34893
LJ          -5.47662        -3.84426        -3.57777
LJ           1.56842         3.21537        -2.29788
LJ          -1.48249        0.813175         6.24456
LJ          -4.44609         3.02795        -2.31093
LJ           4.74893       -0.740998         4.32763
LJ         -0.810707         4.50161        -4.24344
LJ          -1.14404        -2.21357         3.62174
LJ          -1.96722        -4.42881        -6.32673
LJ          -1.31608         6.36154        -5.07927
LJ           4.78308        0.834547        0.191921
LJ            -5.822         4.66477         1.07285
LJ           2.53566        -4.84585         2.80912
LJ          -0.26452        -6.13346       0.0449379
LJ           3.32396         4.65097         5.14016
LJ           2.32518        -2.59001         3.25784
LJ          -6.28209          2.6039         2.25933
LJ          -1.95068        0.792053       -0.800248
LJ          -5.17003         0.43898        0.147302
LJ           2.34757         2.19345         2.56789
LJ           1.89271         -5.8883         5.35021
LJ          -5.92843         4.60389       -0.251158
LJ          -2.37586        -0.67209        -5.96774
LJ           6.38097         2.02021        0.786955
LJ           4.16524         3.24247       -0.240818
LJ          -4.18227         -4.7468        -4.92184
LJ           3.80771         1.91346        -2.17523
LJ          -6.41571        -6.45093         3.57228
LJ           4.25359        -5.89891         4.29267
LJ          -1.88147         4.06712        -4.01032
LJ           2.82285         4.84927         -1.5676
LJ          0.011754         -4.4479         6.22452
LJ           2.41872        -0.90739           3.382
LJ           6.22165        -5.76166         5.73794
LJ           2.94625         4.96992         1.48715
LJ           -2.0372        -5.86122         3.49093
LJ          -6.14701         2.68102        -3.55364
LJ            4.2685        -4.80213         2.20012
LJ          0.790617         3.11242         2.75356
LJ           1.60471         1.78548         1.66592
LJ          -1.30337        -2.73237       -0.934679
LJ          -4.76384         3.69573        -3.23416
LJ           4.24085        -5.52856        -4.16127
LJ          -5.81412         5.46025         3.30859
LJ          -0.17059         6.14751         4.75269
LJ          -1.18758        -0.06475         3.93993
LJ          -2.50814         6.35805         -5.9877
LJ           5.10801       -0.714076         5.66797
LJ          -1.60082         3.18901          4.8635
LJ          -2.60038         -1.5061         -1.3223
LJ           1.86249         3.66798         3.78932
LJ           5.32658         5.96991         4.28557
LJ           1.12402         2.33919        0.524913
LJ         -0.426561       -0.196599         5.12001
LJ          -2.73978        -5.50764        -2.47423
LJ         0.0677657         4.06328        -4.84331
LJ          -4.81926       -0.426606        -2.29074
LJ          -1.76461         1.71453         -5.0292
LJ           1.71998        0.777084        -1.56732
LJ           -2.9269       -0.335947         -2.8476
LJ           1.74059        -2.35674      -0.0546134
LJ           1.01141        -4.32255        0.479663
LJ         -0.415201        -2.72018         2.14217
LJ           6.21185         3.35371         3.48078
LJ           2.04122       0.0844558        -5.21772
LJ           4.68696         0.90477           4.004
LJ           2.33449        -3.84992        -1.72113
LJ           -4.7019        0.239739         5.98301
LJ           4.92933         5.71475        -5.73688
LJ          -5.40831          4.5916         2.96302
LJ          -6.32786         6.11273        -3.99164
LJ         -0.649303        -6.44503         -3.1286
LJ           5.44406        -3.85733        -3.96553
LJ          -3.87402       -0.450048         4.12348
LJ          -1.56755         2.07222        0.419237
LJ          -3.98214        -4.90229        -6.37302
LJ           3.00306         3.13684          3.0205
LJ           2.07141        -4.75005         -1.7922
LJ         -0.921591        -5.31788         1.81998
LJ           -4.3435         3.94386          4.8242
LJ          0.883924        0.124423          5.8086
LJ           5.55357         1.56433        0.459041
LJ          -3.07182        -5.38854          5.7004
LJ            5.7221       -0.510513         3.54893
LJ          0.760452        -3.13055         4.38459
LJ          -1.21084        -3.01512          4.1631
LJ          -2.83938         4.21111        -6.06067
LJ           3.73626       -0.368889        -3.44893
LJ           3.44435        -4.75208         0.76657
LJ          -4.37639        -1.12238        -1.63239
LJ          -3.46218        -1.10388        -2.50828
LJ          -1.35263         4.30528        0.618126
LJ            5.5356        -2.76888        -4.11422
LJ          -4.63134        0.839556         4.48463
LJ          -1.27134       -0.904885        -3.02247
