108
#Comment!
LJ          -3.19523         -3.1723         2.02947
LJ          -2.12458           3.218         -5.2204
LJ           6.17535        -4.82217         4.12229
LJ           6.22186        -2.06521        0.689611
LJ           5.63129        -4.91629       -0.364974
LJ           6.12459        -4.07535        -1.36845
LJ           1.63085       -0.454549        0.282496
LJ          -5.46622        -4.49565        -2.91559
LJ          -1.10759         3.95463         4.32017
LJ           2.56479         2.28599         1.79662
LJ          -2.75826        -1.30285       -0.476638
LJ          -4.08796       -0.294008         5.40132
LJ           -1.0028         3.49903         2.31285
LJ           6.42121         3.20599        -4.84194
LJ          -1.21768        -3.46573         5.64796
LJ          -1.90809        -5.30849        -5.91127
LJ          -2.93383       -0.496138         1.79303
LJ          -3.27472         3.75449         1.28422
LJ           -1.4941         1.05862          6.4589
LJ           5.08573        -1.34643        0.475966
LJ           5.60594        -2.89307         1.66058
LJ          -2.59112        -4.59451        -3.96207
LJ          -1.92399          1.5554         1.98709
LJ          -5.49138        -3.85771         5.19729
LJ           5.35467         3.43312         3.14226
LJ           1.47167         4.70152         1.67959
LJ           -1.8493          2.6844        -6.31812
LJ          -5.78827         4.05823          2.2481
LJ          -3.66841        0.827316         0.97437
LJ          -6.23443         4.09511        -1.67444
LJ          -4.06432        -1.67715         5.00847
LJ          -4.76779         2.05943         5.08843
LJ           3.23282        -4.85951         1.60266
LJ           -4.3301         0.44078         2.52757
LJ          -1.47511         4.99248       -0.408097
LJ           -5.1268         6.44705       -0.670494
LJ          -2.04465        -2.65886      -0.0243042
LJ          -2.74055         3.38615         2.26416
LJ          -3.53685         4.79324        0.752317
LJ           3.76996          3.6655         3.59566
LJ           2.30605         5.21069        -4.00208
LJ           1.39432        0.714941         2.20336
LJ           5.18698        -5.76815        -5.16325
LJ          -5.80558        -1.29322        -3.94881
LJ           -1.4412         3.76555        -1.87457
LJ           1.07654         -4.2276         6.32953
LJ            2.6545        -1.82828        0.755659
LJ           2.53343        -6.15496        -4.14407
LJ            2.7525         4.12536        -1.88671
LJ          -2.45138         1.57417       -0.370147
LJ          -6.23684        0.568834        -3.81989
LJ           3.44785         1.29562        -4.02493
LJ           6.05005        -2.39112        -4.98907
LJ          0.702798        0.680394         5.18659
LJ           1.12254        -6.30847        -4.05208
LJ            5.2324         1.33271         1.39807
LJ           2.82177        -1.19834         1.58688
LJ           3.92795         -1.9769        -6.05095
LJ            2.9639          5.1169         5.43644
LJ           2.97379        -2.80108       -0.303981
LJ           1.49578        0.974742        -5.43713
LJ         -0.195547         2.82736         2.81382
LJ           2.50877         4.29824         1.55354
LJ           5.99931         4.82466         2.55932
LJ           3.78496        -3.35745        -4.40653
LJ           3.82527         4.77648         2.58563
LJ           3.52327        -5.44725        -4.92399
LJ           1.49812         6.42475       -0.246318
LJ           4.54833         4.77845        -4.12211
LJ          -6.42645         6.25915        0.260277
LJ        -0.0851306       -0.590943         2.70305
LJ           4.76652        -3.26462        -2.23881
LJ          -5.20536        -3.61722         3.52383
LJ          -3.78711         6.43114        -1.55617
LJ          -3.45213        -3.48104        0.628556
LJ         -0.736768         6.27758        -6.17775
LJ          0.306357         3.39331         0.73999
LJ          -3.64047         1.78933        -3.11104
LJ          -2.51062        -5.27974         5.04862
LJ          -5.48132         5.95235         2.12347
LJ          -4.14844         2.18553        0.280089
LJ           2.06005         5.05802         4.68248
LJ          -5.86921         4.78074         3.32376
LJ          -5.58783         2.41437        -5.28384
LJ          -6.21703        -3.18568         2.97287
LJ           5.84089        -4.07743        -2.92026
LJ          -0.75064         5.23216         1.49197
LJ          -4.21867         3.27215         1.08157
LJ           5.86446         4.41418         1.17196
LJ           5.09543         5.44895         2.72631
LJ           5.84336        -3.70221         2.67551
LJ          0.319076         4.70272         4.97935
LJ            1.1642        -2.93409         6.33599
LJ           6.45598         1.66673        -1.77072
LJ           -4.4037        0.464796         -1.8042
LJ           5.41154        -5.56266        0.898185
LJ          -2.92962        -3.67759         3.98929
LJ            6.2836         6.09207        -5.04082
LJ           1.56999        0.716648         6.38761
LJ           5.40134        0.718692        -1.30487
LJ           4.65959         4.73582       -0.923894
LJ         -0.534192         1.32833         3.26964
LJ          -5.97265        -2.06053        -5.55375
LJ           -2.8846        -2.88889          5.9653
LJ           6.16924         2.07834        -4.01505
LJ          -5.02632        -5.23071         6.28015
LJ           2.04081        -2.38144         3.95909
LJ           5.18178        -3.66942        -5.84675
