108
#Comment!
LJ          -4.00474         2.85582        -4.02585
LJ           1.52198        0.490647        0.278931
LJ          -5.12623        -4.42656         3.72901
LJ           1.78006       -0.124379       -0.772053
LJ           -4.1532         3.77257        0.313929
LJ          -1.54185        -3.50153        -1.30966
LJ           3.39974        -5.11884        -2.83117
LJ          -5.58888         1.55459         3.61798
LJ          0.624606          -3.537         4.75885
LJ           1.78799         -4.1603        -4.90618
LJ          -2.54056         2.25078        -2.45127
LJ           1.78164         2.46346        -0.13361
LJ          -1.48197         3.76241         1.24565
LJ          -3.13743        -3.01963         -4.0243
LJ           1.12597        -2.11304         5.14872
LJ          -2.09113         1.04919         5.42679
LJ          -4.78614      -0.0962117        -3.69568
LJ          -1.69904         3.23559        -2.37638
LJ          -5.47687         -2.2829         3.42411
LJ          -5.42754        0.766444        0.749892
LJ           4.60114        -4.14162         5.08627
LJ          0.859303        -5.39747         -3.3684
LJ          0.256141        -4.78149        -1.76711
LJ           3.56433       -0.569534        -4.40089
LJ          -5.14781         3.15364        0.251136
LJ          -1.07353        0.410871         4.15609
LJ          -4.13549       -0.427729        -5.90268
LJ          -2.31136        -3.17586         5.09755
LJ          -5.43476         2.31305        0.945063
LJ         -0.934942       -0.744238        -3.52189
LJ          0.600063       -0.688653        -3.73798
LJ          -4.64938       -0.311437         3.21252
LJ          -1.94109         1.71073        -1.00388
LJ          -4.94096         1.98696        -3.23855
LJ            1.1251        -4.86662         4.82568
LJ         -0.259176        -1.79084        -6.45704
LJ         -0.173473       -0.366454         0.22284
LJ         -0.504694        0.454399         5.17572
LJ        0.00460586         3.32193      -0.0185532
LJ              3.82        -4.52872        -3.64067
LJ           4.33191          3.5044         1.70836
LJ          -4.73248        -3.47281         2.75357
LJ           3.64267        -1.93517       -0.644155
LJ           5.18243         1.97377         1.25313
LJ          -2.61195         4.90141        -6.33922
LJ          -4.49015         4.77932        0.194449
LJ           2.49614        -1.60716         5.99721
LJ           2.62611         1.32735         4.81638
LJ          -5.08319         3.56181        -3.71467
LJ         -0.249338         1.88085         5.49858
LJ           4.49897        -3.15737         6.39374
LJ          0.749333        -2.91762         1.19703
LJ          -4.58625        -2.70651       -0.923349
LJ           3.39076       -0.966009        -1.81811
LJ          -3.96873        -4.65771        0.333253
LJ          -5.30718         4.44779        -2.73282
LJ          -0.24146        -2.50526        -3.57692
LJ          -0.29895        -4.87486         4.81964
LJ          -1.46253       -0.416385         2.18677
LJ          0.234612        -2.88091        -1.96378
LJ           -5.9616         3.35875         3.47904
LJ          -1.94698         1.40993          6.3843
LJ           3.79621        -0.80545        -6.22658
LJ           5.99363         5.49006         0.63609
LJ          -1.49374        -3.63463         -3.8978
LJ          -2.27147        -2.47651         1.47458
LJ          -6.20779         5.70594        -2.72558
LJ           -2.1274       -0.600356         4.32771
LJ          -1.54286         5.86727         1.34122
LJ           1.16124         6.06833         6.25026
LJ          -0.95841         6.04941         -3.4517
LJ           6.28689         1.19599         3.69649
LJ          -1.53294        -4.14359         1.69332
LJ          -2.85164         -1.4919         6.27499
LJ          -3.58454         1.54635        -2.38321
LJ           -1.7288        -1.71952        -5.19359
LJ           5.19785        0.248679         4.95005
LJ          -1.32323         1.77887          5.3328
LJ          0.671708        -2.19938        -5.83424
LJ           2.85537         4.50378         1.57757
LJ          -3.53193       -0.738721         1.18841
LJ           -3.7425         1.84399        -4.43531
LJ          -3.46813        -4.16841         6.04814
LJ           2.12274         1.48733       -0.340766
LJ          -6.05488         6.14332         5.76642
LJ          -4.64963         2.86778        -4.88502
LJ           6.37626        -5.66496         4.88818
LJ          -5.30324         4.77355        -5.09263
LJ           4.38488         6.26892         2.70184
LJ          -4.82681         4.32968         1.66887
LJ          -3.74409        -1.30529         6.43574
LJ          -5.91401        -1.13415         4.84934
LJ          -3.81539         2.05282       -0.676906
LJ           4.55051        -3.41171        -5.19257
LJ           5.32265          4.1133         5.83497
LJ            3.8095        -3.93981         5.90144
LJ           3.97608        0.724595        -5.49172
LJ          -2.02265         3.99376        0.117643
LJ           2.91726         5.71606          1.4698
LJ           3.55183         6.01952        -6.22069
LJ         0.0895209        -6.39932        -6.27882
LJ           6.27032        -4.40757         5.80089
LJ           2.76334         4.15587         5.87617
LJ           -2.6795       0.0991885       -0.619932
LJ         -0.928051         1.66503        -4.44919
LJ          -6.37791        -4.38425         4.50104
LJ         0.0270246          4.3565         2.45994
LJ          -1.50549         4.98322          2.6534
