108
#Comment!
LJ          -6.25355        -1.43257         3.08513
LJ          -6.30291        -3.10755         2.25037
LJ          -3.05213        -1.99392        -4.71969
LJ         -0.457934        -5.71111        -3.93819
LJ          -1.60408        -5.16182         2.97657
LJ           1.20527        -4.99519        -1.93908
LJ          -4.64307         4.72583         2.07836
LJ          -6.35899         5.17978         1.89494
LJ           2.82174        -1.76215         4.38049
LJ          0.587434         4.46081        -4.25179
LJ         -0.383903        -6.22403        -5.36632
LJ           -4.9421        -2.96804        -4.78233
LJ          -5.14706         6.45546         2.69386
LJ          0.482174         4.82055        -1.91229
LJ          0.600597          6.2421       -0.216746
LJ          -1.79762         2.52204         4.00928
LJ         -0.211205         -2.6733         5.30935
LJ           2.94938         2.16531        -1.41236
LJ              -6.4        -4.70281         4.50735
LJ          -3.91047         5.34771        0.382336
LJ          -0.69061        -2.82196        -3.40583
LJ          -5.59693         -5.8805        -5.53705
LJ          -5.75582         3.16412         1.18939
LJ           5.08311        -5.32823        0.733871
LJ          -5.61772         5.44231         3.76236
LJ          -5.31508        -6.43093        -2.63902
LJ           4.07951        -1.28924        -4.35555
LJ           5.64016        0.650603        0.527223
LJ          -3.85898         3.03103        -1.02458
LJ         -0.574097        -5.45538         2.82502
LJ           1.57984        -1.27739        -4.76466
LJ         -0.967717        0.663907         2.09958
LJ           1.94268         5.81934       -0.628057
LJ            2.0084        -3.01344         2.87037
LJ          -5.49989        -2.58784        -3.21094
LJ           1.09949        0.387028        -4.19189
LJ          -3.79702         2.53589         3.59071
LJ           4.17922        -3.58328        -1.95836
LJ           5.29088         5.70884      -0.0640073
LJ           -1.9624       -0.190147        -1.03568
LJ           4.53254        -2.09522       -0.347165
LJ          0.789984         5.84194        -1.29355
LJ           2.81638         2.39647         3.77493
LJ           5.98556        -3.76454         3.16445
LJ           2.01693         3.01672         4.23697
LJ         -0.275805         4.41395         6.02918
LJ          -4.23381        -4.79355        -1.89968
LJ           1.83624       -0.160128         1.30525
LJ         -0.364048         4.02235        -2.57393
LJ          -2.70161         1.00572         1.61863
LJ          -1.10673         -4.3811         -5.8501
LJ          -3.22245       -0.906256        -4.53706
LJ            4.0747         1.15476        -1.90936
LJ           1.59735        -2.41675        -2.84821
LJ           2.06316         4.92379         4.09947
LJ          -5.07944         1.47276         5.73811
LJ          -6.34234         5.88173        -2.44488
LJ           3.07345         1.52847       -0.385452
LJ           3.67099        -2.04709         1.15148
LJ         -0.854319        -4.59633        -4.37588
LJ          -1.50108        -2.82785         2.00595
LJ          -2.83297        -4.95477         6.39866
LJ            2.5259        -2.90288        -0.41743
LJ          -5.21088         1.91799        -4.25068
LJ           3.23651       -0.940431        -5.39226
LJ          -3.00503         2.28042        -6.04179
LJ          -5.98493        -1.64017         6.45023
LJ           5.96617       -0.334115        -3.71775
LJ           -1.8021         6.44317        -5.52149
LJ           1.90001        -6.41537         3.24786
LJ          -4.05363         1.53422        -1.00376
LJ           6.08476         1.74748        -4.63885
LJ           1.01643         5.65444        -2.34646
LJ         -0.311548         1.87332        -6.09225
LJ           5.46949        0.420805        -1.02886
LJ          -2.15885         6.30842         1.66113
LJ           3.97121        -3.01084         5.01275
LJ           0.42807        -3.48011        -3.42906
LJ         -0.801045         -1.6482        -3.39034
LJ          -3.26729        -6.45534         5.53808
LJ           2.67303        -4.46676        -6.20629
LJ          -4.98823      -0.0621959         4.00584
LJ           4.17938        -4.74907        -4.36074
LJ           4.70142         1.28272         4.60069
LJ           5.97316          5.6841         3.44311
LJ          -3.51744        -5.03408        -3.80955
LJ           4.67912         4.49081        -0.81457
LJ          -1.42714         5.28663        -1.19732
LJ           3.84864         2.14843          3.5407
LJ             2.122         3.29122         6.01409
LJ          -1.00452        0.906717        -4.27907
LJ          -4.51842         2.72333        0.744986
LJ          -4.77236        -5.20182        -3.15441
LJ          -2.23913        -1.53821         -5.4972
LJ           2.29049         5.75112         1.60047
LJ           1.68764        -3.75851        -3.93496
LJ          0.969891         -3.4367        -1.20629
LJ          -3.31947         3.05079         4.70254
LJ           3.79123         4.70895        -2.10948
LJ            -5.436        -3.80796         2.41899
LJ          0.122833          4.4811        -5.69756
LJ           4.34113       -0.355278         4.64878
LJ          -6.29839         6.20815         1.94599
LJ        -0.0741174       -0.994805        -3.03899
LJ          -1.50509         4.21027         3.66528
LJ           -5.3767         -3.7822        -2.79714
LJ           3.70152        -6.07769        -1.48523
LJ            4.2212        -5.75875        -6.03151
