108
#Comment!
LJ            2.6834        0.638755          1.4081
LJ             2.522        0.523339       0.0265576
LJ          -2.82468        -0.62367        -1.85469
LJ           6.43673        -4.40787       -0.908747
LJ          -1.83388        -5.51085         2.02102
LJ           4.75296        -2.94226        -2.44167
LJ          -3.68413       -0.407592        -3.92503
LJ          -6.02017        -5.19666        -2.32678
LJ           3.52426         2.46316        -5.44602
LJ            5.7818         4.33445        0.161036
LJ           -2.0078         1.44889         4.74075
LJ          -5.30866        -5.21481         4.49393
LJ          0.208831          3.4361          1.0657
LJ           4.01881        -3.14012         2.51705
LJ         -0.637104        -2.37041         -2.7942
LJ          -1.28277        -5.74531         3.80624
LJ          -4.65059        -3.12149        -4.26847
LJ          -2.84405         2.98868         2.25801
LJ           6.37439        0.380429        -1.87295
LJ          -1.70168        0.602183        -3.64113
LJ          -5.53605        -3.35861        -4.93313
LJ            4.6415        -6.43128        -3.34674
LJ           5.41467         3.46077        -5.05945
LJ          -4.34058         1.54856       -0.527541
LJ           2.36716        -5.80299        -3.75401
LJ          0.236086          3.3134        -1.29744
LJ          -4.89629         1.25259         3.94079
LJ          -2.59456         3.51223         6.07901
LJ          -4.68498        -6.20709         3.74384
LJ           2.53378         4.95284         1.63765
LJ          -3.45868         1.51703         -5.2825
LJ           -4.9794            3.86         5.82953
LJ          -1.45066        -3.40969         -5.1687
LJ           4.44231        0.490104        0.621331
LJ           4.96706       -0.393689          -3.688
LJ           5.86299         3.59142         4.07276
LJ           1.69056         3.51615        -1.45935
LJ          0.110036         2.69123        -2.56461
LJ           -5.1142        -2.64744     -0.00971666
LJ          -5.08329         3.52605        -2.08117
LJ           4.80744        0.174847         4.74677
LJ           4.10693         1.92155        0.576906
LJ          -3.26105         -0.2024         -5.5092
LJ           1.13148        -4.29875         6.01599
LJ           1.84585        0.352701         2.97046
LJ          -4.80746         2.33905         -3.9971
LJ           4.21894        -2.64011        -5.83642
LJ           5.21143         2.41326        0.601225
LJ           -3.7858         4.81461         4.43921
LJ          -3.11244         1.50617         5.24935
LJ          -4.94657       -0.217115        -3.98116
LJ         -0.664731         4.08714         0.39852
LJ           5.10606         1.72611        -5.19409
LJ          -4.38145         5.00499        -1.33729
LJ            6.0711        0.573821        -3.00647
LJ          0.897895        -2.86076        0.852395
LJ           2.01516         -5.3714       -0.869855
LJ            5.4005        0.115044         1.40439
LJ           3.29866       -0.891841        -5.45589
LJ           4.57199          3.5715         1.55866
LJ          0.685728        -1.33799         1.37162
LJ          -2.83815         4.32843        -1.21847
LJ          -3.74357         4.18095        -3.74916
LJ            4.5077        -1.58281        -5.85696
LJ           3.42036         4.56075        -1.83162
LJ          -1.38374        -4.41706         5.84846
LJ         0.0210073         5.67961         1.75257
LJ          0.261962        0.981561       -0.778074
LJ          -4.04153         6.24166           2.314
LJ          -2.16057         6.16603        -3.81375
LJ          0.310265         1.99249        -4.44958
LJ          0.763252         -5.2516       0.0394918
LJ          -5.89859        -5.91904        -3.87448
LJ            4.6846        -4.38015        -3.49421
LJ          -2.72145         3.03721         1.20633
LJ          -5.83048        0.883131        -1.58532
LJ         -0.782976        -1.14001         1.60319
LJ           3.13662        -4.51348        -1.01461
LJ            -2.709        -3.88457         3.99265
LJ           5.80662         2.29599        -2.48224
LJ          -4.26756        -3.12498         4.38548
LJ          -4.89244        -5.13635         5.55048
LJ           1.39263        -1.93155         3.93643
LJ          0.447305        -0.80591         4.26594
LJ           2.98619         1.79051         -6.0777
LJ          -2.92862         1.06281        -2.67543
LJ           5.95963        -2.14689         2.76587
LJ           0.23609        -1.70191         3.64771
LJ           2.41854         -6.4244       -0.239904
LJ           3.80205        -4.98481          1.2908
LJ          -5.32529         -4.1159        -3.08773
LJ           -3.4222         -2.1728         -2.1201
LJ          -4.26803         2.18609        -1.84289
LJ          -5.26256        0.963833         2.78998
LJ         -0.500007       0.0474596        -4.41159
LJ           2.45764        0.629927        -4.35858
LJ           5.71819         4.05533         1.19208
LJ           1.18316         1.78644         3.80981
LJ         -0.749121       -0.845171       -0.265861
LJ           5.45177        -3.28576        -1.02549
LJ          -5.50324        -1.65072        -3.55516
LJ           1.56422        -4.23436        -3.97406
LJ           2.36953          -5.062        -1.86643
LJ          -1.04065        -1.06164         2.81034
LJ          -4.54812         1.16661        -2.77384
LJ          -3.03901        -0.52351         2.11139
LJ          -6.36632          2.1077        -6.10612
LJ          -5.64752        0.402647        -3.25935
