108
#Comment!
LJ           4.42161        -4.71697         6.05124
LJ          -4.93419        -0.80396        -2.77235
LJ          -1.95982        0.559408        -5.53979
LJ          0.294419        -5.85126        0.451487
LJ         0.0638334       -0.911384         1.35097
LJ           2.19121        -4.67206         2.69123
LJ           -1.5633        -4.68527          3.5009
LJ          -4.26173        -5.77092      -0.0789603
LJ           2.92244        -3.39316         5.53926
LJ          -1.67885         5.85211        0.360189
LJ          -3.55133         5.78281        -4.05332
LJ          -3.52082         -2.7886         4.30488
LJ          -4.59516         6.19067         4.87585
LJ          -3.48968         2.71619         3.59694
LJ           1.07642        -6.20349        -2.70401
LJ          -1.40022       -0.545106         6.39074
LJ          -2.60407        -2.17242        -5.45364
LJ           5.32083         5.67931        -4.75892
LJ           6.39984         -6.0151         6.11324
LJ          -2.52988        -6.29701         2.72292
LJ            -3.814       -0.747224        -3.03984
LJ          -2.75018       0.0171775        -2.08552
LJ          -2.55127         2.57614         0.42249
LJ          0.249826        -2.23717        -5.45047
LJ          -5.77426      -0.0973286         5.13919
LJ          -3.35801        -5.52138         1.55394
LJ           1.77958        -1.56946        -5.21778
LJ          -2.92083         2.34059        -2.48669
LJ           -2.4123         0.20004         1.57005
LJ           1.23615        -3.04301         3.98327
LJ           3.89333         -3.1111         4.88538
LJ          -2.29197         2.37358         3.21891
LJ           1.90252        -2.94526        -4.38893
LJ           6.10299         3.15991         1.69737
LJ           4.24958        -4.09487        -3.08072
LJ          0.829323         1.64016        -2.23817
LJ          -2.10158         2.92539         4.46866
LJ          -5.18822         3.37372        -5.79007
LJ           5.65905         4.53903        0.974216
LJ          0.227655         2.94359        -1.04905
LJ            4.9691        -3.72975         -2.3353
LJ         -0.932127         5.32145       -0.511769
LJ          -3.72733         5.26915         4.83088
LJ          -6.31066        -5.27828         2.14539
LJ           1.11528        0.224772         3.50625
LJ          -3.69942         3.82341         2.58381
LJ          -3.46912        -3.94504       -0.696722
LJ           3.83358       -0.392727         2.30404
LJ          -0.86806       -0.693205        -3.05439
LJ          -5.93914         2.24566         1.73124
LJ          -3.79495         -1.8993          3.3962
LJ          -5.14919         1.18782       -0.214313
LJ           4.99247        -2.59526       0.0224078
LJ          -1.93876        -4.59282        -1.68447
LJ          -2.44828         4.48836         3.72805
LJ           5.79013        -2.33834          5.8506
LJ          -2.17162         -2.2293        0.810187
LJ           4.52761         5.52041        -2.94411
LJ           1.43537       -0.841711         4.50894
LJ         -0.157877        0.314893        -6.08632
LJ          -5.57932        -4.76101     -0.00583406
LJ          -4.49038         -3.2651        -1.19989
LJ         -0.638805        -1.92523       -0.797284
LJ          -6.29511        -2.03281         6.27719
LJ           1.59999        -2.64248        -5.32569
LJ         -0.029342         3.77501        -5.53259
LJ          -1.56101        -5.83383        -0.26054
LJ           3.11699         5.23632         5.29567
LJ           6.10036         5.33003        -2.74799
LJ           2.73944         3.75229        -3.35831
LJ          -4.18366        0.790967        -2.83044
LJ           6.25456        -4.13809        -3.43593
LJ           1.42053         3.91688           -2.42
LJ          -1.53285         6.09759          3.6891
LJ          -4.17553         6.32194        0.494951
LJ         -0.760569         -1.9242         5.20216
LJ           2.25222        0.253278         4.48707
LJ           2.32711         1.13487       -0.316354
LJ          -4.61366       -0.236945         5.67508
LJ          -1.92541        -4.64116        -4.89512
LJ           4.70066        -6.37236        -2.84094
LJ           -2.4801        -1.12395         1.40951
LJ          -6.17428        -2.20715        -2.23717
LJ           5.25089        0.824801        -6.18998
LJ           6.25412        -4.37435         2.64886
LJ          -3.34744         3.92437        -3.14181
LJ           6.04772         5.83113         1.09781
LJ          -4.85263       -0.236925         -4.4612
LJ          -4.37037       -0.702944         1.25248
LJ           2.96419         5.39692         4.05863
LJ          0.623705         2.67138        -3.79369
LJ          -3.98504       -0.931892         4.98682
LJ           5.43091        -4.83833        -6.23469
LJ          -4.42819        -1.75402          -2.929
LJ         -0.807024          4.3594         1.73758
LJ          0.184363       -0.624107        -3.23725
LJ             1.618       0.0768752        -1.49375
LJ         -0.885731          4.8463         4.32596
LJ           2.24989         6.39528        -5.23202
LJ          -5.79418         4.53425        -3.25392
LJ           -1.3966        0.379719         2.69357
LJ           2.55049        -2.39441        -3.72827
LJ           5.88961        -4.18462        -5.58517
LJ          -2.01016       -0.753109        -2.38246
LJ          -6.11361        -5.04676        -5.86247
LJ          -5.78618        -3.94081          5.3932
LJ           4.85852          3.9073        -2.65464
LJ          -3.54948         3.66661         4.09305
