108
#Comment!
LJ          -2.18227         1.33242        -2.25633
LJ         -0.545058         1.87785        -1.58014
LJ           6.15095        -5.54564         3.49933
LJ            4.7569         2.12104        0.667502
LJ          -3.97275         4.14079       -0.481747
LJ          -3.32612          6.1916       -0.165947
LJ           2.95681        -3.62468        -1.06236
LJ          -6.00662        0.903884          1.6262
LJ          0.626041         -5.6408         4.64917
LJ           1.23529        -5.99247         -2.7974
LJ           -3.8608        0.723456        -1.94466
LJ           4.58818         3.51147         2.93431
LJ          -2.34447         4.43461        0.697195
LJ          -2.24557        -1.08854        -4.16741
LJ          -1.62855        -1.09389        -5.78956
LJ          -2.79326        -1.63767         6.44544
LJ          -3.26429        0.701912        -6.34097
LJ          -2.49074          3.7962       -0.509638
LJ          -4.22122       -0.751893         3.80217
LJ          -5.35967       -0.149605         2.09891
LJ           4.46538        -4.20809         3.53198
LJ         -0.644754        -4.03214        -3.30143
LJ          -2.12517         5.52321        0.326436
LJ          -5.88796        -2.82332        -4.03252
LJ          -4.99177         2.28171        0.968673
LJ         -0.359259        -2.91824         3.26004
LJ           -2.7685       -0.207744        -5.87577
LJ          -3.55763        -5.05451         4.48542
LJ          -6.45887         2.65535         2.02419
LJ         -0.996673         2.27772        -2.96602
LJ         -0.369638        -1.42424        -5.29785
LJ          -4.68997        0.369592         3.27304
LJ          -3.82181        -1.09582       -0.922147
LJ          -4.98148         1.24995        -5.58329
LJ          -2.82926        -4.35965        -5.23214
LJ          -2.70099        0.876627          3.4643
LJ          0.769752        -1.40713       -0.546391
LJ          -1.33904         1.77442         5.19522
LJ          -1.82552         3.01111        0.123308
LJ            2.2171         -5.7881         -5.2118
LJ           3.70554         4.23333         4.02783
LJ          -2.85693        -1.90033         2.70233
LJ           3.55925          -2.364          -3.398
LJ           4.87223         4.09249       -0.389321
LJ          -3.01619         4.60571        -3.40173
LJ          -2.02053         5.45627        -1.58143
LJ           2.74544        -1.34729        -4.48314
LJ           2.66371         3.13192         5.94156
LJ           6.41606          3.4318        -2.31088
LJ         -0.743139         5.38778        -5.05355
LJ           4.73947        -2.88896        -5.59612
LJ           2.35307        -5.97544       -0.645249
LJ          -3.77191        -1.46256        -1.98138
LJ            1.5361       -0.635477        -2.24446
LJ          -2.06529        -5.74751         2.57608
LJ           -2.3213         4.04847        -6.39037
LJ          -0.10181        -1.76238         -2.6021
LJ           0.73924        -4.27035          1.2819
LJ          0.286605         2.36065          3.4134
LJ           1.40144        -3.25362        -1.79423
LJ           5.47415         3.07071         5.45249
LJ           -0.5455        0.384599         -5.8015
LJ           2.27251        0.460986         4.80027
LJ           5.86193         4.07355         1.57464
LJ         -0.334409         -2.2799         1.96565
LJ          -4.52513        -3.93292          1.6261
LJ           5.55934         2.13699        -3.79242
LJ          0.683052        -2.72605         3.89622
LJ          0.414189         5.31327        -1.76837
LJ           3.15941        -5.69812         4.26748
LJ          0.313464        -5.07823        -5.31896
LJ           5.85658        0.141331          2.0686
LJ          -2.62348        -3.85877          3.0117
LJ          -3.11244        -2.45374        -5.99897
LJ          -3.27254        0.656242        -2.97768
LJ          0.277161        -2.92854        -4.97299
LJ             5.374          -3.075         4.26242
LJ           -2.0014         1.08482         2.70787
LJ           2.78696        -3.54105         4.65207
LJ         -0.143916         3.97563         2.28631
LJ          -3.45485        0.685063        0.534572
LJ          -2.62803         1.98619        -5.43051
LJ           -5.0559        -5.43909         5.71783
LJ          0.303332         1.10494        -2.21953
LJ          -6.25409        -4.53422        -6.42184
LJ          -5.98061          4.4775        -6.12471
LJ           -4.7002         6.36488         3.88691
LJ          -3.53046         2.00396        -3.00534
LJ           5.58855        -6.21564         2.82546
LJ          -3.83263         5.09703        0.523148
LJ          -5.44962       -0.689495         4.28934
LJ           5.41552        0.924051         3.77233
LJ           -2.4753         4.92589         2.33724
LJ           6.27242         -2.5825        -5.13707
LJ           5.48339         3.17233         1.95967
LJ           6.38472        -4.30036        -4.71041
LJ           4.96553        -1.31948        -2.36886
LJ          0.591688         4.38748        -1.08641
LJ           2.47573         -4.6524         2.89018
LJ           5.02044        -4.39979        -5.69101
LJ           -2.2155          6.2391        -4.25386
LJ          -5.98248        -2.00802         4.41395
LJ          -3.01054         4.10259         5.31717
LJ           -4.0465        -0.58782        -2.66076
LJ          -2.68137          1.8513        -3.69453
LJ           -6.2806        -4.39744         4.91167
LJ          -1.43911         5.54199         1.83399
LJ           2.03833        -6.44172         4.71878
