108
#Comment!
LJ           2.28978         1.57695         1.71232
LJ           2.52016        0.859674         1.00809
LJ          -2.90149        -0.92701        -3.31503
LJ           5.80021        -3.96359       -0.736381
LJ          -1.92448        -5.94052         1.46074
LJ           6.26644        -3.32099        -4.86461
LJ          -4.46486        0.277693        -3.70711
LJ           5.83501        -4.56183        -2.20663
LJ           4.58135         4.04651        -6.15713
LJ           4.66304         6.26788         1.59904
LJ          -1.78541         1.96746         2.95937
LJ          -4.98646        -4.11161         5.06708
LJ          0.435885         2.10869      -0.0194343
LJ           3.14925        -2.72969         4.37219
LJ           -1.6982        -1.70741        -4.02742
LJ          -2.14951        -5.02142         4.78901
LJ          -3.64094        -3.92691         -1.9994
LJ           -4.1038         2.91919         2.21783
LJ            5.3018        -1.23566         -3.1172
LJ          -1.47642        0.731603        -3.01091
LJ           -4.3583        -3.71224        -5.01224
LJ           3.73906          5.0223        -2.92503
LJ           5.93887         5.57183         6.45929
LJ           -4.2724         2.18071        -1.77076
LJ           2.98272         5.53421        -5.94646
LJ          0.239168         4.22989       -0.452876
LJ          -5.38591      -0.0450875         4.82628
LJ          -3.38925         3.33529        -5.84012
LJ          -4.74819        -5.49837         5.01907
LJ          0.821936         3.94788         2.17272
LJ          -2.89684         1.21225        -4.79636
LJ          -4.40122          5.3298         6.35519
LJ         -0.592229        -3.08912         5.66931
LJ           3.96027        0.372594       -0.341944
LJ           5.62265         1.08525        -2.39179
LJ           5.45945         3.29427         2.93654
LJ           3.22987         2.11138        0.068804
LJ           1.56506        0.838658        -2.15801
LJ          -3.06851       -0.896923          1.7281
LJ          -5.02119          3.4591        -2.49374
LJ           5.07006        -1.34755         5.36743
LJ           5.46909         1.57989        0.794207
LJ          -2.66066        0.269882        -4.46518
LJ         -0.245287        -6.18743         4.27178
LJ           1.31341       -0.335706         1.74357
LJ          -5.25748         1.70216        -4.81991
LJ           4.20703        -4.30958         6.18562
LJ            6.0817         1.63227        -1.41953
LJ          -5.69847         4.24483         5.80647
LJ          -2.27395        0.663869         3.78208
LJ            6.0694        -1.04823        -4.64307
LJ           1.01816         5.73712         1.10196
LJ           3.90824         2.68558        -5.08783
LJ          -5.88249         5.03113        -3.85075
LJ           5.87901         2.07956        -4.11385
LJ           1.28005        -3.18745       -0.399422
LJ           2.09809        -4.92823       -0.578654
LJ           4.94831        0.371324         2.66043
LJ           1.26117        0.347941        -5.61005
LJ           4.06351         4.28528         1.42046
LJ          0.951777        -2.15772       -0.302273
LJ          -3.22703         3.56506        -1.71474
LJ          -3.76968         4.03748        -2.80532
LJ           4.06052        -2.23119        -6.42374
LJ           1.75401          3.5547        -1.50904
LJ          0.452271        -3.00685         4.56574
LJ           1.53612         5.94205         3.61788
LJ           1.77478       0.0225042        -1.62937
LJ          -2.71001        -4.81427          3.2375
LJ          -2.62353         4.71874        -3.48321
LJ           1.08696         2.57326        -4.50603
LJ          0.638117        -5.92934       -0.121809
LJ          -6.41395        -5.57362        -3.23044
LJ          -6.22624        -3.85088        -3.03226
LJ          -2.91022         1.10545         1.17348
LJ          -4.87868         1.24233        -1.63063
LJ         -0.903256        -2.57885         1.32123
LJ           4.42389        -4.93412       -0.361981
LJ          -3.40627        -3.37125         5.50564
LJ           6.34332         2.51642        -3.04175
LJ          -4.19655        -3.33565         2.97177
LJ          -4.61205        -4.55755         6.40722
LJ           1.18041        -0.52818         4.65797
LJ          0.458104       -0.310803         6.20149
LJ            3.7668         2.49988        -6.37042
LJ          -3.56501        -1.55031        -2.36939
LJ           5.74445        -3.22005         1.95443
LJ           0.35073         -1.1312         4.99693
LJ           2.94848        -4.40412       0.0120844
LJ           5.04879        -4.52923         2.71609
LJ          -5.13673        -3.27012        -2.71137
LJ           -4.0492        -2.12547        -3.25969
LJ          -5.38655         2.74146        -1.35897
LJ          -5.19583        0.161439          3.2866
LJ         -0.843664        -1.11366        -3.63232
LJ           3.18552       -0.254261        -5.37563
LJ           5.15137         4.18148         2.45446
LJ          0.361556         2.88352         3.26909
LJ          -2.27446        0.727696       -0.754621
LJ           3.17663         -2.3846        -1.53033
LJ            -4.691        -2.82923        -3.68571
LJ           1.77901        -2.45949        -2.66475
LJ           3.18141        -5.00259       -0.833886
LJ         -0.723051        -1.14034         3.18891
LJ           -5.0187         1.64735         -2.8643
LJ           -1.8135        -2.96783          2.7488
LJ           6.40296        0.644766         6.10124
LJ          -6.04144        0.991255        -3.38735
