108
#Comment!
LJ          -2.77496        -1.58147         1.08631
LJ          -2.44731         2.78201         -4.3537
LJ           5.23289        -4.93229         5.48539
LJ           6.41302       -0.717534        0.355343
LJ          -5.90102         6.38492       -0.930264
LJ          -5.33485        -4.70071       -0.914566
LJ            1.3901        -1.56594        0.318705
LJ          -5.32007        -2.29883        -1.61214
LJ         -0.303435         4.61554         4.32694
LJ           2.09081         3.80091         2.05987
LJ          -3.92819       -0.708085       -0.908109
LJ          -5.83988         -3.4924         5.28185
LJ           -1.9478          2.9409         0.77215
LJ          -4.70594         2.35914        -4.29371
LJ          -1.86837        -2.60412        -5.94684
LJ          -2.11908        -4.16631        -5.42599
LJ          -2.69973       -0.945838         2.54117
LJ          -2.60461         3.84139        0.389611
LJ          -2.48286        0.562174         5.83515
LJ           5.51635        -1.01429          1.4568
LJ           4.25651        -2.90969            1.15
LJ          -2.03757        -4.30376        -4.41754
LJ          -0.61928         2.57593         1.85542
LJ          -5.58418        -3.57545        -6.18021
LJ           6.09038         2.31982         2.50247
LJ           1.10455         6.22432         2.15994
LJ          -1.98415         1.61809        -6.23179
LJ          -5.43137         5.07106         3.17218
LJ          -4.35177        0.610902          1.8529
LJ           3.84053         4.05449        -1.96039
LJ          -3.63459        -2.56824          5.2003
LJ            -4.323         2.17417         4.05557
LJ           5.10084        -4.15426         0.86508
LJ          -4.51979          1.1595         4.08611
LJ          -2.33811         6.38358        -1.67767
LJ          -4.84121         4.84117         0.19554
LJ         -0.874118        -2.75851        0.275726
LJ          -2.29465         2.89501         3.28545
LJ          -3.77092         4.03438         0.76801
LJ           1.82032         4.68528         5.14412
LJ           2.22415         5.14904        -5.91672
LJ          0.149522      -0.0711263         2.34854
LJ           4.93768        -5.06118        -5.92923
LJ           6.19523        -3.55499        -2.96587
LJ          -2.35165         3.73473        -1.20183
LJ          0.638614        -5.98609         -4.8945
LJ           2.93259        -1.99135        -0.54418
LJ           2.77276         5.84656         -4.9062
LJ           3.62925         3.13235       -0.143648
LJ           -1.8025        -1.28022        -1.60055
LJ           5.50954        -1.44981        -3.14362
LJ           3.36862         2.72342        -3.37307
LJ           -5.3303        -2.12529        -4.60998
LJ          0.915772        0.426504        -6.11107
LJ          0.813368         6.23076        -5.91521
LJ           3.23295         2.83399        0.918912
LJ             2.545       -0.914467        0.137815
LJ           2.88078        -2.59854         -3.7746
LJ           2.68996         5.59297         5.06121
LJ            3.4549        -2.70932      -0.0505372
LJ           2.76313         2.52757        -5.11715
LJ         -0.128164         1.26381        -0.96186
LJ           0.46592         2.87006         2.00145
LJ           5.71066         4.29467         1.72546
LJ           1.98863        -2.94151        -5.26425
LJ           5.08905         6.42204          2.5982
LJ           4.06624        -3.12897        -4.78756
LJ          0.965745        -4.84632        0.508398
LJ           3.41966         3.83065        -4.34243
LJ           5.30714        -6.22827         1.14672
LJ          0.222916        -2.44962          3.9578
LJ           5.36677        -1.67734        -2.20666
LJ          -4.53056        -3.35934         4.47988
LJ          -3.35566         6.23046        -2.38571
LJ          -2.98691         -1.6679       0.0472849
LJ          0.239667        -4.71086        -5.88161
LJ          -2.55018         5.42173         1.51382
LJ            -3.079         1.04987        -1.72851
LJ           1.10838        -6.09971         4.89926
LJ          -4.11771         4.38466         2.65261
LJ          -2.84549         2.45563        0.693973
LJ          0.954903         4.15905         5.58005
LJ          -5.94023         5.87169         4.26284
LJ          -3.68418         1.50273        -4.34057
LJ          -5.63334        -3.03226         4.22316
LJ           5.66935        -5.51203        -5.05785
LJ          -1.71612         5.74882          2.5553
LJ          -3.42517         3.18956      -0.0473939
LJ             5.988         5.60825         1.15486
LJ           5.58089          4.5854         2.86697
LJ           6.27266        -2.04138         2.54373
LJ           2.07458         3.58533         3.09352
LJ          -1.88152        -3.98146         5.45278
LJ          -5.87637        0.581694        -3.25261
LJ          -1.93729         3.02574       -0.763191
LJ           6.22581        -4.93115       -0.993965
LJ          -4.38589        -2.86158         2.01391
LJ           4.48662         5.76165        -3.71866
LJ           2.00625       -0.973868         5.32182
LJ           5.71998       -0.538039        -2.36692
LJ          -6.41977         5.33681         -1.7413
LJ          -2.62056        0.740901         3.13183
LJ          -5.98576        0.462193         6.46296
LJ          -3.11356        -3.50432         5.86746
LJ          -5.46733          1.7779        -3.74062
LJ          -4.31878        -4.11494         5.78355
LJ          0.579356         -3.3062         3.56497
LJ           5.42091        -3.94028         -6.4166
