108
#Comment!
LJ            2.8605         4.12222         2.25633
LJ          -1.07489         1.50262         4.38253
LJ           1.73218         1.78291         -2.0909
LJ          0.626812        -2.17754        -5.18502
LJ          -2.71303         4.05522        -1.46919
LJ          -5.60454        -5.25103         0.62536
LJ          -2.82778         4.89601         -4.0395
LJ           3.05839        -5.13205         3.07403
LJ           1.27319        -5.96022         -5.9412
LJ           3.31964        -5.88997         6.39674
LJ           5.40521         4.55994        -5.15312
LJ            2.8536         1.36753       -0.587431
LJ          0.672877         3.09634         -2.7709
LJ          0.528202        -1.34508         6.29775
LJ            2.2593        -5.00525        0.912839
LJ           -4.2046        -3.21937         -2.3906
LJ         -0.601281        -3.83955        -3.16004
LJ          -6.35002         1.33331         2.80145
LJ           2.22851         2.64632         1.12595
LJ          0.494821          1.6436         2.79362
LJ          -1.45128        -3.82238       -0.524905
LJ          -3.88706          -1.062         1.50088
LJ          -5.08464        -2.38498         2.45364
LJ           2.51024         3.97118       -0.446784
LJ           3.71584         -2.7063        0.114205
LJ          -2.80829         3.46752        -4.65855
LJ          -5.91821         2.77383         3.79513
LJ          -4.31714         4.11881         4.68156
LJ          0.673356       -0.208873        -4.12991
LJ          -4.03571        0.617664        -1.81455
LJ            2.6775        -0.76626          5.5871
LJ          -4.87109         1.39304        0.651656
LJ           4.66116         3.42778         5.98393
LJ          -3.05807        -1.19709        -3.48576
LJ           3.56432         0.13372         5.72765
LJ           3.24188        -1.24005        -3.95498
LJ          -6.13492         5.40561        -3.57114
LJ           5.27521        -3.86908         5.43874
LJ         -0.871592        -4.01303        0.935678
LJ          -3.39486        -3.54763         6.45122
LJ           1.47913         3.31803         -1.5082
LJ         -0.998954         0.39742         4.35364
LJ          -1.78985       -0.921341         2.76313
LJ           4.60233         5.31919         2.49791
LJ            -4.556         -3.8654         -5.3802
LJ           4.65716        -2.17275         5.35464
LJ           1.31965        -3.33289         2.93076
LJ           1.97153         5.48164        -5.12064
LJ           2.42875         2.39136         -2.4679
LJ          -2.84743       -0.992698        -5.35201
LJ          -6.22992        -4.91095          4.8328
LJ         -0.584813         1.72382         1.24954
LJ          0.863409        -4.37383        -3.07397
LJ           6.03982        -5.57353        -1.24218
LJ          -5.61522         3.99315          4.2906
LJ          -3.38294         -2.8931        -1.50625
LJ          -3.90765         4.53307         1.20725
LJ            5.1419         3.59921        -2.20214
LJ           4.41853        -6.02889         6.19699
LJ          -1.89918        -4.71537         2.84743
LJ            1.2803       -0.718513        0.821606
LJ          -5.61674        -1.44566         4.80078
LJ          -6.21329        -4.44249         3.90845
LJ           5.73511       -0.238589         2.51889
LJ          -2.78791        -1.17215        -1.72077
LJ           3.74833        -6.38148         -3.9315
LJ           6.14151         6.36976        -2.66838
LJ          -6.30539       -0.753945         4.38528
LJ           3.64351        -4.95852        -3.47747
LJ          -1.12345         3.64151       -0.891238
LJ            5.6977         6.18209        -1.75435
LJ           4.85857        0.278849       -0.405221
LJ           2.54632        -6.26818         2.55743
LJ          -3.81043         -5.4263        -5.67474
LJ         -0.267242         3.06717         2.92667
LJ          -5.53184       -0.131623         2.96632
LJ          -2.52551         3.31165        -3.59801
LJ          -4.95994         5.44831         1.69413
LJ           6.12063        -2.30826         3.85473
LJ          -5.71288         4.73047         6.17058
LJ         -0.492765        -5.47153       -0.950771
LJ          -6.44056        -4.46155      -0.0924481
LJ          -2.17515         3.56637         -2.4983
LJ          -1.41611         2.46414         2.95532
LJ           -0.6872         5.61909          1.2714
LJ           3.75148         1.71443        -6.22548
LJ            3.7007       0.0340624         3.15112
LJ          0.923462         4.80485       -0.842512
LJ           3.62121         4.62853        -2.68269
LJ          -3.86547          6.4446         3.38417
LJ          -5.23014         3.34913         6.14739
LJ           1.78274        0.299568         1.23854
LJ          -4.73863         4.70852        -6.38216
LJ           3.43659       -0.615969         4.55708
LJ          -6.08767         3.55376        -1.46981
LJ           5.12892         3.87854         3.50131
LJ          -0.70284         6.12799         5.28034
LJ           6.45657         4.71171        -5.16401
LJ          -3.45966         1.02463         1.63459
LJ          -4.05918        -5.01242         3.58227
LJ           1.00382         1.39741       -0.462581
LJ           6.01871        -5.34025       -0.210092
LJ           3.78378         4.48547         3.23509
LJ          0.165917         0.74679         4.89955
LJ          -3.21813        -1.97689         2.28828
LJ          -6.42289        -1.11059        -6.24028
LJ            4.4054        -4.36045         2.22753
LJ          -1.48747          -5.721         -6.1943
