108
#Comment!
LJ          -6.15563        0.752948        0.314249
LJ           3.49354        -1.37216         2.73287
LJ          -4.16345         2.11528        0.500193
LJ           5.67403        -2.45115       -0.491568
LJ         -0.728239        -5.75296         3.88342
LJ           4.73537        -3.12227         6.25337
LJ          -2.49239        -4.40907         6.27206
LJ          -1.67186        0.716159        -4.12467
LJ          -2.78429       -0.315204         1.17898
LJ           4.90003         -1.9983        -1.04733
LJ          -5.67105        0.706811       -0.543518
LJ          -2.87666         4.88553        0.763259
LJ          -1.23587        -4.50631         5.36008
LJ          -5.71827        -5.01559        -5.94117
LJ          -6.23461         5.81843         2.48282
LJ         0.0142141         5.89059        -0.49532
LJ          -4.95547         -2.7093         4.61518
LJ           1.78178         3.23159          1.9608
LJ           2.46227       -0.678994         2.46231
LJ           -1.8584        -1.46635        -6.37841
LJ         0.0273206       -0.946238        -4.27591
LJ          -5.17618        0.903649        -5.62038
LJ           1.95709         -2.2363        -5.90891
LJ          -1.39596         1.49968         3.72988
LJ          -3.12832        -3.18735          4.9456
LJ           1.14376         1.77704         5.37253
LJ          -2.99572        -5.33059         1.07496
LJ          -1.24383         5.44795         5.90937
LJ          -6.36587         3.46559        -2.48953
LJ          -2.74804        -3.51423        -1.39397
LJ          -1.21247         3.45613        -1.35173
LJ          -5.65802         2.09463        0.655859
LJ         -0.798349        -3.78119        -3.40873
LJ           3.68483        -2.82699        -3.41003
LJ           0.43717        -4.15291         3.85821
LJ          -4.18855         3.74115        -3.74139
LJ          -3.34174        -4.75201         3.49592
LJ          -4.80822        -5.35483        -1.07979
LJ          -5.03497         6.38186         2.02709
LJ         -0.998703        -5.48578         -1.1109
LJ            3.1606        -6.38657          2.3371
LJ           2.19381         5.45267         1.67073
LJ          -6.06994         -3.0247         4.18262
LJ           4.25002        -5.88393      0.00939371
LJ            4.7952        -4.33143          -3.778
LJ          -2.16157        -0.13165        -1.45924
LJ           5.95795        -4.47434        -2.54277
LJ          -0.65996       -0.898454         1.77725
LJ          -2.39718         -1.7431        -3.70911
LJ          -4.03914         5.82061         4.87433
LJ           1.64767         2.95474        -2.74272
LJ           3.38411        -2.44844         0.24691
LJ           -2.3398        0.154289        -4.88434
LJ          -2.00359         5.62108         1.69812
LJ           4.31555        -5.14762         1.19413
LJ          0.365086         3.00288         1.53215
LJ         -0.771587         3.58632         -3.1377
LJ          -2.33948        -2.63934        -2.16367
LJ           4.37274        -1.26519        -3.17331
LJ            5.2162        -6.23816        -4.07089
LJ           1.16617         1.16317         1.84246
LJ         -0.104288          4.8826         -1.4656
LJ           5.52887         4.62963        -3.94197
LJ          -5.50499         3.97291        -5.81215
LJ          -6.30608        -6.32471        -2.25403
LJ          0.594722         4.74691       -0.748306
LJ          -3.07951         3.36696        -4.17444
LJ          -1.01774         1.86653         1.95041
LJ           4.31966        0.551574        0.897798
LJ           3.24106        0.391312        -2.06088
LJ            2.1371         3.42149        -1.88239
LJ           3.62118        -6.01942         4.61157
LJ          -2.69375         3.59873         2.29013
LJ          -4.15531         5.97698        -5.69005
LJ           1.99519         5.07772        0.558249
LJ          -1.65168         -4.8979        -3.33909
LJ           -3.6701         4.15913        0.127544
LJ           1.62927         -3.4607        -1.33336
LJ          -1.68252        -3.29626        -3.08705
LJ           3.83885         1.08543       -0.808857
LJ          -3.37592         -2.0776        -1.82259
LJ             6.268        -6.16715         5.04659
LJ           5.51441         2.45881        -1.15355
LJ          -3.12616       -0.925701        -5.88845
LJ          -1.90004        -2.57292        -4.16912
LJ          -2.66376        -3.61969        -3.52251
LJ           5.01924        -1.83441        -5.07579
LJ           2.00264        -5.32534        -4.33035
LJ           1.18635         3.97766        -3.10465
LJ         -0.577859         5.10556        -5.51038
LJ          -6.37348         5.17851        -4.04252
LJ         -0.469663        -1.48375          2.7619
LJ          -1.23598        -1.50981        -2.79156
LJ          -5.90634         2.89719         1.75804
LJ          -4.06366        0.234339         4.44443
LJ         -0.553153          2.4526         -3.1177
LJ           4.71754         1.96667        -4.89174
LJ           1.47398         3.09895        -3.87122
LJ           -1.9691        -4.22686         1.43906
LJ          -4.42908        -6.44385        -3.03371
LJ          -3.46204        0.286169        -4.76683
LJ           1.12902        0.491513         5.36696
LJ          -2.97533         5.46079        -2.66591
LJ           6.08817          3.5873        -1.00219
LJ          -1.23682         1.74275        -3.28272
LJ           3.32062         4.51855        -2.40502
LJ          -5.31643         -5.4142        -2.82108
LJ          -1.47132        0.826642        -5.68379
