108
#Comment!
LJ            4.0725       -0.154226       -0.822659
LJ            2.5123       0.0763772        0.164246
LJ           -4.0867        0.737838        0.721853
LJ          -4.33918         -6.2238       -0.873998
LJ          -1.08925        -5.67293         3.22671
LJ           2.64912        -2.84464         2.05921
LJ          -2.77331         -1.9595        -5.01793
LJ          -4.43892        -4.76288        -2.52899
LJ           1.66605       -0.080495         -3.3283
LJ          -5.60174         1.37406        -1.85592
LJ          -2.82514        0.754423        -4.78226
LJ          -5.56059         5.54631         2.65477
LJ         -0.597681         5.47056         3.42063
LJ           5.56304        -3.88285       -0.904879
LJ           2.23375        -4.07605       -0.848583
LJ         -0.311591         6.11418         1.92998
LJ           -4.8677       -0.908679        -5.69671
LJ            -0.591         3.26829         2.20231
LJ           4.76193       -0.331873         0.60416
LJ          -1.79631         0.14848         -4.9023
LJ           2.86069        -2.85534        -6.42012
LJ            6.1659         -3.5625        -4.11045
LJ           4.19645       -0.107643        -3.95438
LJ          -2.92832        0.675966         2.24535
LJ           1.04069        -3.71096        -5.20999
LJ          0.687763         3.15745         -4.0597
LJ          -4.13575         3.39125         1.92326
LJ          -1.27174         3.76796         4.20798
LJ          -4.82118         5.45544         1.49927
LJ           5.53559         -6.1008        0.606391
LJ          -4.25586         1.22741         -5.2351
LJ          -6.06642         1.22971         4.35882
LJ           -2.3367        -3.89094        -1.98744
LJ           3.58463       -0.566355        0.212561
LJ          -6.28803        -2.60601        -5.90532
LJ           -6.1988         4.00566         6.06617
LJ          -1.24339         5.33774        -4.20527
LJ          -3.03928         5.99949         -2.8684
LJ          -3.65028        -4.58452        -1.20376
LJ          -3.98162         4.20795         -1.8242
LJ           4.32623         2.91158         3.64977
LJ           3.33459         3.87723        0.737189
LJ          -4.57394       -0.468773         6.23146
LJ           3.60922        -2.53617        -3.68635
LJ           2.96577        -1.31321         4.82493
LJ          -3.69374         2.59452        -2.06105
LJ           4.71693        -2.99695        -4.66611
LJ            2.9731        0.865099          1.5864
LJ          0.288591        -5.96287         4.01423
LJ          -4.11993         3.46292        -5.80208
LJ         -0.700058        0.622295        -2.86764
LJ          -4.59674         1.37415       -0.317941
LJ          -5.93705         1.09371        -4.84371
LJ          -2.57454         4.99282         0.80975
LJ           4.96667        -1.55605        -2.16202
LJ           0.22972        0.777973         2.66166
LJ           2.12686         5.68415        -1.16572
LJ          -5.04685       -0.832128       -0.234965
LJ           3.09497       -0.228349        -3.74151
LJ           5.23492         4.81589         4.70555
LJ          0.413347         1.46987         1.70769
LJ          -3.48081          6.2321       -0.794543
LJ          -4.49757         3.69205        -4.89183
LJ          -4.84512        0.025303        -5.89541
LJ            6.3117         6.22615        -2.27911
LJ          -5.86703        -5.73931        -4.69026
LJ          -2.08902         4.78073        -1.50567
LJ           -1.1128         1.93737        0.648179
LJ          -6.40621         3.14974         1.19574
LJ         -0.746744        -3.64285        -4.64229
LJ         -0.330822         2.62114        -3.42646
LJ           1.25692          6.2134         0.69082
LJ          -4.57057         5.63329         6.21987
LJ           1.18919         -5.3426         -3.9539
LJ          -1.06184         4.51956         2.39612
LJ          -4.30661         3.72578       -0.650259
LJ          -1.55883         0.43072        0.283883
LJ            1.1166        -3.14788       -0.707184
LJ          -2.13898        -4.03791         1.22038
LJ           5.17188          1.4535        -1.40186
LJ          -4.14839         -2.9436        -5.88698
LJ          -5.21991        -6.29514         4.22565
LJ           3.18301        -5.31999         2.02415
LJ         -0.293978        -1.79881         5.87105
LJ           1.24812      -0.0776695        -6.02475
LJ          -2.15122         4.96849        -3.62597
LJ           6.29446       -0.224816         4.21344
LJ           1.01852        -2.79718          3.2868
LJ            1.4006         4.98836         -1.7899
LJ           1.57946        -5.95926        -1.43081
LJ          -5.39511        -5.94771        -3.05015
LJ          -2.26316        -1.90735       -0.153078
LJ          -2.86182         1.05636        -1.98821
LJ          -4.92196         2.75277         1.89048
LJ          -1.52774        0.680433        -6.17103
LJ           1.40416         2.00602          -3.302
LJ           5.30702         3.37382        -1.23395
LJ            1.7649         1.82227         5.70844
LJ           1.24841        -2.89023         2.14695
LJ           2.54187         -4.9966        -2.03404
LJ          -5.76352          -0.536        -3.71837
LJ           1.47147         5.40962        -5.83492
LJ          0.693237         5.82586        -1.61991
LJ          -2.72956        0.503737        0.699177
LJ          -4.19993         1.29121        -2.39306
LJ           -5.3914         4.02298         1.63562
LJ          -6.33535         4.59181        -4.61542
LJ          -3.94378       -0.334468        -4.06827
