108
#Comment!
LJ          -2.94308        -1.64819         5.46252
LJ          -2.43511         6.30409        -5.35716
LJ          -4.35231          3.6967        -3.57955
LJ             5.584        0.588584       0.0998792
LJ          0.759046        -3.52139         4.57664
LJ          -5.02153         -2.6793        -3.03106
LJ          -3.56913         5.89889         4.29561
LJ         -0.822752        -3.47087        -5.95312
LJ           5.50203         3.91157        -1.32924
LJ          -3.47344       -0.542758          4.6671
LJ          -4.73376         1.64337       -0.557591
LJ          -1.75165         3.01848         6.28234
LJ           5.62869        -4.88044        -4.48331
LJ          -5.89821         4.75489        0.656933
LJ           3.21282         6.31965        -6.16373
LJ           2.33969         3.50214        -1.13831
LJ          -4.00536        -1.33161         -3.6736
LJ          -1.77462         3.17274      -0.0276145
LJ           2.23352       -0.789271         3.73117
LJ          -2.67269         -5.1662        -5.45171
LJ          -5.84007        -3.43191         2.94483
LJ          -1.43477         5.73118        0.502094
LJ         -0.519313           -6.16         5.28145
LJ           -1.2978         3.48471        -3.14265
LJ          -5.26013         -5.7601         2.33916
LJ           2.82869         -3.6394          1.5041
LJ           -6.0648         3.58882        -2.69732
LJ          -6.07043         1.13362         6.45452
LJ           4.65369        -2.36807         -1.0293
LJ          -4.36617         6.08598       -0.193077
LJ          -6.36503        -3.12435         5.42318
LJ           -1.7884         1.86841        -2.92163
LJ          -3.69956       -0.530302          6.1826
LJ           2.94614        -2.47686        0.618247
LJ          -5.52891         4.08632         1.47117
LJ          -1.63526         2.00441         3.73909
LJ          -6.01931       -0.640266         -6.0961
LJ           6.12323        -1.41214        0.181552
LJ          -3.59301        -5.95087        -5.34662
LJ           3.89895        -1.42866        -3.31778
LJ         -0.599712        -5.45467         3.26278
LJ          -4.26284        -1.53557         3.09193
LJ           4.75642         4.47077        -1.07092
LJ          0.647367        -4.87695         3.13511
LJ           1.90458        -3.23929        -5.21931
LJ          0.567466        -1.45396         1.00399
LJ           3.98952        -3.21789         1.49451
LJ          -6.25487        -5.14767         1.54697
LJ          -1.62036        -2.68084        -1.38521
LJ          -5.24779        -1.55235         6.05426
LJ           4.56647       -0.381199        0.396774
LJ          0.427898         2.14765          3.1469
LJ            2.0712         4.05239         3.03179
LJ         -0.844289        -4.74827         1.52441
LJ          -2.14102         3.01858        -2.01827
LJ           2.76023       -0.901289       -0.639016
LJ          -4.25224         -5.9178          5.5153
LJ         -0.963687         4.15694        -6.28289
LJ          -4.33838        -3.86798         6.20872
LJ          0.248019        -5.63535        -5.36686
LJ           3.50682       -0.222775          3.5463
LJ          -2.77034        -2.50652        -3.42134
LJ         -0.313596        -3.28543         2.53903
LJ           1.27409        -6.26098        -4.20932
LJ           4.01468          -5.181        -2.86588
LJ           6.38251          3.1148        -3.27083
LJ          -1.82419        0.416071        -5.30424
LJ           5.55191       0.0477343        -1.88492
LJ           2.75553         4.22472         5.23593
LJ          -5.87993         5.80752        -2.77868
LJ          -5.24945         2.14348        -3.72312
LJ          -1.08951         -1.5891        -2.81845
LJ          -2.77914        0.906094        -2.74074
LJ            2.5207         4.83577         2.75003
LJ          -3.67042        -5.79032        0.539464
LJ          -2.12438       -0.974412         4.12809
LJ          -5.22212       -0.638035          2.2833
LJ           1.32417         3.43374        -2.59619
LJ           1.24004         4.44751         5.48778
LJ           3.02201       -0.824357        0.590179
LJ           3.22589        0.606447         4.46512
LJ           3.37319        -3.58822        -4.27323
LJ          -4.33968        -4.57373         4.93258
LJ          -5.24865         4.05425        -5.78608
LJ           3.87221         2.93639         -4.3699
LJ           5.74048         1.40507        -3.83863
LJ          0.309533         1.25472         3.71184
LJ          -4.33604         1.45291          1.9367
LJ          -1.74038        -6.31426        -3.83882
LJ         -0.713742          2.2046         3.47151
LJ          0.119905         4.90504        -2.95273
LJ           1.57053         -3.2688         1.81227
LJ         -0.961334         1.51577         2.71097
LJ           3.75635        -1.30946         3.24434
LJ           6.19673         0.70646         1.35044
LJ           1.75162        -3.11605        -4.14477
LJ           5.08458       -0.901637         4.37312
LJ         -0.494184       -0.595731        -5.26284
LJ          -1.60003         3.26233         2.40327
LJ          -1.58084         3.20995        -5.50528
LJ           1.21101        0.418969        -4.10363
LJ           1.25779         -3.0697        -2.88977
LJ          0.783751        -4.19637        -2.09624
LJ         -0.516878        -4.53778        -1.73245
LJ          -1.88439         1.95644         5.97913
LJ          -4.43481        -4.92755         6.00316
LJ           3.27507         4.12193          2.1291
LJ         -0.241338         1.35343         5.35632
