108
#Comment!
LJ          -4.80788        0.620741        0.828925
LJ           5.08045       -0.493667         3.72013
LJ          -4.40153        -2.92234         5.53367
LJ          0.411752         2.55195          5.3826
LJ          -4.23905         3.78294          2.6175
LJ         -0.080382         6.39922        -3.39189
LJ           5.32006         5.31355         3.84568
LJ          -5.48077         3.14354         6.06013
LJ            3.6301       -0.341949         4.00514
LJ           5.49326         -1.9873         6.08012
LJ         -0.856025         5.60701        -4.85332
LJ          -3.43022      -0.0918723        -4.12139
LJ          -2.17584         3.72555         3.11287
LJ           2.86662         5.57019        -3.91848
LJ           1.12771         6.22324         0.12823
LJ           -2.3736         4.78497         2.45019
LJ           2.98254        -2.58838         1.84175
LJ           1.37925         -2.3894        0.990467
LJ          -6.11916        -4.07303         3.51768
LJ          -4.24226         4.21627        0.229324
LJ           1.68239        -3.99912        -5.25395
LJ           5.24146        -0.90514         5.03457
LJ           4.59662         2.15198         3.98547
LJ          -4.95528         4.84968         5.16745
LJ          -6.29013        -2.99181         4.51765
LJ           4.05431         5.73676        -6.32772
LJ           5.32271       -0.967986        -4.49644
LJ           2.75187       -0.722222         1.72017
LJ          -5.00329         2.85697        -3.60868
LJ          -1.21984         6.34842        0.689394
LJ           1.21783         1.26293        -2.93727
LJ         -0.968979       -0.436607         1.75235
LJ           1.35796         4.10742         1.26579
LJ          -1.14698         1.68113         3.03404
LJ           -4.0655        -2.96036        -1.32677
LJ          0.909156         4.09809        -4.90607
LJ          -4.18557         2.32448         2.92793
LJ           2.24964         2.00201      0.00913353
LJ           3.93401         5.97022        -1.19194
LJ          -4.24706        -1.38342        -1.25595
LJ           5.19992      -0.0529766        -2.37744
LJ           3.12986        -6.07909         1.54566
LJ          -2.61844        0.343628         3.19371
LJ          -6.23671        -1.46192         3.70545
LJ           1.00363         3.81136         4.65047
LJ           1.86055         3.05971        -2.45521
LJ          -1.76251        -3.97106        0.445282
LJ            1.3114        -1.52764         1.92559
LJ           -1.4421         5.96981        -2.54396
LJ          -0.83178        0.680567         2.15191
LJ          0.938435        -4.42314        -5.91195
LJ          -2.67513        0.294409         5.72185
LJ           4.95798       -0.265869       0.0954837
LJ           3.92715        -3.01304        -2.46331
LJ           5.03789         4.91932        -5.45053
LJ          -4.50222         3.53279        -6.34916
LJ           4.32912          5.9201        -2.26377
LJ        0.00372884       -0.375201        -1.07981
LJ           3.60707        -3.65653         1.66448
LJ         -0.811739        -5.82661        -4.75795
LJ           2.58686        0.115263         2.52703
LJ          -2.63409         5.13073         4.69679
LJ           3.95341        -2.55028        -1.07715
LJ          -6.34593         4.63661        -2.52025
LJ           6.08015        -2.22383        -5.82648
LJ           5.86992       -0.245947         3.04297
LJ          0.763587        -0.27416         3.64698
LJ          -4.30839        -4.52018        -1.21437
LJ           2.61909         5.91149         5.49638
LJ           1.58344        -2.07668         4.61798
LJ          -3.82631         2.90165       -0.756003
LJ          -6.42123         3.59333        -4.71316
LJ          0.504125        -4.40774        -2.13091
LJ         -0.186455        -1.14273        -4.19818
LJ          -5.19375        -5.24389        -1.89325
LJ          -2.22058         3.27215       -0.857292
LJ           4.86306          -5.298         5.31381
LJ         -0.712333          5.2336        -3.84055
LJ          0.432409        -0.54085        -2.33368
LJ          -3.93971         4.73957         3.82067
LJ          0.175127        -3.50162         4.96474
LJ          -6.42193        0.820196         5.50272
LJ          0.807458        -3.66944        -2.70012
LJ           4.77756        0.440978         4.28578
LJ           5.84731         2.14701         4.48919
LJ           -4.6984        -1.76213        -4.86256
LJ           4.99968         5.51414        0.929618
LJ           2.39191        -4.07396         1.60073
LJ           1.86212          4.1071         2.31287
LJ           3.79444         3.79849         4.52137
LJ          -4.08352        -1.26924        -2.97045
LJ          -5.04057         5.93366        -2.67399
LJ          -4.93724          3.6736        -2.89355
LJ         -0.544818        -2.37307        -4.70124
LJ           5.77137         6.32563        0.764988
LJ           2.21861        -4.82038        -5.94518
LJ           2.52866         6.24434       0.0922957
LJ           -3.1176         2.38437         2.01895
LJ            3.5744         4.49014        -1.94165
LJ           6.42883      -0.0559019         6.36475
LJ           4.28784         6.01297        -4.94163
LJ           5.31721         3.36163        0.138314
LJ           3.80845         2.28527         5.42996
LJ          0.933497        -1.66297        -1.87781
LJ         -0.477874         3.19246         0.47062
LJ           6.39798        -5.51815        0.384897
LJ            3.5347         5.65906        0.844731
LJ           -0.5691        -5.23469         5.06487
