108
#Comment!
LJ           2.64543        -5.25231         5.72279
LJ            -5.559        0.853746        -4.78936
LJ          -1.98117         1.47191         -6.4354
LJ           1.91748        -5.64828          1.8449
LJ          0.461058        0.200316         0.94551
LJ           2.44596        -4.81552         3.97689
LJ          -1.59248        -3.28754          4.2818
LJ          -3.89089         -4.6846        0.256042
LJ           3.89788        -3.45071         6.26017
LJ         -0.314389        -6.44071        0.889671
LJ          -4.48329         5.46017        -3.61638
LJ          -2.60926        -1.50992         3.17207
LJ          -4.93367         6.05939         6.04965
LJ          -4.22734          1.7479         5.10575
LJ           1.73966        -5.36887        -2.57253
LJ          -1.20948         -1.0203        -5.64465
LJ          -2.75976        -1.83557        -5.44291
LJ           5.52985         6.42338        -5.88275
LJ          -6.30742        -6.17781        -5.88587
LJ          -2.33851        -4.23454         3.46798
LJ          -3.47318       -0.397093        -3.00365
LJ          -3.11152        -1.60083       -0.678602
LJ          -1.80761         2.64672        0.758285
LJ          -1.36285        -2.04855         6.12953
LJ          -5.87897        -1.34515         5.80982
LJ          -2.94834        -5.36475         2.12165
LJ          0.953824        -2.33473        -5.49075
LJ           -1.4478         2.41174        -3.65839
LJ          -2.61835        0.671492         1.74417
LJ           1.13233        -2.48211         3.87184
LJ            4.4057        -3.53086         4.11857
LJ          -2.61906          2.4548          3.3051
LJ           2.26487        -2.80745        -3.74998
LJ           5.71269         3.22224        0.433466
LJ           3.51377        -4.73497        -3.09761
LJ          0.689162          1.8411       -0.754834
LJ          -1.79097         3.38847         4.50834
LJ          -4.18945         1.85185         6.04802
LJ           6.17704         4.86975         1.39489
LJ          0.498807         4.47412        -1.12983
LJ           5.38526        -4.30473        -3.00947
LJ          -1.17602         5.76487        0.827595
LJ          -1.26832         4.95024          4.9453
LJ          -5.80609        -4.90433          1.9615
LJ           0.17811       -0.416894         2.86471
LJ          -4.27938         3.57999         1.15088
LJ          -2.41505        -3.05708       -0.662186
LJ           4.37414       -0.473793         2.61001
LJ         -0.982698        -2.59495        -3.21758
LJ          -5.31163         0.95856         2.17188
LJ          -3.95131        -1.44996         2.02254
LJ           -5.4429         2.03619        0.898271
LJ           6.23205        -3.82842         1.45048
LJ          -2.12244        -5.76903       -0.537967
LJ           -3.3829         4.82852         4.05085
LJ           4.62341        -3.67449         5.16587
LJ         -0.364281        -2.64122         1.01783
LJ            4.3668         4.35415        -3.25208
LJ           1.00775      -0.0540262         3.68138
LJ         -0.381368         1.69472         6.34712
LJ          -6.32324        -4.74503        -1.08016
LJ          -5.74541        -3.52761        0.597026
LJ          -1.57954        -1.36445       -0.938663
LJ          -5.93109        -2.56852          5.7525
LJ          0.219004        -3.00675        -6.05289
LJ          0.170678         2.88541         5.76204
LJ           -2.4744         5.58283         1.80679
LJ           2.61619        -6.26056         4.72135
LJ             6.029            3.53        -2.81374
LJ           2.62574          3.1597        -5.37296
LJ          -4.68764        0.862981        -3.74655
LJ           6.17855        -5.03767        -1.86445
LJ           1.66114         3.53556         -2.4036
LJ          -1.40276         6.26351           3.489
LJ          -4.39573         5.37047         1.60531
LJ         -0.311469    -0.000848219         5.71116
LJ           2.35576         0.68891         4.78013
LJ           2.48268         2.14983        0.246797
LJ          -5.11064        -0.30013         4.23769
LJ           -1.6034        -4.37182        -4.15841
LJ           4.93924        -5.57066        -1.64538
LJ          -3.03345       -0.579853         1.68841
LJ           -6.0712       -0.400162        -2.33044
LJ            5.4495        0.652106        -5.50999
LJ           5.92132        -4.80189         2.61814
LJ          -3.33014         2.85087        -3.14286
LJ           6.02331         5.73147         2.11085
LJ          -5.67236        -1.43033        -4.79226
LJ          -2.84373        -1.37516        0.646042
LJ           3.47749        -6.29867         2.25509
LJ          0.426712         3.34018        -3.51029
LJ          -3.61416        -2.11065         6.02195
LJ           5.80622        -5.51195         5.83734
LJ           -5.0311        -1.17973        -1.65617
LJ         -0.821406         3.37547         1.55844
LJ         -0.928592       -0.141349        -3.70042
LJ           2.64703        0.430653        -1.63165
LJ          0.319255         4.97714          3.8919
LJ           1.56468        -5.58251         6.31729
LJ           6.38954         3.90775        -4.90202
LJ         -0.979209       -0.938477         1.82725
LJ           2.81975          -1.659        -2.25827
LJ           5.02983        -2.88044         5.95535
LJ          -2.31168       -0.890161        -2.64899
LJ           5.67338        -4.88793        -5.47307
LJ           6.00913        -4.27965         4.45866
LJ           4.71971         3.36482        -3.38326
LJ          -3.01961         2.66161          4.8827
