108
#Comment!
LJ           -3.8116         6.08012         4.98795
LJ          0.255571        -3.52766         6.16159
LJ          -4.54706          2.4399        -1.33895
LJ            5.1034        0.231283        0.690001
LJ          0.114646        -5.19284         5.57048
LJ           6.37323        -3.30197        -3.81699
LJ          -1.70465        -5.91144         4.61841
LJ          0.923102         5.94049         4.65578
LJ          -6.25341         1.61888        -5.55836
LJ           6.07258       -0.344919         2.51945
LJ          -5.76011          1.4382        0.164641
LJ          -2.02194         2.62333        -2.52824
LJ          -4.47618        -4.47366         -6.0134
LJ           -5.8188         -6.4108         2.93577
LJ         -0.918099         4.35051         5.48033
LJ           2.40197         3.97255        -1.19077
LJ          -6.38322        -3.31376         0.15562
LJ          0.803369         2.74638         1.08202
LJ           2.30675         -1.4601         3.64206
LJ          -2.67249        -3.63192        -6.40827
LJ           3.89541        -2.70724        0.877474
LJ          -3.50759           4.313        -4.61744
LJ         -0.136652        -4.27437         5.09106
LJ          -3.15077         3.24831        -6.32399
LJ          -5.11529        -4.14413         3.08326
LJ           2.66833        -1.99375         1.38407
LJ          -4.93989         6.02417        0.832451
LJ          -3.64025         -2.5831        -5.56611
LJ           6.41047        -1.08356        -2.50622
LJ          -2.72314         -4.3537       -0.911213
LJ           3.19385        -6.37054         2.13056
LJ          -3.43059         3.30399         -2.0849
LJ           4.35902        -2.06456        -5.39017
LJ           2.96957        -1.23836        -2.91258
LJ           5.94669        -6.10439         1.43939
LJ          -2.76794         2.63605        0.486111
LJ           -5.1029        -2.62151        -1.88085
LJ          -5.18525        -3.66395        0.362865
LJ           -4.3787         5.50119         6.32389
LJ           2.41547        -2.88549        -2.77298
LJ        -0.0522512        -6.11559         3.41795
LJ          -1.37679         1.62262         2.57252
LJ           5.87712        -5.52351         2.64181
LJ           3.26685      -0.0762253         2.76439
LJ           3.83748        0.835825        -3.50572
LJ        -0.0150281        -1.16749        -1.32866
LJ            4.7158        -3.61569       -0.276469
LJ          -3.51699         -3.0924         1.81564
LJ           -1.0436       0.0945711        -2.49892
LJ          -4.52524        -4.57414         4.14762
LJ           3.42736         2.79352       -0.977677
LJ           1.23701         5.98165         1.57731
LJ          0.401717         1.78914         5.65525
LJ         -0.706541         -6.0532         2.64561
LJ           -5.0176       -0.649577       -0.551397
LJ           1.23315         1.87368        0.192217
LJ          -2.34566         4.85656         -6.3895
LJ           -2.1909          1.0519        -5.36196
LJ           6.14603        -2.50387        -5.40067
LJ           2.59002        -6.17915        -3.80289
LJ           2.02439       0.0471016         2.13394
LJ          -1.51544        -5.75341        -2.79745
LJ           2.28612         -5.4043         5.36177
LJ           1.86613         5.86503         3.37141
LJ           3.97236          -3.569         -1.1267
LJ          -4.29325         2.10401         3.34139
LJ          -2.52752         1.73362        -4.15733
LJ          0.176043         3.02083        -2.33242
LJ           4.00489         1.99772         2.35945
LJ           5.97751         5.49287        -2.61241
LJ           5.28115         2.82971        -2.49123
LJ          -4.72826        -3.33648        -4.65033
LJ          -1.60781         1.71789        -1.98353
LJ           4.96176         5.11036         4.67233
LJ           6.15691         6.11451       0.0566187
LJ           -1.6425        -2.53217         6.04219
LJ          -4.90958        -4.18529         1.31125
LJ           1.05386         6.36912       -0.951185
LJ         0.0619142        -5.44609        -6.11692
LJ           2.83905        0.731781         1.77177
LJ          0.206515       -0.821335         1.92053
LJ           4.50295        -4.40151        -5.54345
LJ          -5.41706        -1.68832        -4.93232
LJ          -3.85911         2.45312         -5.9973
LJ          -5.67148        0.354903        -4.47342
LJ           5.74024        -2.76465        -3.04722
LJ           3.18758         -1.9022       -0.663851
LJ           4.59094         3.40593      -0.0810047
LJ         -0.219793         5.75942        -3.37068
LJ         -0.703803          3.3058         4.77181
LJ           2.85777         5.09178         -3.7218
LJ           1.02831        -1.21184         3.15356
LJ           1.78395         4.19127       0.0915242
LJ           5.41716        0.722321         1.78886
LJ          -5.53645        0.156696         2.29227
LJ          0.477604       -0.753863        -2.06337
LJ           4.18147        0.601515         4.46448
LJ          -1.02119         1.10105        -2.58706
LJ          -1.70695        -0.78263         1.72343
LJ         -0.926616         3.52025         -2.8108
LJ         -0.368285         1.28507        -5.11251
LJ            0.8859         -2.0452        -6.05925
LJ           5.18565        -4.78221        -2.62958
LJ           2.52074        -6.21071          -2.462
LJ          -1.18123        0.236592        -4.77407
LJ          -1.06391         5.93492        -5.38217
LJ         -0.265261         5.86114       -0.445011
LJ         -0.845625         3.38898         5.77772
