108
#Comment!
LJ           5.71268        -2.94021         4.51588
LJ          -5.41673        -3.91137          1.0494
LJ          -1.56621        -1.57089        -4.08686
LJ         -0.459364        -4.89693        -1.94188
LJ          -0.79914        -3.08484         2.18664
LJ           1.67952        -4.36687        0.216802
LJ          -2.38463         5.80464         2.32487
LJ          -6.03651         -6.1968       -0.904924
LJ           2.37016        -2.91867         4.58983
LJ           5.71294         3.29052        -1.84021
LJ          -1.77062         6.28782        -4.80757
LJ          -5.06619        -3.85402         6.32095
LJ          -4.56155        -5.07464         2.44338
LJ          -1.34202         3.82652        0.586778
LJ          0.440331         5.91498        -2.10608
LJ          -1.60571        0.975894         5.10934
LJ           -2.2953         -2.7572        -5.42854
LJ           4.64008         4.33783        -2.13906
LJ           6.43755         -5.3258         5.23134
LJ          -4.28555         6.03678        0.544682
LJ          -2.02205        -2.91212        -2.89271
LJ          -4.22431         4.03614        -4.02372
LJ          -3.98273         2.29433       -0.177712
LJ           3.32263        -3.84548        -2.05359
LJ          -5.46052          2.7083         4.30451
LJ            -4.046        -6.11465       -0.241382
LJ           3.11944          -1.326          -4.559
LJ          -5.64718         1.60782       -0.640315
LJ           -3.1137         1.81087        0.186052
LJ          0.667793        -4.32288         3.65817
LJ           2.53552        -2.41301        -6.39629
LJ           -1.6347         1.43026         2.47991
LJ            1.8654        -5.34386        -2.38921
LJ           3.84422        -6.14973         2.49582
LJ           5.87141        -3.05949        -3.20844
LJ           1.28637        0.190766        -3.99196
LJ           -3.0033         2.87231         4.21474
LJ           5.76633         6.36766        -3.64927
LJ            5.3383         4.91585        0.663484
LJ         -0.529257        0.490604        -1.04212
LJ           4.73909         -2.7886        -1.10626
LJ         -0.456502         5.09478        -2.09485
LJ           5.52027         3.81795          4.2089
LJ           5.76016        -4.95848         2.77279
LJ           1.69169         1.70605         3.99396
LJ          -1.66535          4.6458         4.24269
LJ          -4.63076        -3.91967       -0.991793
LJ           2.75339       -0.233623         1.73126
LJ         -0.594206         1.90341        -2.86219
LJ          -4.07724          1.5103         1.58131
LJ          -2.99178        -3.84278          6.1531
LJ          -4.31019       -0.153998        -2.46438
LJ           3.34799        0.205102        -2.28298
LJ          -0.94001        -2.11347        -3.55986
LJ          0.207658         4.99979         3.60386
LJ          -6.37948       -0.543676        -6.38515
LJ          -4.23711         -5.0439        -1.43059
LJ            3.8844         3.64029        -1.89716
LJ           2.40357        -1.60717          3.5342
LJ         -0.300892          -2.507        -5.21014
LJ          -3.88431        -4.52632         1.87951
LJ          -2.55014          -3.361        -4.70285
LJ           1.10067        -2.97824       -0.529644
LJ          -5.11413        0.348122         -5.3148
LJ           1.82216       -0.927034        -5.73103
LJ          -1.05454         4.23992        -3.85657
LJ           2.68097        -2.88115        -4.18077
LJ           4.55473         2.25676        -5.49256
LJ           -4.3796        -6.13648        -3.64793
LJ           2.41005         4.99785        0.587745
LJ          -4.03312         1.65513        -1.13511
LJ           6.36583       -0.967663        -5.19149
LJ           1.38172         4.61202        -2.56622
LJ          -0.50336         3.89612         5.69228
LJ           6.25193         3.81323       -0.335987
LJ          -1.57265        -4.56099         3.31565
LJ           3.29074        -1.33798         4.79639
LJ           1.33607        -1.14565        -1.88297
LJ          -2.92109       -0.560528        -5.16912
LJ          -2.57881         -5.1348        -6.32511
LJ           4.23832        -5.04368         -5.0142
LJ          -3.80055       -0.517451         2.81676
LJ           6.25858         -4.6059        -2.81572
LJ           4.89025         1.14071         5.39921
LJ          -6.08112         -4.6487         2.35693
LJ          -3.25129         5.92396        -3.17207
LJ            5.5668         4.57048       -0.616284
LJ           -3.0354         2.53809        -2.84786
LJ            6.0247        0.709162         2.65241
LJ           1.49504         3.23002        -6.32578
LJ          0.860778         2.50199        -5.22147
LJ          -4.66133          1.2424         3.06449
LJ          -6.41687        -4.75595        -4.87015
LJ           -3.0264        -2.12762        -5.10982
LJ        -0.0966944         5.75237         1.84106
LJ           2.35113        -1.77869         -2.9044
LJ          0.566591       -0.956703        -1.16253
LJ          -2.43505         3.52617         4.73623
LJ           3.31514         5.05199        -3.15004
LJ          -5.07097        -6.40274        0.162438
LJ          -1.39387         2.79457         4.82147
LJ           3.72358        -1.94736        -5.55195
LJ           5.75653        -5.43129        -1.65675
LJ          -1.07018       -0.761267        -2.51357
LJ           -3.1743         5.28843         5.70826
LJ          -4.44144         -3.3986        -5.28563
LJ           4.40295         5.73968        -1.82538
LJ          -6.10674         5.51243          5.5034
