108
#Comment!
LJ          -2.96129        -2.10602         1.48406
LJ          -2.31291         2.98043        -4.69445
LJ           5.62158        -4.89749         4.90222
LJ           6.35691        -1.23987        0.445957
LJ          -6.42988        -5.94407       -0.775367
LJ          -5.91176        -4.39611        -1.11168
LJ           1.37764        -1.08839        0.278726
LJ          -5.34283        -3.20655        -2.16175
LJ          -0.66127         4.33854         4.32753
LJ           2.39086         3.10524         2.04607
LJ          -3.46441       -0.955131       -0.738432
LJ          -5.17695        -2.09466         5.37959
LJ          -1.48917         3.14629         1.43401
LJ          -5.42203         2.55826        -4.48053
LJ          -1.59631        -2.87526        -6.41599
LJ          -2.03384        -4.66858         -5.6493
LJ          -2.81179        -0.94569         2.05245
LJ          -2.86308          3.7761         0.72977
LJ          -2.04321        0.936258         6.17516
LJ           5.24265         -1.5052         1.16011
LJ           4.73908        -2.61542         1.15177
LJ          -2.28047        -4.41404        -4.18255
LJ          -1.13135         1.98772         2.08953
LJ          -5.60288         -3.6623         6.14019
LJ           5.77618         2.74599         2.78455
LJ           1.24834         5.62388         1.96273
LJ           -1.9493         1.88419        -6.36799
LJ           -5.7132         4.70111         2.94051
LJ          -4.07704        0.686107         1.48154
LJ           5.03209         3.99697        -1.88436
LJ          -3.99286        -2.37749         4.90793
LJ           -4.5145         2.13798         4.51006
LJ           4.31476        -4.47205         1.18348
LJ          -4.44485        0.847935         3.43108
LJ          -1.90064         5.86032        -1.08728
LJ          -4.96737         5.52257       -0.179823
LJ          -1.33546        -2.72265        0.141459
LJ          -2.50953         3.10675          2.9057
LJ          -3.71853         4.53532        0.793605
LJ           2.65701          4.1735         4.48449
LJ           2.01017         5.48938        -5.08403
LJ          0.674654        0.259751         2.28914
LJ           5.09796        -5.40873        -5.54423
LJ          -6.34419        -2.61355        -3.33445
LJ          -2.54743         4.60634        -1.69608
LJ          0.892293        -5.25552        -5.59908
LJ           2.75961        -1.90836      -0.0955751
LJ           2.65932         6.17565         -4.6107
LJ           3.23786         3.49317       -0.738026
LJ          -2.03915      -0.0840903        -1.08927
LJ           5.99704       -0.630774        -3.43407
LJ           3.40566         2.11832        -3.63314
LJ          -5.98564         -2.2574        -4.81249
LJ          0.746752        0.577273         6.12419
LJ           1.19786         6.13201        -5.10617
LJ           4.09196         2.25379        0.982087
LJ           2.72827       -0.928289          0.8572
LJ           3.34198        -2.27135        -4.71709
LJ           2.82984         5.47527         5.22664
LJ           3.52776        -2.87434       0.0629203
LJ           2.22722         1.88159        -5.25034
LJ         -0.162261         1.94578        0.574665
LJ           1.22915         3.49022         1.77225
LJ           5.93813         4.37161         2.06094
LJ           2.66921        -3.12492        -4.90833
LJ           4.43527         5.79976          2.5677
LJ           3.85642        -4.13487        -4.84113
LJ           1.18815        -5.53668        0.190429
LJ           3.89387         4.22546        -4.25304
LJ           5.84833         6.41124        0.805555
LJ         0.0727748        -1.65703         3.42921
LJ           5.10158        -2.33822        -2.24141
LJ          -4.73165        -3.26738         4.19104
LJ          -3.01676          5.3878        -1.89395
LJ          -3.16416        -2.39627        0.472905
LJ         -0.228762        -5.53156        -6.03231
LJ          -1.32321         4.60394         1.09788
LJ          -3.32158         1.34399        -2.39509
LJ         -0.406996        -5.75916         4.94733
LJ          -4.57409         5.09303         2.38437
LJ          -3.36004         2.17167        0.526032
LJ           1.44079         4.56823         5.28978
LJ          -5.88773          5.3521         3.81839
LJ          -4.56187          1.9545        -4.71797
LJ          -5.71251        -3.11907          3.7458
LJ           5.69372        -4.89348        -4.22746
LJ          -1.30507         5.59285         2.17305
LJ          -3.83845         3.25988        0.390238
LJ           5.89414           5.227         1.03251
LJ           5.39635         4.95471         2.94819
LJ           6.02839        -2.68421         2.49333
LJ           1.30105         4.02914         3.75045
LJ         -0.799567        -3.51116         5.81074
LJ             -6.08         1.15916        -2.70082
LJ          -2.96851         1.98551        -1.16459
LJ           5.77962        -5.09985       -0.129159
LJ          -3.75185        -3.21643          2.8238
LJ           5.25136         5.88384        -4.26261
LJ           1.90487       -0.318048         5.76767
LJ           5.56655      0.00556394        -1.87711
LJ           5.73258         5.14826        -1.36968
LJ          -1.77365         1.04515         3.07588
LJ          -5.97104       -0.566449        -6.10352
LJ          -2.79681          -3.345          5.8296
LJ          -5.99347         1.89069        -3.85586
LJ          -4.56022         -4.6581         5.99743
LJ           1.21105        -2.94107          3.7355
LJ           5.32209        -3.79028        -6.19426
