108
#Comment!
LJ          -2.62047         2.02956        -3.04378
LJ          0.060844         1.41418       -0.998786
LJ          -6.30004        -5.16927         3.51004
LJ           4.13658         2.18728        0.381242
LJ          -4.05743         4.01132        -0.18526
LJ          -2.84041        -6.25394       -0.589169
LJ           3.10331        -4.07608        -1.56866
LJ          -6.07239            1.12          2.2824
LJ          0.653421        -4.97548         4.71067
LJ           1.12936        -5.55691        -3.81467
LJ          -3.48377         0.97042        -2.12799
LJ           3.72923         2.91092         1.78407
LJ          -2.04267          4.2521        0.538462
LJ          -1.95724        -1.67055        -4.03043
LJ         -0.883336        -1.33143        -6.34082
LJ          -2.54846       -0.682374         6.10738
LJ          -3.61535        0.696204        -5.43632
LJ          -2.24732         3.68487        -0.46646
LJ          -4.56985        -1.19247         3.49891
LJ          -5.17374        0.033503         1.97256
LJ           4.48161        -4.19089         3.97135
LJ          -0.34935        -4.06395         -2.9887
LJ          -1.66664          6.1468        -0.14034
LJ           6.06755        -2.14697        -4.04026
LJ          -5.02013          2.4965        0.660321
LJ           -0.6024        -1.89009         3.43901
LJ          -3.24834       -0.175668        -5.86204
LJ          -3.17183        -4.49411         4.66071
LJ          -6.39819         2.94294         1.67078
LJ          -1.28752         1.37119        -3.19295
LJ        0.00769337        -1.12583        -4.81254
LJ          -4.93315      -0.0179081         3.18849
LJ          -3.01957      -0.0175847       -0.963438
LJ          -5.00344         1.25949        -4.96137
LJ          -1.68893        -4.51435        -6.08341
LJ          -1.99051       0.0502675         4.51097
LJ          0.914742        -1.00604       -0.820311
LJ          -1.17139         1.57336         5.57622
LJ           -1.3032         3.08476        0.282154
LJ           2.45409        -5.40538        -4.75183
LJ           4.06066         3.98831         3.41587
LJ          -3.46995        -2.27174         2.79143
LJ           3.82286         -1.8887        -2.65282
LJ           4.65572         2.99665        0.166961
LJ          -2.78924         4.74749        -4.21239
LJ          -2.85634         5.62433       -0.983251
LJ           2.71326        -1.37931        -5.21261
LJ           2.65183         2.59549         5.60645
LJ          -5.98252         3.48961        -2.74908
LJ         -0.592654         4.26271        -5.85604
LJ           4.68893         -2.8445         -5.8802
LJ           1.87253        -5.06626       -0.089008
LJ          -4.00795        -1.57234         -1.6653
LJ           1.68152        -0.89767        -1.56972
LJ           -2.6483        -5.46384         1.89312
LJ          -3.41018         4.26105        -5.33207
LJ         -0.577655        -1.95648        -3.08226
LJ          0.421287        -4.47795         2.29773
LJ         -0.190225         1.53804          3.0024
LJ           1.00494        -3.31645        -1.97127
LJ           5.98642         3.13163         4.89617
LJ          -0.86714         0.81307        -5.85827
LJ           2.68251       0.0416519         5.35959
LJ           6.05643         4.15801         1.37572
LJ         -0.488886        -2.91533       0.0284686
LJ          -3.87256        -3.49886         1.51669
LJ           5.91476         3.14134        -3.53553
LJ          0.494375        -2.55118         4.66494
LJ         -0.164758         5.66315       -0.864415
LJ           2.50732        -6.01354         4.91737
LJ          0.372295        -5.58415        -4.55471
LJ           6.08235        0.511842         2.63631
LJ          -2.25095        -3.93503          2.6461
LJ          -2.84932        -2.20359        -6.46208
LJ          -3.49436         1.19808        -3.17407
LJ         -0.492171        -2.65531        -4.92266
LJ           5.53204        -2.10369         4.52491
LJ          -1.80734         1.33201         3.45763
LJ           1.31092        -2.83399         5.00153
LJ          0.757506         4.12755         2.07626
LJ          -3.44156         0.28165        0.507915
LJ          -3.26749         1.72296        -4.91081
LJ          -4.83753         -5.0453         5.95468
LJ          0.864066         1.28542        -1.70134
LJ          -5.91568        -5.26767         6.25896
LJ           -5.6185         3.97231        -5.83371
LJ           -5.2237         -6.3964         4.16551
LJ          -3.71177         2.25722        -3.56057
LJ            5.2102        -6.36906         2.77117
LJ          -3.40617         5.06888        0.685777
LJ          -4.99458       -0.857045         5.01896
LJ           6.09036        0.392964         3.81756
LJ          -2.77634         4.09136         1.51915
LJ           5.66688        -2.92569        -5.29095
LJ           5.25826         3.52211         3.07823
LJ           5.68532        -4.21614        -5.29567
LJ           4.39107       -0.958061        -3.25572
LJ         -0.119346          4.2274       -0.801351
LJ           2.60728        -5.40939         2.45695
LJ            4.5349        -5.20671        -5.87293
LJ          -1.35576         6.36366        -4.73638
LJ          -6.42209        -2.61352         4.80132
LJ          -1.30426         4.08298         5.52911
LJ          -3.78755       -0.467763        -1.73732
LJ          -1.86972         1.68609        -4.14432
LJ          -6.29101        -4.39681          4.7523
LJ          -1.48019         4.82774         1.59999
LJ           0.95255          6.0231         4.12278
