108
#Comment!
LJ           -4.2925        -1.98958         6.09619
LJ          -2.45374         4.77629         6.42548
LJ          -5.55542        -6.05614         5.68992
LJ           0.89589        -5.86506        -3.18147
LJ           1.36436          3.1762         5.11891
LJ           -5.4851        -3.96998         3.77509
LJ           6.29416        -4.80749        -2.19615
LJ           1.40998        -2.88448         -2.8625
LJ          -3.08816         4.57144         5.65885
LJ          -1.50692        -4.06582         -1.7584
LJ           2.37148        0.328576         4.21119
LJ          0.740966         4.89867        -5.07562
LJ           2.69238        -4.87117         6.34584
LJ          -1.30445         2.36551         6.36131
LJ          -4.81054         5.74398       -0.514822
LJ          -5.90258        -4.89188        -1.34527
LJ          -1.71394        0.578648        -3.82015
LJ           2.60408        -5.66715         3.91866
LJ           -0.7951         3.35526        -4.98684
LJ           3.23512        -1.84436        -3.14431
LJ           4.10736        -2.53747        -4.62135
LJ          0.826698         4.88688        -3.21998
LJ           4.70081        -5.72205       -0.504968
LJ          -2.85531         -2.3366        -1.63484
LJ           5.59628          3.4047        -4.11109
LJ           3.61935         5.63193         5.10942
LJ          -6.37585       -0.358267        -5.57586
LJ           -6.0786         4.17831        -5.53193
LJ          -2.44198       -0.215431        -2.59049
LJ            6.2983         4.05929         4.15126
LJ          -4.37235         4.99319        -6.09908
LJ           -5.1724          1.6859        -4.91334
LJ           1.89041         2.77683        0.177229
LJ         -0.790263        0.642013        -5.24186
LJ           1.20354         3.15455        -5.72252
LJ          0.793405         6.15841        -1.51986
LJ            -4.063         2.54102        0.343184
LJ           -4.1989         5.05623        -2.02319
LJ          -4.01851         1.42508       -0.617938
LJ            -5.713         -2.4803         1.11663
LJ          0.948223        -4.74714         1.42111
LJ          0.833686        -1.24799        -5.83682
LJ           -5.1094         3.62879        -2.60205
LJ          -1.39452        -6.36614        0.362219
LJ           -4.0695        -3.56765        -2.71557
LJ         -0.164116        -1.01424        0.421142
LJ           2.66748        -3.26102        -4.29831
LJ            1.8479        -4.79236        0.728548
LJ            2.5502        -6.00941        -1.88333
LJ          -4.66671           1.806          -6.437
LJ           5.10512        -3.24832        0.336357
LJ           5.44438        0.307051         6.45805
LJ          -1.14874        -1.42681         2.41715
LJ         -0.228352         3.07476        -1.13949
LJ          0.835816        -2.38965       -0.801972
LJ           1.44996        -5.89955         2.50658
LJ           2.20915         -4.1465        -4.99761
LJ           5.15556         1.03225        -2.47044
LJ          -1.27529        -2.37882        -2.57301
LJ          0.936221       -0.813674       -0.719291
LJ          -5.58067         5.91056        -2.85007
LJ          -5.26408         4.53511        -2.84923
LJ          0.144964         5.23324        -0.70377
LJ           -4.9486        -2.15026        0.146107
LJ          -3.18605         -1.1705          3.5241
LJ          0.864332          1.7698        -3.60626
LJ          -0.48106        -1.26114        -2.59591
LJ           2.37927        -5.51968        -3.26835
LJ          -1.11505          4.4449        -3.36297
LJ         -0.666659         4.94807        -1.38898
LJ         -0.826474         2.51626         1.15622
LJ           3.27103        -6.29383         1.23076
LJ          -5.21353        -5.76154         1.79589
LJ          -5.29746        -3.05521        -6.30118
LJ          -5.39531        0.344174         3.24174
LJ          -5.83519         3.84466        0.948804
LJ            2.7782         2.53516         5.86349
LJ         -0.905484        -3.08458         5.16263
LJ           5.58918        0.580306         5.56967
LJ            2.1528        -4.05904         2.86394
LJ          -1.98528         4.11258        0.390169
LJ           5.57863        -5.53749        0.565086
LJ           4.88271        -6.01152         2.96533
LJ           3.42368         4.56606         6.27197
LJ           5.49807        -3.48321         3.00704
LJ           5.53736          1.0381         1.11668
LJ          -4.33482         1.35439         4.22812
LJ           4.72058         1.70658        0.558247
LJ          -6.45062         2.06506        0.757857
LJ          -3.51791         6.41221         4.72702
LJ           3.02736        -3.95538         4.05474
LJ          0.755702        -2.48096        -3.63683
LJ           4.18104        -3.98353         1.28452
LJ           4.96559         1.44937         1.81931
LJ          -3.97543         4.30402           1.931
LJ           3.74087        -3.13315        0.690185
LJ           4.82578         3.06448       -0.476399
LJ          -4.48183        -6.27781         3.52004
LJ          -2.12116         3.35426          5.7209
LJ           0.77405         1.91911        0.259872
LJ          -1.83587         2.41537         1.94285
LJ           -1.3586         3.93238         1.44635
LJ          0.660758         3.43613        -4.27613
LJ          -1.73263         1.21585         -5.6731
LJ           3.65579         5.69388         3.83667
LJ           6.15486        0.407544           2.615
LJ          -1.27985         1.48884          2.9408
LJ            5.7174        -1.74488         5.90106
