108
#Comment!
LJ           2.02956         3.23479         2.01807
LJ           1.88091         1.03999         1.85583
LJ          -4.64674        -0.73508         -3.8054
LJ            4.7705        -2.96182        0.919861
LJ          -2.05904        -6.40676        0.881782
LJ          -5.62797        -3.82094         6.06856
LJ          -5.36275        0.822691        -4.21372
LJ           5.10186        -4.16112        -3.34789
LJ           5.35295         5.26445         5.25921
LJ           4.01267        -3.84933         2.99998
LJ          -1.60622         2.26281         1.10215
LJ          -3.98897        -3.07517         5.30452
LJ          0.771278        0.116314         -0.5434
LJ           2.43892        -2.27887        -6.32776
LJ          -1.19237        -1.78266        -6.01153
LJ          -3.22285        -4.08072         5.71834
LJ          -2.81091        -4.56262        0.704074
LJ          -5.47407          2.7436         2.06287
LJ           4.20488        -3.05488         -4.4937
LJ          -1.18167        0.808515        -2.34439
LJ          -3.33672        -4.01775        -4.99493
LJ           2.70969         3.34363        -2.47375
LJ          -6.40431        -5.03899         4.86563
LJ          -4.58599         2.71629        -3.29833
LJ           3.78535         3.64384         4.51755
LJ         -0.311769         3.94208       -0.352578
LJ          -5.58684        -1.57832         5.14591
LJ          -4.32987         3.12201          -4.662
LJ          -4.50643        -4.79652         6.22563
LJ         -0.824161         3.78993         1.25706
LJ          -2.45831         1.30332        -4.34148
LJ          -3.90829        -6.04728        -6.33723
LJ          0.730578        -2.56901         2.96509
LJ           4.16444     -0.00239038        -1.55004
LJ           5.09603         1.64939        -3.94992
LJ            5.1584         2.36636          2.0565
LJ            4.8689        0.405804         1.86225
LJ           2.86723      -0.0414368        -2.44423
LJ          -1.93072       -0.573751         1.38464
LJ          -6.31582         4.01764        -2.61222
LJ           5.04002        -3.18889         6.22873
LJ          -5.84164         1.48837        0.976117
LJ          -2.13159       0.0507333        -2.87331
LJ          -1.28953         4.02985         2.24432
LJ            0.4964        -1.30963        0.613444
LJ          -5.85863        0.829719        -5.25138
LJ           4.20017        -6.05078         5.17008
LJ          -5.09745         2.48193        -1.49868
LJ            4.8165         3.93581        -5.48016
LJ         -0.173759         1.74415          4.0437
LJ           3.82845        -1.86856        -5.27716
LJ           2.95636        -5.39993         1.83702
LJ           2.91255         4.05661        -4.31372
LJ           5.91006         5.20604        -5.77912
LJ           5.96253         2.97899         -5.0586
LJ           2.81797         -3.2936        -1.21975
LJ           3.54688        -5.40581       -0.380632
LJ            4.4173        0.711696         4.02035
LJ         -0.822337         1.95988        -5.61488
LJ           3.54363         4.25128         1.95924
LJ          0.162329       -0.685404        -1.87686
LJ           -2.9889         2.39447        -2.15451
LJ          -4.50416         4.92599        -1.57531
LJ           3.60018        -2.89709         5.61989
LJ         -0.197829         2.34931        -1.03119
LJ           1.62088       -0.920553          3.4377
LJ           3.26798         6.20498         5.70299
LJ           3.81236        -2.26472        -1.97234
LJ          -1.06892        -2.66709          4.4347
LJ           -2.0376         3.98048        -3.51716
LJ           2.03664         3.23306        -4.55304
LJ          0.961506        -6.40051       -0.265815
LJ           5.82168        -5.00498        -2.96746
LJ          -4.71605        -3.72837        -2.68557
LJ          -2.98056        -1.12142         1.45886
LJ          -3.42651        0.827864       -0.557517
LJ          -1.19011         -4.3976        0.451348
LJ           5.37039        -5.35169        0.242632
LJ          -4.14189        -2.63089        -5.44029
LJ          -6.11726         2.88724        -3.54584
LJ           -4.0186        -3.64543         1.44524
LJ          -4.45298        -3.82255        -5.53355
LJ          0.819903        0.638089         5.52076
LJ          0.150601      -0.0303216        -4.94393
LJ           4.33951         3.54773         5.48589
LJ          -3.23932        -4.88948        -2.87901
LJ           5.35985        -4.55946         1.02916
LJ           1.27857       -0.176272        -5.70175
LJ           3.23589        -2.08287       -0.333089
LJ          -6.42193        -3.89616         4.18353
LJ          -4.22985        -1.59783        -2.89866
LJ          -4.38386        -1.75092         -4.1046
LJ          -5.92054          3.1964        -1.78228
LJ          -5.22003       -0.843163         4.49976
LJ          -1.68333        -2.53966        -2.86702
LJ             3.813         -1.4067         6.21648
LJ           3.67793         5.12401         2.96273
LJ         -0.947628         3.22115         4.12852
LJ          -4.18054         2.16697       -0.957629
LJ           2.08541        -2.39219       -0.323494
LJ          -4.14175        -4.56011        -3.55103
LJ          0.572159        0.394766        -2.83455
LJ           3.92853        -4.80907        0.643142
LJ         -0.719403       -0.919659         3.89898
LJ          -5.27377         1.45653        -2.20054
LJ         -0.347794        -5.71738         3.42181
LJ           5.95224       -0.877066         5.34905
LJ           6.25172          1.9652        -4.34896
