108
#Comment!
LJ          -3.46612        -4.28632         2.43328
LJ          -2.05821         3.63488        -5.31536
LJ          -5.76228        -4.84581         3.64429
LJ            6.2021        -2.75618        0.606922
LJ           4.79756         -3.7728       0.0783145
LJ           4.88916        -4.07719       -0.959994
LJ           1.99255        0.123004        0.359012
LJ          -5.68316        -5.80436        -3.65284
LJ          -1.43174         3.55028         4.25438
LJ           2.74026         1.58303         1.44773
LJ          -1.96433        -1.66174       -0.174471
LJ          -2.99084         1.40266         5.38676
LJ          -1.03681         4.25952         3.10007
LJ            5.4051         3.58498        -5.11829
LJ         -0.942891        -4.08789         4.74537
LJ          -1.74374        -5.99596        -6.18981
LJ          -3.09573        0.107183         1.47841
LJ          -4.06657         4.02326         1.49883
LJ         -0.951829          1.3451         -6.1592
LJ           4.90384        -1.05621       -0.182096
LJ           5.80816        -3.09965         1.55125
LJ          -2.90222        -4.78844        -3.76764
LJ          -2.74946         1.28735         1.64826
LJ          -5.34472        -4.11294         4.13539
LJ           5.44029         4.50695         3.46412
LJ            1.8521         3.64289         1.34962
LJ          -1.59163         3.16939         6.18517
LJ          -5.76138         3.55046          1.5966
LJ          -3.21809         1.00984        0.564903
LJ          -4.58098         4.26626        -1.40495
LJ          -4.11193       -0.866075         5.15918
LJ          -5.01803         1.96579          5.6785
LJ           2.14371        -5.25294         2.02194
LJ          -4.15731       0.0228197         1.49118
LJ           -1.0275         4.07947        0.313204
LJ          -5.66611        -5.64318       -0.983191
LJ          -2.91382        -2.60892       -0.173604
LJ          -2.55703          3.4381         1.94605
LJ          -3.25475         4.85551        0.692143
LJ           4.48036         3.09855         2.52828
LJ           2.76796         5.58106        -3.46336
LJ           2.04103         1.13047         2.18061
LJ           5.29693        -6.19991        -4.73612
LJ          -5.30885       0.0429431        -4.69147
LJ         -0.254338         2.86851        -1.98935
LJ           1.29771        -2.93314         5.34156
LJ           2.56804        -1.99992         1.30713
LJ            2.2127        -5.68745          -3.762
LJ           2.17502         4.28659        -2.50359
LJ          -2.96473          3.2639        0.415296
LJ          -5.57528         1.87445        -4.22008
LJ           3.48696        0.455747        -4.43286
LJ           5.26743        -2.51683        -5.20232
LJ          0.823746        0.773464           4.345
LJ           1.36239        -5.77041        -3.02887
LJ           6.39647        0.396441         1.82273
LJ           2.89532        -1.35478         2.42461
LJ           4.51581        -1.76491         5.56497
LJ           3.28429         4.80808         5.69269
LJ           2.32773        -2.50835       -0.492013
LJ          0.699288      0.00377547        -5.18511
LJ          0.123139         3.27101         5.22344
LJ           3.77622         5.08958         1.50565
LJ           5.96276         5.17411         2.89809
LJ           5.01866        -3.57439        -3.99088
LJ            3.4021         3.71377         2.62013
LJ           3.09133         6.10598        -4.86289
LJ           1.81702         5.42895       -0.686651
LJ           5.21603         5.36138        -3.99885
LJ          -5.72169         6.24176       -0.378091
LJ         -0.225121        0.545377         1.96787
LJ            4.7536        -4.29574        -2.19801
LJ           -5.7672        -4.11174         2.96767
LJ          -4.37021        -5.30351         -1.2902
LJ          -3.65239        -4.51298        0.941346
LJ          -1.46784         5.21336        -6.17642
LJ            1.9427         2.14338        0.517897
LJ          -3.99202         2.21619        -3.74372
LJ          -4.64713        -4.72193         5.15109
LJ           6.36315        -6.26025         1.92245
LJ          -4.90519         2.44835        0.313299
LJ           2.41024          5.4267         3.93518
LJ          -6.14874         4.21496         2.48551
LJ           6.11403         2.95517        -5.73631
LJ          -6.32905        -3.21291         2.59217
LJ           5.95522        -3.01692        -2.11299
LJ         -0.216315         4.76513        0.731544
LJ          -4.65355         3.04215         1.57557
LJ            6.0062         3.66947         1.70355
LJ           4.70292         5.77665          2.4244
LJ           5.54657        -4.94108         3.04879
LJ         -0.446482         5.39814         6.12175
LJ           3.06602        -2.59356        -6.08396
LJ           6.10181         2.22525       -0.840321
LJ          -5.84151        -1.05978        -2.53864
LJ           5.19326         -6.1041         1.73294
LJ          -2.09789        -4.16435         5.23099
LJ          -5.69142         6.41536        -5.85538
LJ           1.08843         1.86114         6.42124
LJ           5.19975         1.40931       -0.744242
LJ           3.60135         4.24273       -0.507239
LJ          0.764787         1.56305         3.63576
LJ          -6.14093        -3.63439        -4.87424
LJ          -2.89685        -2.42933         6.06222
LJ           5.53519         2.35805        -4.33536
LJ          -5.55108        -5.74117        -6.39412
LJ           2.88475        -1.80417          4.1851
LJ           5.05695        -3.48135        -5.37906
