108
#Comment!
LJ           4.77341        -4.46689         5.93385
LJ          -5.01783        -1.31838        -2.15778
LJ          -1.91584        0.239756        -5.28293
LJ          0.195367          -5.715        0.106326
LJ        -0.0735755        -1.26176         1.48764
LJ           2.11059        -4.62518         2.28976
LJ          -1.56571        -5.14799         3.24477
LJ          -4.45505        -5.51445       -0.541696
LJ           2.68197        -3.38838         5.24917
LJ          -2.55494         5.43457       0.0588078
LJ          -3.25816         5.87712        -4.18816
LJ          -3.85437        -3.10431         4.57622
LJ          -4.51763         6.34365         4.48946
LJ          -3.12241         2.93302         3.03288
LJ          0.868189         6.45902        -2.74602
LJ          -1.45391        -0.30994         6.14715
LJ          -2.54554        -2.27036         -5.4637
LJ            5.2708         5.46251         -4.4017
LJ           6.37303        -5.93522         5.92646
LJ          -3.08751         6.44888          2.0978
LJ          -3.50088        -1.10407        -2.99653
LJ          -2.91279        0.722732        -2.41581
LJ          -2.78356         2.55646        0.322621
LJ           0.84395        -2.52392        -4.87586
LJ           -5.6565        0.286364         4.94012
LJ          -3.47751        -5.61893         1.37136
LJ            2.0123        -1.39534        -5.10657
LJ          -3.41283         2.34117        -2.12604
LJ          -2.53594        0.197807         1.37396
LJ            1.2729        -3.21715         4.02097
LJ           3.69863        -2.98719         5.18387
LJ          -2.27376         2.26495         3.02858
LJ           1.87785        -3.34528        -4.08764
LJ           5.72777         3.70925         1.94429
LJ           4.49643        -3.90499        -3.12231
LJ          0.878753         1.58749        -2.70483
LJ          -2.26412          2.8744         4.49764
LJ          -5.50128         3.85395        -5.45062
LJ           5.53969         4.50475        0.871567
LJ          0.157672         2.45043        -1.04547
LJ           4.90469        -3.58144        -2.08769
LJ         -0.863612         5.23206        -0.89447
LJ          -4.46868         5.19884         4.73524
LJ           6.41044        -5.38284         2.22524
LJ           1.44753        0.372735         3.78066
LJ          -3.49728         3.89255         3.10679
LJ          -3.85657        -4.20228       -0.737925
LJ            3.6614       -0.367052         2.20864
LJ         -0.808183       -0.225636        -3.06168
LJ          -5.63951         2.12877         1.70907
LJ          -3.69394        -2.10312         3.91812
LJ          -5.06038        0.920774       -0.546009
LJ            4.6075        -2.21069       -0.429936
LJ          -1.89207        -4.21947        -2.02857
LJ          -2.02654         4.60783         3.61902
LJ           5.86613        -2.06266          5.9338
LJ          -2.44521        -2.69098         0.44944
LJ           4.28438          5.4404        -2.88425
LJ           1.60867       -0.958488         4.71423
LJ         -0.138834       -0.142132        -5.93561
LJ          -5.30371        -4.76654        0.332158
LJ          -4.04861        -3.23916        -1.73838
LJ         -0.356283        -2.09789       -0.753263
LJ          -5.92769        -1.60601        -6.42172
LJ           1.66494        -2.30542        -5.89105
LJ         -0.092601         4.04942        -5.01279
LJ         -0.929658        -5.32226       -0.921458
LJ           3.30591         4.78102         5.49863
LJ           6.43761         5.80091        -2.70507
LJ           2.75011         3.94332         -2.7013
LJ          -4.14706        0.877095        -2.59312
LJ           6.19124        -3.82279        -3.92367
LJ           1.34791         4.01806        -2.44368
LJ          -1.34519         5.82893          4.0047
LJ          -4.34501         6.01894        0.551101
LJ         -0.893951        -2.35261         4.89696
LJ             2.136       0.0275982         4.37231
LJ           2.26427         0.79991       -0.514696
LJ          -4.47284       -0.296528         6.07934
LJ          -2.02725        -4.72398        -5.12771
LJ           4.74044        -6.17308        -3.23388
LJ          -2.66552       -0.788575         1.61169
LJ          -6.15113        -2.77909        -2.21503
LJ           5.19068        0.877716        -6.40552
LJ           6.40588         -4.2557         2.62879
LJ          -3.33264         4.23557        -3.13631
LJ           6.02649         5.75444        0.766582
LJ          -4.57789        0.168454        -4.25804
LJ          -4.79177       -0.482639          1.4778
LJ           2.77074         5.02113         4.61109
LJ          0.699479         2.46444        -3.85939
LJ           -4.1668        -0.50135          4.6885
LJ           5.39484        -4.77862        -5.90146
LJ          -4.24936        -1.83814        -3.36065
LJ         -0.811448         4.67387         1.78982
LJ          0.693576       -0.755123         -3.1205
LJ           1.29134     -0.00840187        -1.44008
LJ           -1.0591         4.55832         4.56121
LJ           2.47282         6.09754        -4.80112
LJ          -5.62617         4.77617        -2.69574
LJ          -1.33162        0.723064         3.07954
LJ            2.6831        -2.41498        -3.93349
LJ           5.85959        -4.29479        -4.97485
LJ           -1.8778       -0.795432        -2.35006
LJ          -5.58541        -5.46145        -6.04147
LJ          -5.45317        -3.82664         5.71637
LJ            4.8375         4.14703        -2.45838
LJ          -3.81217         3.93012         4.06499
