108
#Comment!
LJ           3.52002         3.28978         2.22399
LJ          -2.28281         1.31881          3.8269
LJ         -0.297192       -0.891173        -1.10812
LJ          0.131254        0.612494         6.17061
LJ          -2.09748         4.75939        -1.17101
LJ          -4.66021        -6.31266         3.84385
LJ          -1.55083        -3.65764        -2.43588
LJ           2.78755        -6.23421         1.95577
LJ          -1.09582          5.3672         5.67029
LJ           2.88701        -3.19038        -5.79282
LJ            4.0051          5.7744         5.20929
LJ           5.20902         2.75277        0.936738
LJ         -0.156589         3.15026        -5.52549
LJ           1.22203       -0.885567         5.12611
LJ           2.17727        -5.04738        -1.35753
LJ          -5.13953        -4.16515        -2.85381
LJ         -0.905066         -2.7692        -1.08842
LJ            6.3306         1.16744         4.08964
LJ            1.3563         0.60375        -2.34586
LJ           1.86378         1.13296         1.51139
LJ          -2.33155        -3.99382         2.55376
LJ          -2.06695        -2.19073         5.04448
LJ          -4.56245        -1.13911         1.81256
LJ          0.581934         4.49541       0.0251792
LJ           3.15208        -3.65223        -1.13835
LJ          -3.63171         2.09708        -4.77836
LJ          -5.20358         4.87203        -4.98807
LJ          -4.74778         3.91774         3.98848
LJ           3.98124         1.05252          -2.762
LJ          -4.72529       -0.319929        -1.61444
LJ           3.84306        -3.18126          6.1163
LJ           5.89781          3.6492         2.54772
LJ           5.58765         2.57703         5.78376
LJ        -0.0822366        -2.23197        -2.97378
LJ           5.42651         1.56244        -4.82183
LJ           1.49967        -1.36701        -3.37288
LJ            6.3027          4.0355        -1.94068
LJ           5.17603        -3.90734         3.85426
LJ         -0.821795        -4.93585         1.96921
LJ          -5.73812        -3.20823         5.36011
LJ          0.577892        0.641691       -0.334107
LJ          -0.30169        0.561968         4.61361
LJ          -1.19083       -0.949492         4.72105
LJ           2.40255         5.00745         3.57776
LJ           6.14709         -4.6752         5.44267
LJ            4.7907        -3.52473         2.59605
LJ            2.4222         4.60956         1.43913
LJ          -2.49426        -5.32503        -6.40496
LJ           4.77338        0.845936       -0.940553
LJ          -1.22661         2.25052         6.06451
LJ           -4.1762          5.7423          4.3061
LJ           2.58808         3.83239        0.933966
LJ          0.561135        -5.15949        -1.01912
LJ           5.33834         -2.8856        -2.54941
LJ          -4.58509          5.6055         3.27397
LJ          -2.70396         -1.2571        -3.03033
LJ          -3.48667         4.38783         1.77258
LJ           6.29341          4.6136       -0.415696
LJ           3.64987        -5.63307         5.00893
LJ          -3.89426        -3.64702         2.58548
LJ           1.49556        -1.05221         2.49858
LJ          -5.00984        -2.95545         1.83707
LJ           6.12089        -3.57387         4.06904
LJ          -4.67864         2.31511         2.37462
LJ           1.94483         1.73369        -5.01935
LJ           2.46042         -4.9328         3.40511
LJ           5.56916         5.00619        -2.10897
LJ          -6.07064         1.90054         5.70038
LJ           3.55642        -1.09592        -2.19095
LJ         -0.973515           4.633        0.754962
LJ           4.89024         4.85876        0.399378
LJ           5.86417         1.96664        -1.17386
LJ           2.24453         6.42088       -0.185237
LJ          -4.29395        -5.71709         6.19269
LJ          -0.78985         1.77449         3.81141
LJ          -3.62414        0.398644        -6.25044
LJ          -2.65118         1.88856        -4.26052
LJ           -4.7208         5.33369          2.1013
LJ           4.10035        -3.50862        0.223441
LJ          -5.13818         6.22693         4.83323
LJ           1.54007        -5.67947        0.064929
LJ          -5.11377        -5.91703         2.83505
LJ          -3.86388         3.87126        -3.30705
LJ          -1.82342         3.55506         5.68429
LJ           3.13548         4.75643        0.462976
LJ         -0.343014         3.05284         4.11604
LJ           2.79841         2.57554         1.08964
LJ          -1.19204         6.27023        -1.77978
LJ           4.21955         6.26118         -2.4945
LJ          -3.11205         4.31725        -6.13006
LJ          -4.72813           3.383         5.67516
LJ           3.41747       -0.551019         2.36769
LJ          -4.71457         5.09181         5.76637
LJ           2.37055        -1.13319         4.74517
LJ          -5.99448         2.23056        -1.73592
LJ            6.1186         2.81526         3.29388
LJ          -1.51781        -6.41019         6.41958
LJ           4.75108         4.53276         5.84327
LJ          -3.49439        -1.24709         2.57298
LJ           5.62458        -5.80812         4.54774
LJ           3.33591        -1.35597       -0.236646
LJ           -5.4199         5.64221        -1.96043
LJ           3.63761         1.87629         3.72743
LJ         0.0970743        -0.46325         2.88157
LJ          -3.97716        -2.25191         3.60752
LJ          -5.99931        -2.25577        -4.26265
LJ           4.08667        -6.45146          2.4691
LJ          -4.60842        -3.49794        -6.12841
