108
#Comment!
LJ           -6.3413        -1.56522         3.21665
LJ          -6.16053        -3.26248         2.19384
LJ          -2.93059        -2.02675        -4.59431
LJ         -0.540554        -5.38429        -3.84489
LJ          -1.47114         -4.9781         2.90259
LJ           1.24544        -4.90531        -1.74812
LJ           -4.4331         4.81806         2.10943
LJ          -6.39193         5.24105         1.61488
LJ           2.76677        -1.85848         4.39513
LJ            1.0553         4.16469        -4.01212
LJ         -0.491819        -6.26793        -5.32155
LJ          -4.99381        -3.12603        -4.89405
LJ          -5.10239        -6.29667         2.66117
LJ          0.314535         4.72272        -1.65027
LJ          0.650238          6.2586       -0.345693
LJ            -1.769         2.36844          4.1081
LJ         -0.390987        -2.67608         5.49992
LJ           3.13071         2.45137        -1.46128
LJ          -6.40485        -4.76071         4.58242
LJ          -3.93997         5.40532        0.392294
LJ         -0.786347        -2.96325        -3.33269
LJ          -5.47547        -6.15819        -5.40234
LJ          -5.64643         3.10669         1.03681
LJ           4.92184         -5.1919        0.483368
LJ          -5.59871         5.18776         3.81951
LJ          -5.13995        -6.41465        -2.39743
LJ            4.0149        -1.31343        -4.34912
LJ           5.80032        0.726819        0.445683
LJ          -3.75804           2.963       -0.904039
LJ         -0.504519        -5.34035         2.91316
LJ           1.63412        -1.42331        -4.92821
LJ          -1.02119        0.731739         2.13463
LJ            1.9101         5.97661       -0.756168
LJ           2.17377        -3.30024          2.8359
LJ          -5.63661        -2.65367        -3.19663
LJ           1.10642        0.169951        -4.14377
LJ          -3.75308         2.54077         3.60566
LJ           4.31516        -3.86825        -2.08691
LJ           5.34751         5.63604     -0.00915392
LJ          -1.83335       -0.126331        -1.03257
LJ           4.55452        -2.15463       -0.416733
LJ           0.60321         5.74812         -1.4026
LJ           3.14082         2.50746         3.79143
LJ           5.93787        -3.87938         3.14433
LJ            1.9611         2.90063         4.21878
LJ         -0.362834         4.47234          5.8236
LJ          -4.26291        -4.70113        -1.80432
LJ            1.9173       -0.162827         1.34216
LJ         -0.390668           3.816        -2.61139
LJ          -2.81435         1.04102         1.60698
LJ          -1.25295        -4.35532        -5.95376
LJ          -3.33818       -0.808242         -4.3373
LJ           4.00898         1.22689        -2.01213
LJ           1.45922        -2.16899        -2.99566
LJ           1.94039         5.03089          3.9448
LJ          -5.20166         1.28269          5.8271
LJ          -6.21253         6.05954        -2.38425
LJ           3.28216         1.65061       -0.439615
LJ           3.55774        -2.00797           1.367
LJ         -0.762951        -4.54171        -4.36836
LJ           -1.7238          -2.971         1.98714
LJ          -2.83823        -4.80628        -6.35084
LJ           2.41692        -2.94577       -0.410958
LJ          -5.18204         1.78454        -4.34063
LJ           3.06815       -0.864458        -5.36808
LJ          -2.83076         2.45839        -5.84193
LJ          -6.36735        -1.71365        -6.31374
LJ           5.81245       -0.108183        -3.85548
LJ          -2.04921        -6.46029        -5.37335
LJ           1.92874         6.27393         3.15603
LJ          -4.07304         1.51047        -1.02466
LJ           6.12168         1.51173        -4.73446
LJ            1.0943         5.55356        -2.42531
LJ          -0.31354          2.0427        -6.19052
LJ           5.39829        0.746869       -0.994313
LJ          -2.11218        -6.44634         1.80784
LJ           3.91883        -2.87635         4.99408
LJ          0.554997        -3.30915        -3.34069
LJ         -0.961456        -1.48455        -3.54707
LJ          -3.20942        -6.32267         5.62136
LJ           2.81274        -4.51918        -6.09935
LJ           -4.8793       -0.104813         3.89846
LJ           4.37614        -4.72133        -4.24829
LJ           4.69826         1.30296         4.57344
LJ           6.04245         5.94527         3.32567
LJ          -3.47419        -5.21355        -3.72892
LJ           4.73883         4.49358       -0.797489
LJ          -1.58357         5.03968        -1.34652
LJ           4.01433         2.00039         3.57304
LJ           2.04399         3.26099         6.10779
LJ         -0.809922         1.07527         -4.3957
LJ          -4.50851         2.56885        0.984698
LJ          -4.90765        -5.11893        -3.41525
LJ          -2.31185        -1.57322        -5.54461
LJ           2.04833         5.75221         1.58377
LJ           1.71494        -3.58689        -3.82641
LJ          0.909162        -3.19974        -1.18959
LJ          -3.22366          3.1285         4.75919
LJ           3.74357         4.74117        -2.22021
LJ          -5.42861         -4.0109         2.18166
LJ         -0.122263         4.38363        -5.92642
LJ           4.29437       -0.523139         4.94386
LJ          -6.39042         6.38628         1.60451
LJ         -0.193961       -0.978549        -2.98255
LJ          -1.60457         4.23655         3.88409
LJ          -5.29044        -3.67272        -2.99483
LJ           3.76556        -6.17066        -1.51352
LJ           4.45731        -5.91244        -6.15782
