108
#Comment!
LJ           -2.7067        -1.46291        0.922148
LJ           -2.5044         2.70046        -4.22822
LJ           5.09013        -4.92633         5.74002
LJ           6.40719       -0.531795        0.349897
LJ          -5.72198         6.16022        -0.99875
LJ          -5.16116        -4.82798       -0.839849
LJ            1.4505        -1.72607        0.327771
LJ          -5.31649        -1.96145        -1.40949
LJ         -0.163108         4.71787         4.33015
LJ           2.00921         4.07522         1.73169
LJ          -4.08915       -0.624759       -0.963603
LJ          -6.03944         -4.0247         5.21248
LJ          -1.87042         3.02349        0.503618
LJ          -4.38884         2.24294        -4.22409
LJ          -1.97906        -2.53543        -5.78837
LJ          -2.15984        -3.94378        -5.51898
LJ          -2.65025        -0.86473         2.78424
LJ          -2.49231         3.84425        0.291432
LJ          -2.63706        0.440395         5.72412
LJ           5.64758       -0.837075         1.54629
LJ           4.25184        -3.02914         1.33789
LJ          -1.93531        -4.28111        -4.34435
LJ         -0.636361         2.79305         1.70079
LJ          -5.56763         -3.5397        -5.99769
LJ           6.20752         2.16682         2.39577
LJ           1.05068         6.44739         2.23384
LJ          -2.00855         1.50245        -6.19511
LJ          -5.31868         5.22594         3.27735
LJ          -4.45055        0.583281         1.99465
LJ           3.39589         4.07384        -1.98896
LJ          -3.40595        -2.57043         5.40343
LJ          -4.22564         2.32243         3.88823
LJ           5.38392        -4.01613        0.746435
LJ          -4.56879         1.14043         4.32324
LJ          -2.54498        -6.35989        -1.92762
LJ          -4.77321         4.57094        0.347232
LJ         -0.704912        -2.76948        0.326221
LJ          -2.21371         2.81299           3.422
LJ          -3.74461         3.80047        0.700755
LJ           1.61832         4.95141         5.34666
LJ           2.30923         5.06231        -6.19726
LJ        -0.0470119       -0.194554         2.37031
LJ            4.8135        -4.88315         -6.2218
LJ           6.05163         -3.8989        -2.82398
LJ          -2.48031         3.78096        -1.20871
LJ          0.524346        -6.20766        -4.64048
LJ           2.90205        -1.85827       -0.756089
LJ           2.79032         5.69412        -5.05437
LJ           3.82391         3.14838       -0.292661
LJ          -1.72039        -1.72679        -1.78703
LJ           5.40219        -1.60869        -3.34218
LJ           3.35396         2.96991        -3.29642
LJ          -5.08824        -2.07846        -4.53362
LJ          0.981733        0.367589        -5.85543
LJ          0.695843         6.22347        -6.22883
LJ           2.86065         2.90581         1.26781
LJ           2.44524       -0.977711       -0.159424
LJ           2.70618        -2.74113        -3.45026
LJ           2.59495         5.59002         5.00021
LJ           3.34052        -2.76895       -0.201932
LJ           2.97052         2.78056        -5.05422
LJ         -0.117287         1.01048        -1.53345
LJ          0.392448         2.65829         2.14784
LJ           5.62216         4.31672         1.63895
LJ            1.7556        -2.86501        -5.37831
LJ           5.34771        -6.28483         2.58557
LJ           4.13083        -2.74465        -4.76161
LJ          0.882745          -4.589        0.627842
LJ           3.23631         3.65878        -4.36639
LJ           5.10423        -6.09637         1.28813
LJ          0.225767        -2.61338         4.21747
LJ           5.40759        -1.52584         -1.8487
LJ          -4.42213        -3.51034         4.60045
LJ          -3.43883        -6.37564        -2.53741
LJ          -2.93465        -1.38443        -0.16549
LJ          0.429403        -4.42597        -5.80759
LJ          -2.99243         5.72858         1.70139
LJ          -2.98747        0.941581         -1.4756
LJ           1.67658        -6.23174         4.88483
LJ          -3.97501         4.12614         2.75745
LJ          -2.93966         2.49884        0.718325
LJ           0.69471         3.98306         5.72673
LJ          -5.94779         6.03808         4.39024
LJ          -3.40203         1.37646        -4.19306
LJ          -5.75392        -2.98807         4.39597
LJ           5.73826        -5.75107        -5.25128
LJ          -1.89342         5.78784         2.65913
LJ          -3.26576         3.15248       -0.166231
LJ           6.01482         5.69122         1.23134
LJ           5.66356         4.44482         2.77788
LJ           6.35976        -1.79499         2.55458
LJ             2.316         3.39972          3.1788
LJ          -1.90169        -4.24633         5.25798
LJ          -5.81773        0.294858        -3.39242
LJ            -1.385         3.04791       -0.358667
LJ            6.4395        -4.87603        -1.31957
LJ          -4.62228        -2.72599         1.71418
LJ           4.19828         5.71566        -3.51809
LJ           2.04064        -1.21606         5.15773
LJ           5.77106       -0.796409        -2.59179
LJ          -6.12099          5.4291        -1.86205
LJ          -2.94011         0.62513          3.1491
LJ          -5.99063        0.845733         6.32904
LJ          -3.56968        -3.40859         5.98156
LJ           -5.2543         1.80737          -3.768
LJ          -4.31015        -3.91925         5.66827
LJ          0.396685        -3.57377         3.43907
LJ            5.4472        -4.05075         6.42556
