108
#Comment!
LJ            1.7965         5.00983         2.26826
LJ           1.24382         1.28084           2.865
LJ          -6.12094      -0.0740141        -3.25883
LJ           3.67189        -2.37027         2.87452
LJ          -2.30316          6.0256        0.405112
LJ           6.29579        -3.47058         4.94973
LJ          -5.38322         1.06305        -4.19828
LJ           4.60975        -4.11305        -4.56993
LJ           4.80353         6.33894         1.72408
LJ           3.38435       -0.908852         4.48638
LJ          -2.50589         2.56149       -0.137735
LJ          -1.63616        -2.22094         4.19789
LJ          0.945481        -2.27378        -1.06738
LJ         0.0067261        -2.20347        -4.59699
LJ          -0.52214        -1.97562         4.79255
LJ          -4.70356        -2.59137         6.44787
LJ          -1.87218        -5.17531         3.52553
LJ           5.92689         2.32353         1.72075
LJ           3.24516        -5.05011        -5.81785
LJ         -0.441068         1.41384        -1.02275
LJ          -2.02796        -4.14749        -4.31697
LJ           1.60778         1.55875        -2.11761
LJ          -5.96096        -4.35673         3.91843
LJ          -6.41899         2.07145        -2.97088
LJ            4.6951         1.73326         2.02111
LJ         -0.508987         2.37959         -1.4325
LJ          -5.00415        -1.51593        -5.57539
LJ          -5.19098         3.59615        -4.74952
LJ          -4.13049        -4.02373         6.24906
LJ          -2.02581         3.13242        -1.15503
LJ          -1.72445         1.08738         -3.8873
LJ          -2.56444        -5.75481        -5.50853
LJ           2.23251        -1.35118        0.266638
LJ           5.05166       -0.200843        -2.37933
LJ           4.39512          2.2288        -5.71905
LJ            4.8854         1.38044         1.02201
LJ           -6.3453        -1.37702         3.82636
LJ           3.46971        -1.33864        -3.12446
LJ          -1.96731        -1.54096       -0.480513
LJ           4.24184         5.68933        -3.12976
LJ           4.32502         -5.0989        -5.66949
LJ           -4.1507         1.50727         1.45226
LJ          -2.00603       -0.315856        -1.66975
LJ          -2.79641        0.784529          1.1077
LJ         -0.200294        -2.12113       -0.791872
LJ           6.26009       0.0401608        -5.47696
LJ           3.75054         4.81528          4.3592
LJ          -5.58784         3.04483        -2.81681
LJ           1.49931         5.25309        -5.16496
LJ           2.71722         4.13312         5.73116
LJ           3.90585        -2.33328        -5.95935
LJ           5.28768        -3.40025         2.14695
LJ           1.84645         5.40361         -3.5951
LJ           5.91185         5.72098        -5.55123
LJ          -6.42148         3.91848        -5.57493
LJ           5.13663        -2.68521        -1.86801
LJ           5.81811        -5.76368        0.754646
LJ           3.86544          1.0841         5.42538
LJ          -2.97711         3.61696        -5.50238
LJ           2.92993         4.33131         2.82184
LJ          -1.07904         0.67133        -2.89715
LJ          -2.56375         1.86925        -3.05061
LJ          -5.10932        -6.38368       -0.490326
LJ            3.0388        -3.20419          4.7668
LJ          -2.13808         1.15646       -0.444355
LJ           2.60832         1.25554         2.23112
LJ           5.50411        -6.17281        -5.41076
LJ           5.32984        -3.90228        -1.33768
LJ          0.628602       -0.273385         5.75029
LJ          -1.65612         3.05594        -3.43575
LJ           3.06841         3.49501        -4.22863
LJ           1.91446        -4.98301        -0.24209
LJ           4.86067        -4.47818        -3.58912
LJ            -4.228        -4.02945        -3.23991
LJ          -2.45421         -3.2749         1.83399
LJ         -0.728923        0.363911        0.533693
LJ          -1.58586        -6.28802       -0.522707
LJ           6.00008         6.33521      -0.0205558
LJ          -3.44743        -2.50538        -4.29055
LJ          -5.46643         3.50632        -3.78426
LJ          -3.67034        -4.06308       -0.199842
LJ          -5.41813         -3.7828        -4.60878
LJ          0.357062         1.71578         -6.2597
LJ         0.0265258        0.362029        -3.14389
LJ           5.22114         4.63376         4.35747
LJ          -1.62041         4.56665        -3.92591
LJ           5.14339        -4.02234         1.27651
LJ           1.95367        0.974841        -3.42314
LJ           3.45111      -0.0742225         -1.1735
LJ          -5.37211        -3.37796         3.58013
LJ          -4.05364        0.187388        -4.12351
LJ          -4.31232        -1.09983        -3.43457
LJ          -6.45135          3.8624        -3.30084
LJ          -5.25551        -1.87561         5.87418
LJ          -2.65773        -4.04898        -2.17011
LJ           4.50208        -3.06674         5.13788
LJ           2.22726         5.71609         3.34663
LJ          -2.42509         3.17255         5.49288
LJ          -4.25547         2.19006         0.40217
LJ           1.46602        -3.76068         1.15473
LJ          -3.43986         -5.6928        -2.51572
LJ         -0.779268         4.00566        -4.26704
LJ           3.73905        -5.33236         1.38943
LJ         -0.694433       -0.702883         4.70935
LJ          -4.95661        0.728815        -1.17468
LJ           1.18621         4.34433          4.1609
LJ           5.14565        -2.27494         4.73543
LJ           5.10845         2.79919        -5.16394
