108
#Comment!
LJ          -2.39736        -2.31195        -6.34366
LJ          -3.04219         5.97567         -5.1375
LJ          -4.37107         3.87407        -3.95894
LJ           5.72167        0.701076      -0.0713403
LJ          0.729496        -3.30031         4.31848
LJ          -4.62452        -1.98882        -3.09037
LJ          -3.93472         5.66132         4.11776
LJ          -1.07949        -2.85651        -5.54488
LJ           6.39588         4.11053         -1.1862
LJ          -3.45928        0.131954         4.56573
LJ          -4.47716         1.61634         -0.7848
LJ          -1.34513         3.37429         5.78643
LJ            5.1445        -4.91421        -4.22212
LJ          -5.79727         4.14816        0.313486
LJ           3.81254        -6.22437         -5.9677
LJ           2.26523         3.43454        -1.18831
LJ          -3.59038        -1.06881        -4.28595
LJ          -2.20411         3.21417       -0.186642
LJ           2.40228       -0.565761         3.68936
LJ          -2.34597        -5.50805        -5.34966
LJ          -5.21208         -3.4072         3.00029
LJ          -1.08121         5.95952         1.37469
LJ         -0.467625        -6.44569         5.48627
LJ          -0.67423         3.10911        -2.59987
LJ          -5.29533        -6.01421         2.18264
LJ           3.08825        -3.93963         1.58567
LJ          -5.38888         4.05057        -2.20153
LJ            6.4149         1.59909         6.30128
LJ           4.26197        -2.37239       -0.661951
LJ          -4.67346         5.76872        0.127508
LJ          -5.85034         -2.7202         6.25194
LJ          -1.84254         1.49831        -2.83091
LJ          -2.85075       -0.271773         5.87328
LJ           3.00523        -2.81458         1.45383
LJ          -5.34504         3.97929         1.41071
LJ          -1.84373         1.70852         4.21655
LJ          -6.06061       -0.267129         6.03839
LJ           5.81835       -0.984326        0.155456
LJ          -3.73655        -5.59081        -5.28777
LJ           3.91129        -1.01183        -3.18065
LJ         -0.955646        -5.42803         3.25777
LJ          -4.83254        -1.99291         3.20449
LJ           3.94506         4.49942         -1.4537
LJ          0.416751        -5.44885         3.14116
LJ           1.68772         -3.9466        -5.38777
LJ          0.687982        -1.50907         1.40047
LJ           3.93446        -3.05349         1.82983
LJ           6.16497        -5.48508         1.52062
LJ          -1.65679        -3.17397       -0.992701
LJ           -5.3293         -1.0247        -6.41413
LJ            4.4965        -1.20025         1.01198
LJ           0.49081         2.31136         2.84304
LJ           2.07879         3.78944         2.88246
LJ         -0.858859        -4.46611         1.22539
LJ          -1.67677         3.65164        -2.32256
LJ           3.12069        -1.60609       -0.858072
LJ          -4.59536         -6.0574         5.26465
LJ         -0.869391         4.58121         6.27289
LJ          -3.89543        -3.37389         5.95629
LJ         -0.130728        -5.57086        -5.59878
LJ           3.74276       -0.103952         3.84868
LJ          -2.98672        -1.83935        -3.51921
LJ         -0.613105        -3.01803         2.05998
LJ           1.00365         6.45079        -5.51737
LJ           4.13286        -5.60168        -3.51142
LJ           5.21163         2.65156        -3.12468
LJ          -1.78873        0.308396        -5.55781
LJ           6.12434       -0.651769        -1.96302
LJ           2.43981         4.62313         5.69321
LJ          -5.79753         5.04834        -2.74717
LJ          -4.79902         2.00811         -3.8795
LJ         -0.559416        -1.33838        -2.75426
LJ          -2.79848        0.901692        -2.96611
LJ           2.41143         5.53437         2.35906
LJ          -3.17484        -5.73299        0.481682
LJ          -2.00583       -0.512878         3.65762
LJ          -5.18757      -0.0957453         2.45617
LJ           1.43015         2.99284        -2.92198
LJ           1.58744         3.92026         5.26152
LJ           2.83169        -1.11548        0.173981
LJ           3.89654        0.568675         4.67545
LJ           3.60297        -3.93739        -4.48593
LJ          -4.26453        -5.12512            4.68
LJ          -5.49514         4.31024        -5.72691
LJ           3.30025         3.39794         -4.3083
LJ           6.04073         2.31728        -3.94303
LJ         -0.218022         1.00595         4.36513
LJ          -3.97945         1.52779         1.73644
LJ           -2.0202        -6.16934        -3.97896
LJ         -0.315909         2.38885         3.65391
LJ         -0.329262          4.8146        -2.74132
LJ           1.21025         -3.5593         1.85127
LJ          -1.59346         1.02185         2.92171
LJ            3.3914        -1.50634         3.66055
LJ           6.11979        0.841631         1.32139
LJ           1.08318        -3.30113        -4.41772
LJ           5.29547        -1.21908         4.52085
LJ         -0.294551       -0.919339        -5.68027
LJ          -1.55772         3.89873          2.7511
LJ           -1.8728         3.01856        -6.05392
LJ           1.41465        0.247266        -3.92814
LJ            1.5324        -3.28971        -2.41638
LJ         0.0101457        -3.68973        -2.02394
LJ         -0.845329        -4.23132        -1.65274
LJ           -1.9597         2.33333         5.64524
LJ          -5.02251        -4.62523         5.85896
LJ           3.88676         3.71454         2.47343
LJ         -0.277191         1.05087         5.68703
