108
#Comment!
LJ          -5.44931         6.18769        -6.39438
LJ          -3.40721        -4.30153        -5.90132
LJ          -6.09867        -4.68991        -5.69929
LJ          -2.82082        -6.13702        -4.80569
LJ         -0.951662        -4.97408        -5.68855
LJ           1.93722        -3.80156         6.03776
LJ          -3.30753        -4.95007        -3.44141
LJ         -0.160097        -5.95838        -4.59178
LJ           3.38886         6.42315         6.35975
LJ           3.18689        -4.42654        -5.14831
LJ           2.03534        -6.43186        -4.99762
LJ           4.01026         5.96724        -4.00078
LJ            5.2314        -1.83598        -4.94681
LJ          -3.67831        0.680679         6.45223
LJ          -6.30685           1.796        -3.12617
LJ           -4.6915        -2.34678        -3.72676
LJ           -2.1407       -0.894116        -6.42611
LJ          0.629498        -1.97966        -6.39318
LJ          -2.18271         1.70889         -4.7907
LJ           1.10393        -2.27958        -3.60897
LJ           3.17871        -2.32503        -6.32229
LJ           4.44682         1.68532        -5.57025
LJ           3.44737        -1.05078        -3.74875
LJ           4.98783        -2.54657        -3.38637
LJ          -6.30435          2.7557         6.07618
LJ          -4.76989          4.4763         6.05752
LJ          -5.62201         3.75273        -4.29919
LJ          -4.00575         3.09398        -4.16111
LJ          -2.37788         1.06033        -6.06212
LJ          -1.95202         3.93931        -5.94094
LJ          -3.33197         5.37537        -4.55665
LJ          -1.27217         3.10453        -4.07183
LJ            1.9059         1.36955         -3.8942
LJ           3.38147         3.11388         6.33568
LJ           1.72443         4.47827        -4.97392
LJ           3.41612         4.13234         -3.5229
LJ          -5.11048         5.39487        -1.48407
LJ          -5.16732        -4.82871        -2.70151
LJ           -5.5763        -5.86099       -0.468376
LJ           -4.5812         -5.9551        0.703683
LJ          -1.98458        -6.01916       -0.908898
LJ         0.0860248        -4.00382        -3.01645
LJ          -3.17796        -2.33018        -0.57234
LJ         -0.499244        -6.24501       -0.615807
LJ          0.604381         6.35057        -2.55788
LJ          -6.06861        -3.55011        -1.76317
LJ           2.46488         -5.0415        -0.35055
LJ           4.25173        -6.08709       -0.206205
LJ           5.57768        0.310643        -2.34372
LJ          -3.65675         1.23502        -2.83044
LJ           4.86458       -0.148046        -1.25863
LJ          -5.22049        -1.35224        -1.81337
LJ          -1.11891        -4.04944        -5.47204
LJ          0.759469         1.72876        -3.57598
LJ          -1.57959       -0.678131       -0.728262
LJ          0.229264        -3.66945        0.828154
LJ           2.37079        -4.26513        -2.36056
LJ           4.20341        0.786687        -2.99592
LJ          0.782496        -1.13352        -0.92352
LJ           3.52423        -1.40813       -0.327377
LJ           5.73367         3.79915        -1.21585
LJ          -3.59695         3.47621        -2.13758
LJ           5.28809         4.00526       -0.395241
LJ          -4.60077          1.1141        0.605902
LJ          -2.13133         1.81728       -0.672094
LJ         -0.498951         4.22827        -2.58758
LJ          -1.79243         2.94925      -0.0541305
LJ          0.701874         2.86926        -1.06666
LJ            1.1276         2.94107        -2.86441
LJ           3.03591         4.16945         -1.2286
LJ           1.33226         3.96881        0.683621
LJ           3.50403         2.72034        0.714529
LJ          -6.36574        -6.19753         1.97662
LJ          -4.62153        -4.22226         2.87575
LJ           -6.4009        -3.77134         4.12628
LJ           -4.3341         5.73216         3.70378
LJ          -1.19817         6.13864         3.29213
LJ          0.171756        -5.54869         2.64081
LJ         -0.784427        -1.62297         4.12784
LJ         0.0969187        -5.76412         4.44356
LJ           1.19402         5.66535         1.94291
LJ           4.43621        -4.64686         1.85991
LJ           3.03032        -4.64054         4.11643
LJ           3.94149         6.00169          5.0309
LJ           6.07513        -2.77924         1.43069
LJ          -6.26519       -0.592532         1.85503
LJ          -5.96454          0.9941          4.2469
LJ          -5.31655        -1.50424         3.19565
LJ          -3.81368        -0.75243         1.63215
LJ         -0.895697        -2.63309         2.41889
LJ          -0.95999         0.17798         2.85068
LJ           1.68978        -2.18557         5.62536
LJ           2.77224        -2.81162         1.33896
LJ            3.5726        0.742905         2.21366
LJ           3.61918           0.833         4.56528
LJ           4.91642        -2.00665         3.41773
LJ           5.91243         1.83671         1.28101
LJ          -4.80659          5.0399           2.274
LJ          -6.37088         3.24801         4.88249
LJ            -2.856         2.08193         3.21641
LJ          -1.37715        0.710407         2.00851
LJ          0.075956         5.23704         2.45021
LJ          -1.54342         3.96883         4.93847
LJ         -0.421912         1.99763         5.79151
LJ           2.34984         1.52281         2.66368
LJ           4.59135         3.21719         2.11549
LJ           1.07221         3.42218         4.45652
LJ           4.73766         1.70018         5.05457
