108
#Comment!
LJ          -3.72224        -5.19749         2.58706
LJ           -1.9339          3.8744        -5.21177
LJ          -5.12272        -6.18304         3.59913
LJ           6.22692        -3.14081        0.200711
LJ           4.21969        -2.84825        0.399851
LJ           3.77902        -4.17375       -0.480853
LJ           2.31705        0.659502        0.468499
LJ          -5.88564         6.07941        -4.25125
LJ          -1.57157         3.30131         4.09577
LJ           3.65362         1.16739         1.32244
LJ          -1.37449        -1.89992       0.0533505
LJ          -2.10977         2.77057         5.38034
LJ          -1.12386         4.74133         3.87024
LJ           4.52316         3.80559        -5.16534
LJ         -0.939851        -4.59644         4.11162
LJ          -1.57435         6.31456        -6.42493
LJ          -2.83748       0.0943222        0.960573
LJ          -4.72355         4.01074         1.57337
LJ         -0.509878         1.61089        -5.92613
LJ           4.77383       -0.845714       -0.695389
LJ           5.32015        -3.26804         1.06453
LJ          -3.15208        -4.94471        -3.61447
LJ          -3.46199         1.67262         1.55829
LJ          -4.87353        -3.77187         3.65026
LJ            5.5041         5.10872         3.99606
LJ           2.22479          2.7479         1.06549
LJ           -1.3385          3.4806         5.71577
LJ          -6.05551         3.25452         1.12352
LJ          -2.85843         1.03243        0.319747
LJ          -3.26452         4.40298        -1.17267
LJ          -4.13681       -0.216759         5.28923
LJ          -5.20433         1.88236         6.15391
LJ           1.28171        -5.56866         2.35558
LJ            -4.373       -0.215584        0.656664
LJ         -0.617871         3.40261        0.957405
LJ           6.46067        -5.23625       -0.946764
LJ          -3.57669        -2.62305       -0.265853
LJ          -2.46748          3.4901         1.63176
LJ          -3.03834         5.42708         0.53814
LJ           4.75842          2.6271         1.66669
LJ           3.23713        -6.29568         -3.9713
LJ           2.10561         1.13403         2.52844
LJ           5.33609         -6.3749        -4.53162
LJ          -4.92015         1.14414        -5.27071
LJ          0.692246         2.16146        -2.07404
LJ           1.51206        -1.85852         4.57614
LJ            2.5721        -1.99851         1.94408
LJ           1.94361        -5.41786        -3.48575
LJ           1.59408         3.73186        -2.17697
LJ          -3.46056         4.07682         1.32288
LJ          -5.16505         2.96535        -4.58666
LJ           3.51896       -0.212282        -4.75926
LJ            5.0731        -2.10058        -5.00941
LJ          0.891197        0.567965         3.88226
LJ           1.68114        -5.34393        -2.26034
LJ          -5.59447       -0.347208         2.15207
LJ           2.88142        -1.63131         2.87888
LJ           4.95345        -1.60811         4.52572
LJ           3.50931         4.57187         5.85383
LJ           1.82067        -2.24943       -0.583554
LJ           0.06107       -0.742137        -4.94401
LJ          0.294624         3.58463        -5.79502
LJ           4.64873         5.45479         1.13933
LJ           6.21114         5.73136         2.63261
LJ           6.06369         -3.7355        -3.90358
LJ           3.12687         2.90944         2.51321
LJ           2.69273          5.0534        -4.59541
LJ           2.09493         4.59815        -1.03953
LJ           5.82212         5.64987        -3.77905
LJ          -5.12544         -6.4631        -1.01921
LJ         -0.321876         1.47045         1.39658
LJ           4.95234        -5.04848         -1.9384
LJ          -5.66785        -4.45268         2.62226
LJ          -4.50889        -4.32788        -1.21563
LJ          -3.78893        -5.29769         1.35894
LJ           -2.8486         4.63644        -5.69902
LJ           2.86071         1.33568       -0.138591
LJ          -4.21156         2.50496        -4.22443
LJ          -6.39732        -4.21653         5.10065
LJ           5.89813        -5.64473         1.80058
LJ           -5.2971         2.65029        0.430255
LJ           2.72781         5.70485         3.37414
LJ          -6.31011         4.33786         2.17004
LJ           5.20144         3.25265        -6.04583
LJ          -6.39588        -3.00621         2.62632
LJ           5.98256        -2.09971        -1.82769
LJ          0.136634         4.32187        0.072807
LJ          -4.99923         2.93045         1.78391
LJ           6.06895         2.74115         1.95683
LJ           4.44357         5.54977         2.86368
LJ           5.18414        -5.69624         3.08005
LJ         -0.390746         5.86727         6.46202
LJ           4.32515        -2.43935         -5.9265
LJ           6.06797         2.88008       -0.144072
LJ           5.91591        -2.30808        -3.09092
LJ           4.83777        -6.13287         2.15572
LJ          -1.24975        -4.54905         6.16314
LJ          -5.09777         5.76988         -5.8517
LJ          0.649892         2.78807         6.37207
LJ           4.80955         1.75016       -0.230997
LJ           2.72546         3.86871       -0.174692
LJ           1.84988         2.04306         3.69283
LJ          -6.45049        -4.83168        -4.30702
LJ          -2.90743        -2.07294         6.11712
LJ           5.10023         2.76708        -4.79256
LJ          -5.82483        -5.19029         6.06245
LJ           3.56882        -1.34322         4.33362
LJ           4.87412        -3.84467        -4.90939
