108
#Comment!
LJ           1.13752        -5.30492         4.68807
LJ           5.52826         4.91533         4.52013
LJ         -0.196691         4.73792         3.98217
LJ           4.64964         6.13496         2.05129
LJ            1.5194        0.925981        0.751994
LJ           3.85672        -1.42513        -5.66426
LJ          -2.39502      -0.0371622          6.1077
LJ          -4.82364         -4.0575        0.444972
LJ          -6.03861         -3.8239         6.29778
LJ         -0.793644         6.13373         1.53061
LJ           5.94313         4.64427        -2.54667
LJ          -1.13669         0.83489       -0.651665
LJ          -5.41156         5.42239        -4.02076
LJ          -5.80657       -0.900317          2.4178
LJ            2.9637        -3.83291        -2.08363
LJ          -1.66893        -1.30732        -3.14403
LJ          -2.85412        -1.23033        -6.04354
LJ           -6.1802        -5.40482         6.35042
LJ           6.36931         5.46913        -5.05943
LJ          -2.35066         2.04647         5.32532
LJ          -4.28056        -1.55292        -3.21613
LJ          -0.53132        -2.45105         3.84433
LJ          -2.31429         2.89348      0.00168539
LJ          -4.66193        -4.19821         5.22549
LJ          -6.17892        -3.45166        -4.95139
LJ          -2.59665        -4.44534         2.74078
LJ          -2.71287        -4.64243         5.31311
LJ           2.22396         2.92682         6.06134
LJ           -4.0149         2.51231        0.593535
LJ        -0.0078599       -0.453271         3.13336
LJ           5.18975        -5.17542        0.982035
LJ           -2.3813         1.98045         3.01023
LJ           3.15001         -1.8571        -2.35999
LJ           4.10758          4.1335        -2.79474
LJ           2.47858         6.36887        -3.28381
LJ          0.263187         4.73314         2.37923
LJ          -4.24487         4.57716         5.68599
LJ         -0.954181       -0.822342        -4.55223
LJ          -5.03007         5.07624         4.05333
LJ           1.29838        -4.53508        -1.49603
LJ           6.04247        -5.68697        -2.51335
LJ          -1.26007         6.30646         3.00195
LJ           4.69423         3.75411         4.98685
LJ          -1.62029         5.25444         2.98207
LJ          -2.63385        -2.48956         1.78781
LJ          -5.92168         2.87085         -2.3838
LJ          0.226316        -1.25157        -2.50066
LJ           5.83612       -0.695576         3.40064
LJ           2.18281        -4.70506        -2.27309
LJ          -2.63731        -1.91271          2.9924
LJ          -5.13885        -1.83212        -1.44988
LJ          -5.66657         4.20993         3.61719
LJ           4.80936        -2.89931          5.0423
LJ          -2.40669         4.33405           2.923
LJ          -5.09953         6.37496         4.87098
LJ           1.49738        -6.18202         5.84903
LJ           4.61241        -4.29229         1.07471
LJ           2.86532         1.56564        -4.45763
LJ         -0.276293         1.71796       0.0755147
LJ         -0.358422          5.0944        -6.43064
LJ          -5.46284        -3.16953        0.228795
LJ           4.26995        -3.74246         4.32406
LJ          -3.71827       -0.825873        -1.31073
LJ          -3.41693        -3.03117         2.01632
LJ           -2.3533        -3.53929         5.46614
LJ           0.16238        0.463135         2.85882
LJ           1.09787         3.52961         4.11701
LJ            1.3745         5.53978          2.3017
LJ           5.75292         1.65565        -4.73859
LJ           2.19989         1.43866          2.3757
LJ           5.26472         1.83777         5.70564
LJ           4.34811         4.83398        -3.76104
LJ           1.62496         2.65686        -2.70841
LJ          -1.61172        -5.83786         5.08418
LJ           3.71022        0.958006         3.63804
LJ          0.945861         5.21608        -6.28992
LJ           2.31287         1.94758          5.3472
LJ           2.69503         4.69618         1.61739
LJ          -5.90347       -0.468836         0.34711
LJ          -3.32002         6.39805        -4.07042
LJ           6.24508        -2.25614         1.19753
LJ          -4.01392        0.650992          2.9285
LJ          -2.89543         1.68052       -0.388427
LJ            6.3182     -0.00277877        -3.81318
LJ            -5.725         4.96873         1.42595
LJ          -2.56308         1.02378        -3.21795
LJ            6.3881         5.48812         3.82686
LJ           4.86737        -3.64107         -4.8555
LJ           1.39317        -2.34202         1.02894
LJ           2.40824        -2.99577       -0.756418
LJ          0.428954         4.87861        -2.38006
LJ          -2.05772        -4.30634        -4.09668
LJ           6.45992        -6.03343         2.25793
LJ           5.89595        0.913259         1.23535
LJ           1.14036         2.18479         2.69221
LJ          -4.20911          1.1449        -3.47608
LJ           5.25958         1.25113        -1.92449
LJ           4.12887         4.39819         3.26585
LJ          -3.02647        -3.05207         4.44893
LJ           5.35735         2.40071         4.88624
LJ          0.409398        -3.18236           0.565
LJ           3.72742        0.550509         1.68885
LJ           1.18495        -2.20211         3.78125
LJ          -2.87189        -1.73911        -2.44717
LJ           3.78695        -6.09161        -5.92444
LJ           6.09406        -1.30855        -5.78064
LJ           3.60855         1.56461          -5.235
LJ          -2.71934       -0.815527        -5.06907
