108
#Comment!
LJ          -5.74632       -0.709639         2.31557
LJ           5.91276        -2.13844         2.61235
LJ          -3.55007        -2.33717        -5.65888
LJ         -0.058668         5.38514        -4.87299
LJ          -2.46092        -6.19937         3.36156
LJ          0.957359        -5.45041        -3.07129
LJ          -6.01526         4.48583          2.0238
LJ          -6.04366         4.36893         3.54404
LJ            3.1637        -1.21818          4.2917
LJ          -2.20469           6.404        -5.37372
LJ          0.109955         -5.9371        -5.27727
LJ          -4.57606        -1.97332         -4.2914
LJ          -4.29394         5.45547         2.78276
LJ           1.22126         4.76318        -3.13084
LJ          0.560807         6.03028        0.175915
LJ          -1.98229         3.54657         3.38812
LJ          0.847382        -2.65506         4.18607
LJ           1.95622        0.479894         -1.3016
LJ          -6.39226        -4.26462         3.95509
LJ          -3.72661         5.00102        0.358418
LJ         0.0614319        -3.16787        -4.13102
LJ          -6.30538        -4.25099        -6.32299
LJ           -6.3376         3.33046         2.05982
LJ           6.03568        -6.15522         2.20203
LJ          -5.81669        -5.99333         4.10646
LJ          -6.46126          6.3571         -3.9649
LJ           4.43744         -1.0976        -4.33425
LJ           4.69466        0.186225        0.930346
LJ          -4.48508         3.26319        -1.61558
LJ         -0.911874        -6.18513         2.34336
LJ           1.28368       -0.336519        -3.81523
LJ         -0.743668        0.290384         1.87347
LJ           1.86149         4.98789       0.0600392
LJ           1.04445        -1.32652         3.08991
LJ          -4.71655        -2.41481        -3.08294
LJ           1.04509         1.60034        -4.48438
LJ          -4.10895         2.45001         3.27668
LJ           3.37682        -1.84881        -1.18138
LJ           4.90068         6.03673        -0.43824
LJ          -2.71905       -0.561263        -1.05551
LJ           4.88806        -1.54135       -0.742055
LJ           1.76486         6.33648       -0.484587
LJ          0.928576         1.73283         3.63281
LJ           6.39935        -3.28778         3.37797
LJ           2.09713         3.58189         4.39589
LJ          0.390163         4.15611        -5.38485
LJ          -3.51782        -4.66278        -1.35715
LJ           1.36886        -0.13624         1.07874
LJ         -0.297717         5.26996        -2.32932
LJ          -1.95269        0.778481         1.70814
LJ          -0.20983          -4.636        -5.03419
LJ          -2.88002       -0.581197        -5.51756
LJ           4.39774        0.759936         -1.2404
LJ           2.34233         -3.9577        -1.98952
LJ           2.90856         4.50204         5.13712
LJ          -4.34929         2.53334          5.3371
LJ           6.04916         5.03306        -2.88982
LJ           1.87375         0.75951       0.0721584
LJ           3.76893        -2.52163        0.574643
LJ           -1.2718        -4.98028        -4.53076
LJ         -0.190709        -1.99007         2.12049
LJ           -2.8076        -5.90779         5.34195
LJ           3.23282         -2.6692        -0.40415
LJ          -5.48108         2.69938        -3.74734
LJ           4.22107        -1.43816        -5.57753
LJ          -4.10195         1.28443         5.63827
LJ          -3.74022        -1.20902         5.50257
LJ          -6.05592        -1.66881        -2.91303
LJ         -0.273574         6.27833        -6.35308
LJ           1.73615        -5.05793         3.77736
LJ          -3.94326          1.8521       -0.884033
LJ            5.9709         3.12248        -4.05256
LJ          0.984552        -5.93491        -1.97695
LJ         -0.294803        0.878931        -5.49651
LJ           5.83399         -1.4752        -1.16644
LJ          -2.45018         5.30322        0.800697
LJ           4.25844         -3.7784         5.11264
LJ         -0.159564        -4.74158        -4.04699
LJ         -0.179493        -1.38773        -2.41427
LJ          -3.57291         5.77277         5.08552
LJ           1.89438        -4.18624         6.12241
LJ           -5.6352        0.179857         4.63121
LJ           3.09073        -4.62408        -4.37265
LJ            4.6448         1.02624         4.62233
LJ             5.875          4.2328         3.92708
LJ          -3.89334        -4.00492        -4.18348
LJ              4.59         4.57049       -0.507416
LJ         -0.427869        -6.20458       -0.311486
LJ             3.012          2.8849         3.37802
LJ            2.5824          3.5061           5.333
LJ          -2.13249      -0.0956727        -3.60872
LJ          -4.64988         3.67072       -0.705521
LJ          -4.60901        -6.35559        -2.83391
LJ          -1.73255        -1.71259        -5.16833
LJ           3.69858         5.75416         1.70283
LJ           1.32104        -4.70156        -4.45469
LJ           1.38041         -4.8645        -1.40681
LJ          -3.68576         2.64788         4.51749
LJ           3.85922         4.56012        -1.79957
LJ          -5.70626        -2.52956         3.80786
LJ             1.516         4.93026        -4.92221
LJ           4.63938         0.79302         3.01216
LJ           5.91916         5.37295         3.36786
LJ          0.767089        -1.02231        -3.16191
LJ         -0.988413         3.93573         2.44773
LJ          -5.79085        -4.37665        -1.71087
LJ           3.31691        -5.55146         -1.3121
LJ           2.71896        -5.10834        -5.95758
