108
#Comment!
LJ           2.30826         1.33502         1.73614
LJ           2.67667        0.777781        0.755271
LJ          -2.54346        -1.10306        -3.19707
LJ           5.96659        -4.18858         -1.0339
LJ          -1.89976         -5.8546         1.56662
LJ           5.94764        -3.21572        -4.39931
LJ          -4.38445        0.296244        -3.64272
LJ           6.03943        -4.65708        -2.03296
LJ           4.36642         3.78683        -6.03205
LJ           4.78277         5.76644         1.34506
LJ          -1.82139          1.8907         3.30519
LJ          -5.04839        -4.36617         4.90717
LJ          0.381253         2.46787       0.0720918
LJ            3.3241        -2.81278         3.99628
LJ          -1.78387        -1.66311        -3.62191
LJ          -1.97313         -5.1721         4.59411
LJ          -3.80123        -3.80062        -2.49287
LJ          -3.85895           2.947         2.24373
LJ           5.51462       -0.926906        -2.87772
LJ          -1.52009        0.725561        -3.13151
LJ          -4.56756        -3.64217         -4.9879
LJ           3.92295         5.32032        -3.00995
LJ           5.83626         5.15011         -6.1814
LJ          -4.29822         1.94991        -1.48062
LJ           2.85619         5.85712        -5.50321
LJ          0.242381         3.94109       -0.496397
LJ          -5.28336        0.217519         4.69102
LJ          -3.22362         3.37048        -6.04461
LJ          -4.75561         -5.6157         4.76801
LJ           1.17797         4.14256         2.06699
LJ          -3.01274         1.32558         -4.9053
LJ          -4.50133         5.05199         6.30781
LJ           -0.7763        -3.15032         6.10947
LJ           3.91138        0.450327        -0.12019
LJ           5.43268        0.770726        -2.64992
LJ           5.53254         3.37848         3.16449
LJ           2.92089         2.39172       -0.236757
LJ           1.26589         1.23551        -2.26078
LJ           -3.4857        -1.25154         1.37368
LJ          -5.03886         3.46408        -2.40971
LJ           5.01898        -1.03607         5.23725
LJ           5.17476         1.59759        0.760559
LJ          -2.76914        0.125124        -4.69091
LJ          -0.05308        -5.71009         4.62761
LJ           1.46902       -0.148265         1.93987
LJ          -5.16659         1.84856        -4.67731
LJ           4.20719        -3.99597         6.36691
LJ           5.92366         1.80283        -1.01864
LJ           -5.3294          4.3418         5.46785
LJ          -2.45137        0.806175         4.09733
LJ           6.45124       -0.883673        -4.53155
LJ          0.666389          5.4219        0.955019
LJ           4.08767         2.43775        -5.25484
LJ          -5.58463         5.04718        -3.34317
LJ           5.95326         1.84631        -3.82002
LJ           1.24698        -3.60163       -0.261172
LJ           1.88839        -4.78141       -0.551004
LJ           5.04417        0.313476           2.414
LJ           1.63891       0.0826861        -5.60465
LJ           4.19798         4.27949         1.35588
LJ           0.89966        -1.97716       0.0359597
LJ          -3.13475         3.71864        -1.59476
LJ          -3.52668           4.258        -3.11096
LJ           4.15255        -2.08039        -6.30381
LJ           2.09607          3.7712        -1.58537
LJ          0.183856        -3.39358         4.81183
LJ           1.22779         5.89527         3.24557
LJ           1.47148        0.192795        -1.43902
LJ          -2.98759        -5.19528         3.04559
LJ          -2.75579         4.83187        -3.45978
LJ          0.928889         2.45738        -4.49786
LJ          0.700038        -5.51512      -0.0585119
LJ          -6.32857        -5.60011        -3.24717
LJ           6.27104        -3.95046         -3.1547
LJ          -2.86271          1.4857         1.16216
LJ          -5.04407         1.19579         -1.8618
LJ         -0.859675         -2.2572         1.49162
LJ           4.24605        -4.82998       -0.472611
LJ          -3.25036        -3.47229         5.20687
LJ           6.19676         2.44925        -3.00043
LJ          -4.22247        -3.28389         3.24784
LJ          -4.66511           -4.68         6.27325
LJ           1.24313       -0.757127         4.55344
LJ          0.509596       -0.424941         5.81626
LJ           3.66444         2.34685        -6.14943
LJ          -3.46546       -0.971094        -2.35852
LJ           5.79163        -2.99815         2.11773
LJ          0.185076         -1.2582         4.60367
LJ           2.85669        -4.86133       0.0493996
LJ            4.7944        -4.62644          2.4289
LJ          -5.22423        -3.46223        -2.73853
LJ           -3.9236         -2.1523        -3.02547
LJ          -5.18867         2.69605        -1.45266
LJ          -5.21177        0.323111          3.1394
LJ         -0.727312        -0.86365        -3.80686
LJ           3.07288      -0.0612618        -5.13749
LJ           5.35209         4.10569         2.25797
LJ          0.527416         2.66043         3.38229
LJ          -1.96451        0.408285       -0.654725
LJ           3.63785        -2.56007        -1.42628
LJ          -4.86874        -2.54761        -3.69019
LJ            1.7342        -2.81881        -2.93233
LJ           3.02381        -5.04062         -1.1553
LJ         -0.723837        -1.17893         3.06335
LJ          -4.89076         1.34519        -2.86618
LJ          -2.08207        -2.47752         2.62775
LJ           6.43459         0.94216         6.24655
LJ          -5.88326         0.90121        -3.20322
