108
#Comment!
LJ          -2.42874         3.66066         1.07695
LJ          -5.26995         3.40315        -5.42795
LJ          -5.54995         5.95312        -6.24587
LJ           5.84658        0.640091      -0.0247471
LJ         -0.949907        -3.15504         3.66941
LJ          -3.86538         2.09914        -3.47574
LJ           6.43304         3.30289         1.74612
LJ          -2.30032        -3.55682        -3.90779
LJ          -1.12714         3.11558        0.860555
LJ          -2.09243         3.03866         2.98813
LJ          -1.85502         1.47621        -2.06761
LJ         -0.763495         3.57301         2.91054
LJ         0.0605712        -5.76725        -2.72506
LJ          -3.19535         1.81274        -1.90305
LJ          -5.33212        -3.17079        -2.87711
LJ           1.39438          3.1515        -2.55956
LJ          -1.38113         1.10441         5.71301
LJ          -4.79528         3.54343        -2.36999
LJ           5.44159       -0.696135         4.35659
LJ          -1.01577         3.93421        -4.05772
LJ         -0.138335        -1.12407         3.09544
LJ          -2.70894        -3.99648        -5.49216
LJ          -1.67312        -6.44703        -4.74474
LJ           4.93385       -0.317647         0.17738
LJ          -5.94892         4.25173         1.08153
LJ           2.22764        -5.04338         3.10376
LJ          0.394964        -6.09979        0.240242
LJ           2.70881         5.26151         4.88066
LJ           1.85098        -2.60103         4.04626
LJ           6.38636         1.95982         2.72988
LJ          -1.17419         1.25676        0.365947
LJ           6.38355        0.561715         1.05751
LJ           3.48089         2.28584         1.99991
LJ           1.71905         6.37733         6.03848
LJ          -6.42698         4.80431       -0.774245
LJ          -2.22756       -0.965875        -5.38655
LJ          -5.83044         2.97172        0.302732
LJ           4.01455         4.09433       -0.340363
LJ          -3.74818        -4.65807        -4.81189
LJ           3.74345         2.48541        -1.95685
LJ           6.31321         6.42134         3.23307
LJ           3.55759         6.18183         4.65002
LJ          -3.30074         3.83451        -4.43914
LJ           3.46441         4.41259        -3.03973
LJ         -0.212755        -3.66216         5.68917
LJ           2.95049       -0.654492         3.58503
LJ          -6.42562         6.18481         6.05397
LJ            2.2993         4.46788         1.48066
LJ          -2.28323        -6.35225         4.47961
LJ           6.43528         3.34641        -2.89432
LJ           4.28672        -5.32349         2.27058
LJ          0.513251         3.29928         2.49693
LJ           1.35134         1.45771         1.23941
LJ          -1.52288        -2.39785        -1.41355
LJ          -5.36642         3.59015        -3.48923
LJ           4.55786        -6.15517        -4.75922
LJ          -5.91558         5.62982         2.99962
LJ          0.118761         6.38404         4.76493
LJ         -0.886043        0.540135         3.26686
LJ          -2.75102         5.95713        -5.77251
LJ           5.43698       -0.839493         5.93446
LJ          -1.12922         4.07158         3.72012
LJ          -2.87474        -1.20414        -1.62724
LJ           2.39351         3.39842         3.89322
LJ           4.57366         5.51172         3.73423
LJ           1.41392         3.10908         2.07739
LJ          0.194495      -0.0995218         5.06674
LJ          -2.02368         6.40197        -2.56737
LJ         -0.136112         3.30226        -4.54282
LJ          -5.50399       -0.396181        -2.98045
LJ          -1.20766         1.72687        -5.32031
LJ           1.84321         1.32864         -1.1628
LJ          -2.32937        0.167037        -2.73652
LJ           1.60655        -1.33556        -0.46208
LJ           2.21516        -3.50113        0.754698
LJ         -0.149492         -3.2303         1.85872
LJ           5.70413          4.0472         3.41786
LJ           2.14062       -0.500798        -5.67831
LJ            5.0722        0.523995         4.08163
LJ           2.65512        -3.03453        -1.94851
LJ          -3.85017        0.192586         6.04388
LJ           5.17493         5.02314        -5.97981
LJ          -6.15153         4.29098         2.45532
LJ          -6.30479        -6.44539        -3.46734
LJ          -1.16361        -5.78498        -2.66362
LJ           4.70169        -3.40045        -3.93405
LJ          -4.60049       -0.634843         4.29732
LJ          -1.10225         2.42236        0.179328
LJ          -4.07076        -4.66294         5.65051
LJ           4.10387         3.17068         2.76975
LJ           2.27973        -5.43595        -1.72403
LJ          -1.09228        -5.60381          1.7181
LJ          -4.21594         4.16795         5.70192
LJ            0.2949        0.482922         6.07595
LJ           5.65766          1.8971        0.239706
LJ          -3.82007        -5.76327         5.14741
LJ           5.61124       -0.237893         2.95541
LJ          0.897543        -3.52985         3.70076
LJ          -1.02356        -2.44422         4.73192
LJ          -2.89227          4.7194        -5.51526
LJ           4.37239       -0.349747        -3.51354
LJ           3.91515        -4.98937         1.40964
LJ          -4.42105        -1.43681       -0.941223
LJ          -4.22418        -1.56599        -2.50333
LJ          -1.04667         4.66923       -0.388286
LJ           5.53508        -1.91195        -2.69679
LJ          -3.62516        0.124741         4.76341
LJ          -1.24024        -1.45979        -2.94004
