108
#Comment!
LJ           -3.4602         3.00825        -1.71462
LJ           3.87344       -0.560773         2.01641
LJ          -4.16022        -3.20053         3.90163
LJ          0.849359       -0.687299       -0.169258
LJ           -5.3978         1.59267        0.876009
LJ          -1.27498         1.18428        -1.87322
LJ           3.99173         6.41821        -5.13332
LJ          -5.08381         2.12829         5.59831
LJ          0.948476        -1.35131         4.28592
LJ           2.45386         -2.0795        -6.17894
LJ          -2.29217         2.93956        -3.54292
LJ          -1.39855         2.38463        -2.73013
LJ          -1.27618         3.92717         3.15667
LJ          -6.22555        -5.05085        -4.02007
LJ           3.08239        -3.84259         1.78951
LJ          -3.77208         2.06725         3.66801
LJ          -6.31914        -2.64996        -1.35167
LJ         -0.131226         6.28559         6.44271
LJ           5.78428         -3.7234         3.69278
LJ          -5.37782         2.48543       -0.337752
LJ           4.63873        -4.66904         -6.4159
LJ           3.46482         3.70081         -5.5173
LJ           2.38453        -1.23589        -4.62768
LJ         -0.482259         2.29761        -5.31007
LJ           6.42252         2.15496         1.35077
LJ          0.379706         3.14264          5.3415
LJ          -5.77253       -0.668982        -5.16211
LJ         -0.696377         -1.8581         4.43132
LJ          -4.41381         2.38509        -1.55132
LJ         0.0405157        -3.55545        -4.06608
LJ          0.847752       -0.157145         -2.6461
LJ          -3.18475       -0.527785         2.49159
LJ         -0.671226         2.37702         0.16349
LJ          -3.72992         3.65114       -0.527547
LJ            6.1011        -5.17977         2.28757
LJ          0.421129        -4.38085        -5.08999
LJ          -1.70311        0.815154         1.83063
LJ           0.39912         -4.5069         2.59298
LJ           1.57361         4.54811       -0.339741
LJ           6.19778        -3.33987        -2.45522
LJ           4.86144         2.20979        -1.40408
LJ           6.43753         -5.7363         3.23826
LJ           4.46765        -1.58815         2.08907
LJ           5.96924        0.602225         3.03035
LJ          -1.61245         4.48404         4.36545
LJ           5.53235         4.43094        0.194457
LJ           1.13793        -2.80954         3.41732
LJ           2.59236       -0.685826         3.60567
LJ          -3.77436         4.46545        -3.84157
LJ          0.123462         1.13953         4.08118
LJ           3.97828        -4.16937         5.49521
LJ          -1.44177        0.231603         2.85425
LJ          -6.04325        -2.19333        0.136129
LJ           5.52084       -0.530491        -2.35094
LJ          -5.49153        -5.53457        -2.02685
LJ          -5.47599         3.16917        -2.09395
LJ           1.64904        -4.26898        -3.03499
LJ         -0.793137        -3.49407        -4.65276
LJ          -4.63276         -2.4501         2.08742
LJ         -0.627034        -5.64847        -4.07918
LJ          -5.31826         2.15238         3.29125
LJ          -2.56358         2.69996           5.404
LJ           5.68444        -1.54097        -4.13109
LJ           5.94371        -5.42962       -0.498842
LJ          -3.79591        -3.09602        -5.96059
LJ           1.26843        -1.70809         1.38018
LJ           5.87775        -1.86571       -0.313571
LJ          -3.11025         4.19492         1.47872
LJ          -4.63986          5.5759         3.82521
LJ           1.86952         3.16593         4.67497
LJ          -2.90539         4.05021        -1.41483
LJ          -6.35351         2.31446         5.58406
LJ         -0.572059        -4.21314        0.114489
LJ          -1.35778        -1.72896        -5.51137
LJ          -2.23604         3.56398        -2.45017
LJ          -2.11158        0.122291        -3.54738
LJ           5.06944         3.89543         5.35673
LJ         -0.928751         3.10908        -4.90847
LJ          0.612019        -1.68306        -2.71629
LJ           -6.3842         3.38656         1.64133
LJ          -3.23993        -2.67257         3.67328
LJ          -5.70334         2.08471        -4.84202
LJ          -1.40838        -2.86998         2.65765
LJ           3.65819        0.548895         1.99028
LJ          -6.45492         4.18686         4.75472
LJ          -5.23296         1.22223        -5.51999
LJ           5.15116        -4.84409         3.71514
LJ           4.77475        -4.33078         4.92958
LJ           2.98054         5.75893         2.47571
LJ           6.30496         3.96631         3.10703
LJ          -6.11184        -1.06704        -4.23987
LJ          -5.61636        -3.63442        -5.78155
LJ          -5.96982       -0.047721        -2.40817
LJ           1.63247         -3.5729        -4.48191
LJ           5.52443         4.89387        -3.27136
LJ           2.83168        -3.68709         5.10222
LJ           3.60169         2.77714         3.90114
LJ          -3.79321         2.57863        0.445498
LJ            3.0945         5.22347       -0.392434
LJ           4.36004         3.23241        -5.56758
LJ          -3.51756        -6.14827        -6.02558
LJ           5.98487        -6.24816        -4.41996
LJ          -3.52245         4.64413        -6.24897
LJ         -0.992897       -0.234719       -0.773148
LJ         0.0988353         2.16626        -2.62199
LJ          -6.35844        -5.03951         4.01727
LJ           1.84969         4.02902          3.7072
LJ          -3.23608         5.15401         1.62558
