108
#Comment!
LJ          -3.37332         -3.9204         2.32422
LJ          -2.06295          3.4706        -5.34891
LJ          -6.21659         -4.7536         3.66739
LJ           6.18054        -2.59426        0.747992
LJ           5.05564        -4.15271      -0.0343759
LJ            5.3523        -4.03384        -1.22654
LJ           1.87268      -0.0633766        0.328592
LJ          -5.61068        -5.38018        -3.41453
LJ          -1.35026         3.68633         4.29253
LJ           2.62778          1.7602         1.62226
LJ          -2.23783        -1.59299       -0.267048
LJ          -3.34361        0.854402         5.39223
LJ          -1.02212          4.0212          2.8264
LJ           5.77917         3.44684        -5.07986
LJ           -1.0043        -3.88381         5.04057
LJ          -1.80087        -5.76506        -6.09743
LJ          -3.07992        -0.12583         1.59647
LJ          -3.77842         3.98098         1.43008
LJ          -1.12728         1.24525        -6.25857
LJ            4.9582        -1.14494       0.0284591
LJ           6.00119        -3.04381         1.77203
LJ          -2.80101        -4.72506        -3.83017
LJ          -2.46078          1.3891         1.77765
LJ          -5.39796         -4.0439         4.49479
LJ           5.28025         4.09228         3.37217
LJ           1.71228         3.99175         1.46195
LJ          -1.69567         3.04579         6.38968
LJ          -5.76654         3.75308         1.88025
LJ          -3.37416        0.959573         0.65745
LJ          -5.11777          4.2107         -1.4939
LJ          -4.09964        -1.13233         5.10778
LJ          -4.93941         1.99855         5.48633
LJ           2.49653        -5.12491         1.88605
LJ          -4.18493        0.153924         1.84007
LJ          -1.18973         4.36483       0.0566205
LJ          -5.29605        -5.86723       -0.973036
LJ           -2.6125        -2.57526       -0.134228
LJ          -2.63288         3.43494          2.0224
LJ          -3.35308          4.7964        0.743914
LJ           4.34191         3.33101         2.88606
LJ           2.56405         5.16048        -3.30709
LJ           1.89624         1.04324           2.133
LJ           5.25878         -6.0524        -4.87513
LJ           -5.4684       -0.395439        -4.45197
LJ         -0.639338         3.15884        -1.95395
LJ           1.21417        -3.36974          5.6532
LJ           2.58573        -1.96452         1.10493
LJ           2.33928        -5.82278        -3.88209
LJ           2.41582         4.52407        -2.63226
LJ           -2.7879         2.71617        0.148056
LJ          -5.77937         1.44243        -4.08718
LJ           3.47423        0.728267        -4.30005
LJ           5.50333        -2.46094         -5.1295
LJ          0.789826        0.727807         4.63124
LJ           1.23555        -5.94797        -3.34204
LJ           6.01826        0.700302         1.68575
LJ           2.88314        -1.27951          2.1906
LJ           4.32507        -1.83076         5.98795
LJ           3.19111         4.90583         5.62384
LJ           2.53731        -2.61162       -0.446272
LJ          0.959162         0.31156        -5.28603
LJ         0.0437043         3.12364         4.44732
LJ           3.36623         4.84957         1.48823
LJ           5.99166          5.0882         2.80067
LJ           4.60478         -3.5073        -4.10678
LJ           3.56275         4.02489         2.64039
LJ           3.24998        -6.37831        -4.90951
LJ           1.71283         5.75381       -0.543833
LJ           4.99902         5.16867        -4.03536
LJ          -5.97089         6.22309       -0.149949
LJ         -0.182519        0.170395         2.20343
LJ           4.68666        -3.96341         -2.2421
LJ          -5.69258         -3.8327         3.04988
LJ           -4.3527        -5.71474        -1.30997
LJ          -3.59275        -4.18501        0.818413
LJ          -1.09403         5.53796        -6.28345
LJ           1.40362         2.54524        0.578104
LJ          -3.87488         2.07855        -3.53753
LJ          -3.95266        -4.91505         5.12348
LJ          -6.19262         6.44199         1.98693
LJ          -4.67349         2.34252        0.268276
LJ           2.28519         5.31063         4.16501
LJ          -5.99528          4.3411         2.71448
LJ          -6.45106         2.82317        -5.56893
LJ          -6.38388        -3.23345         2.50178
LJ           5.93643        -3.39248        -2.24152
LJ         -0.371073         4.93355        0.997733
LJ          -4.50197         3.12013         1.43834
LJ           5.91598         3.90333         1.49194
LJ           4.79135         5.69854         2.52289
LJ           5.74968        -4.61758         3.06297
LJ         -0.328336         5.18846         5.85812
LJ           2.45879        -2.68893        -6.23766
LJ           6.10851         1.94672        -1.11998
LJ          -5.37392       -0.565607        -2.29805
LJ            5.2527         -5.9204         1.45476
LJ          -2.38644        -4.00347         4.81752
LJ           -5.9965         6.30228        -5.58989
LJ           1.24741         1.49834         6.43635
LJ            5.3722         1.28233       -0.949293
LJ           3.94626         4.40244       -0.643621
LJ          0.335365         1.49388         3.50108
LJ          -6.05272        -3.13218         -5.0975
LJ          -2.89297        -2.57609         6.03649
LJ           5.71933         2.25041        -4.20511
LJ          -5.37734        -5.57411          6.4493
LJ           2.61043        -1.99222          4.1131
LJ           5.09552        -3.54518        -5.55592
