108
#Comment!
LJ          -4.50503     -0.00310423         5.53587
LJ          -1.46628         4.06934        -5.49553
LJ          -5.13562          6.2797         5.08095
LJ           2.28459        -5.59703        -2.38622
LJ           1.81777         1.97209         4.03993
LJ          -3.55208        -4.02853         2.89499
LJ           5.40003         -3.5166        -1.44652
LJ            2.1673       -0.435825        -2.89946
LJ          -2.28005         3.15026         3.58062
LJ          -3.19368        -4.26355       -0.133521
LJ           2.25917        -1.51911         2.82985
LJ         -0.589014         4.47287        -5.80234
LJ           1.37059        -6.09247         4.80543
LJ          -0.34709         2.83605         6.44796
LJ          -4.13035        -5.76383        0.339213
LJ          -6.13001        -5.77821        -1.22731
LJ          -1.88285        0.491025        -2.86296
LJ           3.50965         6.01128         2.92131
LJ         -0.103657         3.45704         -4.8066
LJ            4.2279        -1.84648        -2.94386
LJ           4.29146        -2.82685        -3.65827
LJ         -0.622463         5.45499        -2.71055
LJ           5.80612         5.37739       -0.190635
LJ          -3.17625        -2.52306       -0.610321
LJ           5.76763           4.488        -4.24736
LJ           2.42557         5.79776         4.47346
LJ            5.2139         -2.2643         6.40571
LJ           5.48381         4.49395         6.08445
LJ          -2.05502       -0.345326        -1.70871
LJ           4.59354         4.35742         2.77348
LJ          -4.45279         4.37844         6.15009
LJ          -6.05487         1.49261         -5.0307
LJ          0.997676         3.66727         1.42139
LJ          -2.39056       -0.140545        -4.31309
LJ           1.59069         3.47651         6.19327
LJ           1.38946        -6.40738        -1.11794
LJ          -4.35943          1.1294        0.615556
LJ          -3.82294         4.71506        -1.18294
LJ          -2.90696       -0.119254       -0.525747
LJ          -5.79396        -1.25433        0.813976
LJ            1.6967        -4.39374         3.11298
LJ           1.14683       -0.573663          6.1864
LJ          -5.53096         4.18875        -2.77095
LJ          -1.55257         6.12456          2.2012
LJ          -5.62456          -2.171         -2.4544
LJ           1.85001      -0.0609046         1.52304
LJ            2.6798        -2.49123         -6.0025
LJ           1.57938        -4.33524        0.548107
LJ           1.35111        -3.61573        -2.40559
LJ          -5.97988         1.75123          5.1761
LJ           5.71489        -4.41036         2.38215
LJ           4.72522        0.167304        -6.11355
LJ          -1.90207        0.250316         1.78689
LJ          0.295235         2.28872       -0.123431
LJ           1.66818        -2.76389        -1.13737
LJ          0.491996        -5.61116         3.51376
LJ           2.29885        -3.82912        -5.79741
LJ           5.16165        0.333557        -1.17348
LJ        -0.0732176        -3.97984        -4.02799
LJ         -0.195978       -0.918394       -0.727576
LJ           -4.4479        -5.97213        -3.30689
LJ           5.57675         4.91886        -2.79166
LJ          -0.97331          5.2913        -1.68587
LJ          -5.45396         -3.3054        0.502448
LJ          -3.50841        -2.19247         5.07132
LJ           1.70878         1.00678        -2.55255
LJ          0.240835       -0.993023        -3.05057
LJ           2.54147        -3.42429        -2.67168
LJ          -2.12495          4.8931        -3.06334
LJ          -2.06117         6.11343        -1.60801
LJ         -0.990342         2.77514       -0.666471
LJ           4.80847        -6.28149         -0.0273
LJ          -4.86098        -5.55797         1.77152
LJ          -5.30506        -2.49376        -4.90245
LJ           -5.1131         1.87526         2.94237
LJ          -6.12999         3.80511       -0.185881
LJ           4.04213         1.37268        -6.07475
LJ          -1.29686        -1.65325         6.05477
LJ          -3.92599        0.282026         4.61323
LJ           2.87579        -3.55187         2.45168
LJ          -2.84996         3.40545         0.38536
LJ           5.81678         -5.6833       0.0350956
LJ           5.47624         6.42946         2.57735
LJ           3.09754         3.97606         -6.1178
LJ           5.23857         -3.7425         3.52598
LJ           5.46031         1.68539       -0.332764
LJ          -3.82093         1.40595         3.72587
LJ           4.64984         1.92195        0.857488
LJ          -6.23572         2.33999        0.795305
LJ           -4.6494         5.07013         5.43363
LJ           4.21811         -4.8667          4.0865
LJ          0.528838        -2.88987        -3.35117
LJ           3.98459        -3.73028         2.34618
LJ           5.02463         2.30527          1.7577
LJ          -2.10987         5.53218         0.63422
LJ           3.54937        -4.47033     -0.00924671
LJ           3.60712         4.26213        -1.70172
LJ          -4.19863        -5.99745         4.28402
LJ         -0.511208         4.03454         5.72905
LJ           2.06575         2.19858       -0.412343
LJ          -1.99215         2.49013         2.38287
LJ          -3.44016         3.61614         1.58388
LJ           2.23178         3.09062        -2.93259
LJ          -2.34597        0.576896        -6.11584
LJ           3.87167         6.28273         4.62909
LJ           6.16581       -0.671406          3.0307
LJ          -2.84303        0.636952         3.20407
LJ           5.88798        -3.05634          6.1257
