108
#Comment!
LJ           3.35023          3.5146         2.18573
LJ          -1.90929         1.49159          3.8543
LJ         0.0678037       -0.172401        -1.46321
LJ          0.228999      -0.0224425        -6.33802
LJ          -2.24482         4.57824         -1.2873
LJ          -4.84796        -6.02084         3.05801
LJ          -1.84676        -4.66096         -2.8066
LJ           2.58401        -6.09806         1.48821
LJ         -0.402502         5.63872         5.90637
LJ           2.97413        -3.75707        -5.92951
LJ           4.21358         5.54142         5.77277
LJ           4.39081         2.18632        0.539803
LJ          0.104342         2.99421          -4.797
LJ           1.24644        -1.03181         5.26804
LJ           2.23349        -5.19358       -0.706513
LJ          -4.93656        -3.95769        -2.75377
LJ         -0.838854        -3.01778        -1.54446
LJ          -6.24365        0.956415         3.87682
LJ           1.69014         1.05557        -1.56871
LJ           1.47126         1.32645          1.8608
LJ          -2.17616        -3.91854         1.79315
LJ          -2.71068        -1.72463         4.42605
LJ          -4.78492        -1.47377         1.96088
LJ           1.01889         4.37646       -0.123256
LJ           3.27765        -3.42894       -0.845183
LJ           -3.4796         2.57359         -4.5414
LJ          -5.51289         4.38992        -5.89126
LJ          -4.64378         4.04168         4.02066
LJ           3.22721        0.780876        -3.08339
LJ          -4.56955       -0.103479        -1.65893
LJ            3.5955        -2.61169         5.98475
LJ          -6.27321         3.59699         2.46579
LJ           5.12238         3.11967         5.37535
LJ          -0.75843        -1.99428        -3.12961
LJ           5.00411         1.23562        -5.36195
LJ           1.90265        -1.35836        -3.51043
LJ           6.26566         4.50352        -1.98518
LJ           5.55917        -4.33454         4.21213
LJ         -0.753791        -4.76727         1.76465
LJ           -5.5916        -3.35546         5.14607
LJ          0.640495          1.3463       -0.552424
LJ          -0.62194        0.296035          4.5717
LJ           -1.2161       -0.745218         4.36533
LJ           3.13423         4.75699         3.83654
LJ           -6.3153        -4.53268         6.00996
LJ            4.7223        -3.17017         3.20603
LJ           2.03008         5.70871         1.97354
LJ          -1.48878        -5.71656        -5.95498
LJ           4.45335         1.30083        -1.07973
LJ          -1.60156         1.50297         6.41847
LJ          -4.62249         6.19916         4.33985
LJ           1.83501         3.34497        0.996588
LJ          0.799372        -5.15172        -1.16394
LJ            5.1345        -3.32665        -2.39186
LJ          -4.98415         4.71347          3.3097
LJ           -2.8669        -1.62707        -2.66517
LJ          -3.57144         4.42249         1.64103
LJ           6.06067         4.29767       -0.870528
LJ           3.85465        -5.71797         5.27416
LJ          -3.51675        -3.58662          2.7707
LJ           1.79991       -0.946161         2.80098
LJ          -5.17923        -2.57597         2.45399
LJ          -6.30682        -3.56182          4.4795
LJ          -5.23816         1.75239         2.34979
LJ          0.866439         1.07637        -4.26054
LJ           2.69716        -5.31778         4.68911
LJ           5.69091         5.35111        -2.38483
LJ          -6.15373         1.29867         5.49025
LJ            3.9352        -2.23208        -2.37433
LJ          -1.00903          4.3977        0.402579
LJ           5.27531         5.24855       -0.220997
LJ           5.35712         1.82888       -0.890168
LJ           2.20373        -6.29689        0.574273
LJ          -4.11698        -5.61869         6.44452
LJ         -0.798716         1.92999         3.62257
LJ          -4.12529        0.313919         5.58185
LJ          -2.53152         2.13785        -4.06572
LJ          -4.75936         5.35928          1.9149
LJ           4.56559        -3.23114         1.03881
LJ          -5.26538          5.8303         5.24942
LJ           1.26892        -5.69673       -0.127457
LJ          -5.45429        -5.53007         2.14442
LJ          -3.55176         3.72829        -3.33724
LJ          -1.68196         3.28888         5.06962
LJ           2.33453          5.3854        0.551052
LJ          0.609085         2.76495         4.71915
LJ           3.62128          2.0347         1.02054
LJ         -0.705986         5.94356        -1.58126
LJ           4.03793         5.89529        -2.54552
LJ          -3.38127         4.81695         6.06891
LJ          -4.74304         3.23708          5.8129
LJ           3.10533       -0.346685         2.17757
LJ          -4.60265         5.10844         5.88145
LJ           2.20237        -0.97103          4.0646
LJ          -6.33831         2.23381        -1.47353
LJ           5.86722         3.00235         3.38338
LJ          -1.45536         6.43034         6.06738
LJ           5.23677           4.527         6.35751
LJ          -3.43071        -0.67893          2.3475
LJ           6.07532        -5.24994         4.27184
LJ           2.79882         -0.7665       -0.288381
LJ           -5.7954         6.00951         -1.5658
LJ           3.66621         2.42166         3.64037
LJ          0.189955       -0.197031         3.25945
LJ          -3.68094        -2.58207         3.20227
LJ          -6.09663         -1.9915        -4.71377
LJ           4.22108        -5.96088         2.42672
LJ          -3.93961        -4.03473        -6.13317
