108
#Comment!
LJ          -3.54518         -4.5845         2.50482
LJ          -2.04787         3.76691        -5.30619
LJ          -5.54933        -5.31053          3.6346
LJ           6.22837        -2.87759        0.458123
LJ           4.59427        -3.45563        0.191703
LJ           4.51514        -4.11959       -0.803282
LJ           2.09119        0.279204        0.388479
LJ          -5.74314        -6.14708        -3.84683
LJ          -1.48513         3.45095         4.20838
LJ           2.92423         1.52283         1.21386
LJ           -1.7624        -1.73588       -0.099109
LJ           -2.7067         1.84666         5.38314
LJ          -1.05721         4.43812         3.34044
LJ           5.08699         3.69552         -5.1235
LJ         -0.928257        -4.25501          4.5206
LJ          -1.69519        -6.19037        -6.26564
LJ          -2.97979        0.277125         1.34147
LJ          -4.28505         4.05015         1.53729
LJ            -0.809         1.42906        -6.08034
LJ           4.86059       -0.985748        -0.35154
LJ           5.63683        -3.15756         1.40532
LJ          -2.98429        -4.83984        -3.71719
LJ          -2.99633         1.23863         1.54075
LJ          -5.17139        -3.97414          3.9838
LJ           5.47809         4.72575         3.63036
LJ           1.96873         3.35363         1.25637
LJ          -1.50826         3.27395         6.03128
LJ          -5.75785         3.37998         1.36525
LJ          -3.08689         1.02762        0.529109
LJ          -4.14721         4.31109        -1.33127
LJ          -4.12069       -0.651524         5.20149
LJ          -5.07991         1.93873         5.83406
LJ           1.85909        -5.35666         2.13175
LJ          -4.25715      -0.0686164          1.2139
LJ         -0.892087         3.85306        0.529785
LJ          -5.94674        -5.48835       -0.977142
LJ          -3.13915        -2.61793       -0.204785
LJ          -2.50966          3.4447         1.86686
LJ          -3.18769         4.87037        0.666104
LJ            4.5759         2.93184         2.24165
LJ           2.93059         5.92765        -3.60375
LJ           2.05555         1.12295         2.30461
LJ           5.32843        -6.33292        -4.61623
LJ          -5.18063        0.401209        -4.88329
LJ         0.0568549         2.63433        -2.01747
LJ           1.36674        -2.57961         5.08992
LJ           2.56192        -2.01209         1.49483
LJ           2.11173        -5.58912        -3.66742
LJ           1.98313         4.10066        -2.40069
LJ          -3.11394         3.72104        0.652465
LJ          -5.40638         2.22377         -4.3271
LJ           3.49734        0.235673        -4.54033
LJ            5.1214         -2.3844        -5.21537
LJ          0.844529        0.731284          4.1717
LJ           1.47133        -5.62797        -2.77731
LJ          -6.22379        0.151134         1.93274
LJ           2.89642        -1.43317         2.58931
LJ           4.66734        -1.71318         5.22426
LJ           3.35848         4.72997         5.74607
LJ           2.15957        -2.42332       -0.524028
LJ          0.489133       -0.243032        -5.10508
LJ          0.179524         3.38905         5.85008
LJ           4.12032         5.28656         1.53804
LJ           6.03498         5.34323         2.84584
LJ           5.35939         -3.6217        -3.92921
LJ           3.29706         3.45563         2.59416
LJ           2.95812         5.74844        -4.80377
LJ           1.90276         5.16414       -0.802819
LJ           5.39133          5.5301        -3.97849
LJ          -5.51624         6.28989       -0.581673
LJ         -0.257867        0.849846         1.77901
LJ           4.82093        -4.55111        -2.12813
LJ          -5.73576        -4.24079         2.82406
LJ          -4.40729        -4.97802        -1.26815
LJ          -3.69876        -4.77462          1.0572
LJ          -1.90174         4.96811         -5.9829
LJ           2.38286         1.81702        0.480107
LJ          -4.09607         2.32551        -3.91338
LJ          -5.22412        -4.55581         5.15209
LJ           6.09225        -6.07532         1.87344
LJ          -5.08706         2.54936        0.377441
LJ           2.51337         5.51893         3.75072
LJ          -6.28647         4.15391         2.31896
LJ           5.83653         3.04086        -5.87343
LJ          -6.35724         -3.1184         2.60925
LJ           5.95973        -2.72257        -2.00628
LJ        -0.0981567         4.62307        0.508834
LJ          -4.79623         2.99503         1.66365
LJ           6.09463         3.46319         1.87268
LJ           4.65095         5.83435         2.32929
LJ           5.40183        -5.20397         3.03319
LJ         -0.414358         5.55081         6.22956
LJ            3.5592        -2.51641        -5.96118
LJ           6.10194         2.45447       -0.615741
LJ          -6.22015        -1.46007        -2.73331
LJ            5.1048        -6.27476          1.9787
LJ          -1.83137        -4.29095         5.55318
LJ          -5.49032         6.21612        -5.86746
LJ          0.956196         2.15412         6.40761
LJ           5.05621         1.50774       -0.575563
LJ           3.32053         4.11491       -0.395696
LJ           1.11962         1.69836         3.68367
LJ          -6.22505        -4.03777        -4.69434
LJ          -2.90006        -2.31184         6.08106
LJ           5.39356         2.46631        -4.46225
LJ           -5.6461        -5.58203         6.39649
LJ           3.10696        -1.65148         4.23971
LJ           4.98581        -3.61843        -5.24616
