108
#Comment!
LJ          -2.28068         5.93284        -1.25727
LJ          -5.17023         4.23074        -4.74041
LJ          -4.94683         5.31324        -5.87759
LJ           6.07937        0.632572       -0.176373
LJ         0.0109443        -2.85233         3.24605
LJ          -3.99578         1.65455        -2.73245
LJ          -5.65909         4.20532         2.61148
LJ         -0.662356        -1.58632        -3.44715
LJ           -2.6565          3.6618         1.04792
LJ          -2.34975         2.76978         3.29698
LJ          -2.81262         1.42998        -1.91539
LJ        -0.0396959         3.75503         3.55045
LJ           1.87087        -5.24655        -3.04328
LJ          -4.21517         2.16769        -1.00339
LJ          -5.62264        -4.46785        -4.23809
LJ           1.73437         3.27476        -2.05446
LJ           -1.5839        0.500373        -6.19266
LJ           -4.4056         3.29035        -1.58438
LJ           4.32125        -0.63457         4.29746
LJ         -0.518733         5.24818        -4.46751
LJ          -1.94807        -2.47707         3.54614
LJ          -1.34764        -4.88119         5.81694
LJ          -1.09085         6.23849        -5.44401
LJ           3.92491         1.34988       -0.202298
LJ          -5.72389         5.14185         1.04383
LJ           2.86011        -4.65566         2.52299
LJ         -0.862368        -6.14657       -0.117497
LJ           3.88651         4.10502         5.36441
LJ           2.71521        -2.55354          2.5571
LJ           -6.0927         3.23094         1.82083
LJ          -2.68038       0.0865492        -1.88519
LJ          -4.00458        0.351725       -0.737257
LJ           1.31718         2.06995         3.24511
LJ           2.04669        -5.28955         4.71662
LJ          -5.45011         4.28595      -0.0876489
LJ          -2.47918       -0.360148         6.41824
LJ          -6.40234         1.59517         1.69729
LJ           4.30667         2.43569       -0.149013
LJ          -4.69791        -4.77625        -4.88185
LJ           3.86103         1.39319        -2.36586
LJ          -5.35083        -6.07744         3.47012
LJ           4.95222        -5.20468         3.96484
LJ         -0.793565         4.12803        -3.51031
LJ           2.23533         5.23677       -0.225856
LJ          0.193807         -5.1612         -6.2259
LJ           1.93821        -1.19348         3.19338
LJ           5.97319        -4.89719         5.44889
LJ           3.53414         5.41706         1.49652
LJ          -1.79184         -5.4024         2.57923
LJ          -6.01587         2.01017        -4.08233
LJ           4.17514        -4.33422         2.09843
LJ          0.951591         3.09967         3.06366
LJ           1.81122         2.15254         1.93477
LJ          -1.13054        -3.00845       -0.511828
LJ          -4.05342         3.83619        -3.14203
LJ           3.96969          -4.951        -3.61953
LJ          -5.88103          5.6291         3.70884
LJ         -0.431991         5.93683         4.74309
LJ           -1.5197       -0.685812         4.48684
LJ          -2.20212        -6.16986        -6.14037
LJ            4.7661       -0.597724         5.22822
LJ          -2.01597         2.38856         5.86158
LJ          -2.35961        -1.75376        -0.99223
LJ           1.35149         3.87765         3.59754
LJ           5.09413         6.05025         5.19475
LJ           0.91214         1.58808       -0.819741
LJ         -0.856402       -0.173488         5.34206
LJ          -3.48716        -4.63573        -2.37743
LJ          0.337372         4.72304        -5.19301
LJ          -5.15896        0.545206        -2.38745
LJ          -2.26858         1.69291        -4.78671
LJ           1.61167        0.283305        -1.93503
LJ          -3.00666      0.00625139        -3.29476
LJ           1.86403        -3.30438        0.310211
LJ        -0.0906256        -5.07739        0.226541
LJ         -0.739603        -2.18463         2.33884
LJ          -6.15771         2.73946         3.34545
LJ           1.94852        0.616778         -4.8023
LJ           4.12407         1.45863         4.23204
LJ           2.40578        -3.26667        -1.42023
LJ          -5.46458         0.30715         5.82197
LJ           4.71397         6.35329        -5.51592
LJ          -4.74462         4.52949         3.59507
LJ           -6.3488         5.77512        -4.47998
LJ        -0.0542853         5.92856        -3.59445
LJ           6.01087        -4.95342        -4.04064
LJ          -3.23347       -0.162734          4.0168
LJ          -1.98777         1.93802        0.647541
LJ          -3.74683        -5.11399        -5.68126
LJ           1.94222         3.08873         3.21318
LJ           1.47169        -5.47468        -1.95305
LJ         -0.775243        -5.06563         1.91976
LJ          -4.44956         3.69831         4.04503
LJ           1.31417       -0.244859         5.48545
LJ           5.63393         1.28962        0.549022
LJ          -2.33951        -5.11154         6.27468
LJ           5.87127        -1.11008          3.9854
LJ          0.593349        -2.73751          4.9448
LJ           -1.2952        -4.34471         4.02917
LJ          -2.78299         3.76361         6.38795
LJ           3.15438       -0.383012         -3.3904
LJ           3.03837        -4.53284        0.245739
LJ          -3.73617         -1.4441        -1.69225
LJ           -2.7516        -1.88529        -2.03858
LJ          -1.51486         3.95181         1.57416
LJ           5.66687        -2.88142        -5.35488
LJ           -5.5326         1.34861         4.28557
LJ          -1.35923       -0.434295        -3.09766
