108
#Comment!
LJ          -2.71153        -1.47073        0.930992
LJ          -2.50041         2.70607        -4.23644
LJ           5.09905        -4.92742         5.72308
LJ           6.40792       -0.543822        0.349754
LJ          -5.73337         6.17549        -0.99361
LJ          -5.17177         -4.8195        -0.84455
LJ           1.44566        -1.71603         0.32753
LJ          -5.31673        -1.98365        -1.42279
LJ         -0.172458         4.71121         4.32981
LJ           2.01433         4.05772         1.75274
LJ          -4.07881       -0.630041       -0.960113
LJ          -6.02692        -3.99051         5.21749
LJ          -1.88384         3.01495        0.520135
LJ          -4.41259         2.24991        -4.22738
LJ          -1.97168        -2.53939        -5.79882
LJ          -2.15725        -3.95879        -5.51276
LJ          -2.65343       -0.870312         2.76837
LJ          -2.49762         3.84384        0.298639
LJ           -2.6271        0.448067         5.73114
LJ           5.63846       -0.848591         1.54071
LJ           4.25201         -3.0211         1.32591
LJ          -1.94198        -4.28269        -4.34901
LJ         -0.621321         2.77948         1.71515
LJ          -5.56875        -3.54198        -6.00927
LJ           6.19983          2.1768         2.40277
LJ           1.05421         6.43277         2.22899
LJ          -2.00676         1.51033        -6.19728
LJ          -5.32596         5.21564         3.27016
LJ          -4.44416        0.585088         1.98527
LJ           3.42505         4.07271          -1.987
LJ           -3.4207        -2.57162         5.39152
LJ          -4.23194         2.31322         3.89906
LJ           5.36561        -4.02541        0.754105
LJ          -4.56579         1.14118         4.30793
LJ          -2.53125        -6.37186        -1.91113
LJ          -4.77834         4.58914        0.337031
LJ         -0.716001        -2.76879        0.322912
LJ          -2.21897         2.81839          3.4131
LJ          -3.74731         3.81622        0.706394
LJ           1.63137         4.93376         5.33308
LJ           2.30355         5.06758        -6.17915
LJ        -0.0341143        -0.18646         2.36888
LJ           4.82124         -4.8949        -6.20331
LJ           6.06104        -3.87635        -2.83336
LJ          -2.47156         3.77791        -1.20911
LJ          0.531769          -6.193        -4.65659
LJ           2.90657        -1.87117       -0.740591
LJ           2.78945         5.70455        -5.04403
LJ           3.81134         3.14736        -0.28318
LJ          -1.72572        -1.69752        -1.77489
LJ           5.40896        -1.59895        -3.33015
LJ           3.35498         2.95308        -3.30072
LJ          -5.10409         -2.0815         -4.5386
LJ          0.977402        0.371459        -5.87219
LJ          0.703463          6.2238        -6.20866
LJ           2.88509         2.90077         1.24511
LJ           2.45212       -0.972185       -0.139689
LJ           2.71754        -2.73175        -3.47135
LJ           2.60229         5.59066          5.0039
LJ           3.34588        -2.76172       -0.194433
LJ           2.95663         2.76326        -5.05896
LJ         -0.117981         1.02708        -1.49598
LJ          0.383453         2.67142         2.13414
LJ           5.62782         4.31463         1.64411
LJ           1.77084        -2.87001        -5.37089
LJ           5.33071        -6.29921         2.58731
LJ            4.1267        -2.76986        -4.76341
LJ          0.888193        -4.60588        0.619997
LJ           3.24855         3.67122        -4.36505
LJ           5.11701         -6.1043         1.27809
LJ          0.225765        -2.60303          4.2003
LJ           5.40526        -1.53489        -1.87235
LJ          -4.42879        -3.50059         4.59128
LJ          -3.43351        -6.39668        -2.52758
LJ          -2.93752        -1.40319       -0.149525
LJ          0.416942        -4.44456         -5.8125
LJ          -2.96386         5.70851         1.68864
LJ          -2.99344         0.94872        -1.49222
LJ            1.6391         -6.2227         4.88567
LJ          -3.98425         4.14298         2.75061
LJ           -2.9249         2.49906        0.717192
LJ          0.711149         3.99388         5.71751
LJ          -5.94749         6.02747         4.38232
LJ          -3.41989         1.38388        -4.20275
LJ          -5.74665           -2.99         4.38373
LJ           5.73413        -5.73576        -5.23814
LJ           -1.8813         5.78539         2.65281
LJ          -3.27723          3.1543        -0.15967
LJ           6.01369         5.68567         1.22596
LJ           5.65805         4.45405         2.78446
LJ           6.35417        -1.81134          2.5541
LJ           2.30027         3.41167         3.17385
LJ          -1.90015        -4.22909         5.27062
LJ          -5.82166         0.31334        -3.38317
LJ           -1.4213         3.04642       -0.384535
LJ           6.42473        -4.87966        -1.29837
LJ          -4.60678        -2.73492         1.73382
LJ           4.21725          5.7187         -3.5312
LJ            2.0384        -1.20017         5.16848
LJ           5.76752       -0.779661        -2.57584
LJ          -6.14093         5.42236        -1.85482
LJ          -2.91907        0.632961         3.14806
LJ          -5.99033         0.82058         6.33783
LJ          -3.55808        -3.42484         5.96704
LJ          -5.26606         1.80713        -3.76758
LJ          -4.29198        -3.92085         5.68266
LJ          0.408478        -3.55583         3.44746
LJ           5.44572        -4.04245          6.4316
