108
#Comment!
LJ          -4.53426        0.397393         5.39012
LJ          -1.39494         3.94178        -5.15974
LJ          -4.98819         6.12707         4.94384
LJ           2.55738        -5.51002         -2.2025
LJ           1.90503         1.74231         3.83671
LJ          -3.18373        -4.04451         2.72546
LJ           5.23802        -3.27969        -1.29225
LJ           2.29223       0.0400415        -2.90257
LJ          -2.14432         2.90141         3.21911
LJ          -3.52429        -4.29332        0.177256
LJ            2.2374        -1.87346         2.56155
LJ         -0.720202         4.51693        -6.08046
LJ          0.916064        -6.04513         4.60105
LJ         -0.130453         2.91502        -6.43533
LJ          -4.00522        -5.48367        0.515567
LJ           -5.8161         -5.9078        -1.61881
LJ          -1.92764        0.428205        -2.67198
LJ           3.72003         5.77451         2.79332
LJ       -0.00746061         3.38444        -4.74566
LJ           4.42299        -1.89837        -2.95197
LJ           4.30424         -2.8352        -3.42815
LJ         -0.888635         5.58511        -2.69312
LJ           6.06996         5.04575       -0.145298
LJ          -3.23682        -2.57167       -0.412043
LJ           5.74282         4.58184        -4.48774
LJ           2.43673         5.57428         4.23261
LJ           4.93354        -2.62306         6.21137
LJ           5.22314         4.55433         5.83527
LJ          -1.98453       -0.333496         -1.5607
LJ           4.26499         4.42015          2.5088
LJ          -4.42305          4.1564         6.11813
LJ          -6.22421         1.45595        -5.05793
LJ          0.818087         3.81552         1.64406
LJ          -2.68666       -0.274886        -4.11282
LJ           1.66775         3.54471         6.00582
LJ           1.55539        -6.28395        -1.08102
LJ          -4.41402        0.854075         0.66245
LJ          -3.75474         4.64976        -1.02419
LJ          -2.68054       -0.412713       -0.524673
LJ          -5.78962        -1.04606        0.732948
LJ           1.85404        -4.32692         3.45689
LJ            1.2066        -0.44568         6.01398
LJ          -5.63323         4.31694        -2.80682
LJ          -1.59257         6.03087         2.54143
LJ          -5.92255        -1.90403        -2.40316
LJ           2.23687        0.118528         1.72674
LJ           2.67503        -2.39246        -6.31157
LJ           1.55053        -4.24607        0.506851
LJ           1.19482         -3.1413        -2.57944
LJ          -6.22659         1.72556         4.91576
LJ           5.84573        -4.60567         2.78443
LJ           4.57949         0.15627        -6.04243
LJ          -2.05488        0.581667          1.6779
LJ          0.350177         2.14794        0.090631
LJ           1.82509        -2.84432        -1.22506
LJ          0.336966        -5.53311         3.70475
LJ           2.32993         -3.7171        -5.96115
LJ           5.16613        0.213921       -0.913105
LJ          0.117495         -4.3422        -4.29599
LJ         -0.412863       -0.943083       -0.724519
LJ          -4.21718        -5.70162        -3.39222
LJ           5.24869         5.01668        -2.55712
LJ          -1.33615          5.2697        -1.76991
LJ          -5.57039        -3.50166        0.593999
LJ          -3.57219        -2.38403         5.37103
LJ           1.87645        0.849894        -2.35632
LJ          0.354793       -0.761801        -3.07082
LJ           2.47585        -3.05459        -2.49319
LJ          -2.28981         4.99344        -2.98778
LJ          -2.26477         6.28353        -1.66505
LJ         -0.961011         2.81872        -1.01842
LJ           4.84587        -6.35435       -0.167382
LJ          -4.78489        -5.52015         1.75247
LJ          -5.30896        -2.38356        -4.63641
LJ          -5.03249         2.15852         2.91251
LJ          -6.14767          3.9912       -0.459751
LJ           4.29832         1.12715        -5.88589
LJ          -1.37285        -1.37757         6.22567
LJ          -3.42151      0.00224128         4.65439
LJ           2.94486        -3.47581         2.36134
LJ          -3.01454         3.28457        0.364528
LJ           5.70554        -5.68456         0.25681
LJ           5.57956         6.33865         2.50571
LJ           3.02139         3.85741        -6.02122
LJ           5.17582        -3.82468         3.58017
LJ           5.33333         1.78453       -0.553821
LJ          -3.58764         1.61813         3.40079
LJ           4.70282         1.90929        0.841024
LJ          -6.21865         2.23947        0.853612
LJ           -4.9504         4.98335         5.44854
LJ           4.44933        -4.58438         3.99767
LJ          0.582338        -3.09284        -3.35484
LJ           3.94824        -3.70486         2.58596
LJ           5.06623         2.49985         1.75785
LJ          -1.73714         5.74753        0.390073
LJ           3.52443        -4.73491       -0.119835
LJ           3.37447         4.48977        -1.93643
LJ          -4.17281         -5.9705         4.46853
LJ         -0.187021         4.13818          5.6909
LJ           2.29156          2.2786       -0.534631
LJ          -2.01058         2.40059         2.44033
LJ          -3.83896         3.62401         1.60458
LJ            2.5296         3.02084        -2.67453
LJ          -2.47044        0.452214        -6.18475
LJ           3.84371         5.93054          4.8045
LJ           6.17421       -0.873631         3.11002
LJ           -3.1663        0.495103         3.25687
LJ            5.9412        -3.30474         6.18101
