108
#Comment!
LJ          -3.64483         -5.8299          4.9718
LJ         -0.229744        -4.02369        -6.40739
LJ          -4.53332         2.65974        -1.72173
LJ           5.21944        0.317115        0.681426
LJ           0.43834        -4.92002         5.60967
LJ          -6.37379          -3.136        -3.29606
LJ          -1.67044        -6.05405         4.44061
LJ          0.333234        -6.39156         4.69119
LJ           6.13898         1.82239        -4.66075
LJ          -6.11773        0.406035         3.19976
LJ          -5.73478          1.5841        0.257147
LJ          -1.95691         2.55379        -3.20932
LJ           -4.9761        -4.59784        -5.73582
LJ          -6.09098         6.42789         2.48514
LJ           -0.1058         4.60838         5.73425
LJ           2.42715         3.90448        -1.17153
LJ           -5.9875        -2.91229       -0.610292
LJ          0.369475         2.86123        0.862817
LJ           2.08394        -1.40794          3.6382
LJ          -2.68498          -3.857         -6.2145
LJ           4.44789        -2.90526         1.46896
LJ          -3.15338         4.59684        -3.71542
LJ         -0.430285         -4.5307         4.81804
LJ           -3.1926         3.75395        -5.86378
LJ          -5.19294        -4.46728         2.96941
LJ           2.91891         -2.5931        0.857359
LJ           -5.1897         5.64621        0.195729
LJ           -4.0351         -1.8323        -5.73286
LJ           6.37318        -1.85842        -2.54817
LJ          -2.98409        -4.80085       -0.830733
LJ           3.82698         -5.7134         2.55876
LJ           -2.9947          3.2114        -2.33228
LJ           5.15457        -1.78956         -5.6463
LJ           2.90369        -1.08234        -2.81338
LJ           6.24693         6.02943         1.42747
LJ          -2.64153         2.57587            1.12
LJ          -5.42091        -2.43674        -2.61867
LJ          -5.45665        -3.33055        0.367036
LJ          -4.05518         5.28428        -6.13799
LJ           3.09016        -2.62152        -3.02049
LJ         -0.286581        -6.13148         3.91708
LJ          -1.86626         1.05405         2.65636
LJ            5.8414        -5.99392         2.16615
LJ            2.9189        -1.00086         2.79935
LJ           3.30661       -0.176963        -3.46955
LJ         0.0681599        -1.22496       -0.886665
LJ           4.53851        -3.54623      0.00624522
LJ          -3.79128        -3.48666         1.75763
LJ          -1.16899       -0.451109        -2.33784
LJ          -4.67576        -3.99626         4.46098
LJ           3.69659         2.31352       -0.926288
LJ           1.10738         5.29634         1.93326
LJ          0.711812         2.15305         5.16483
LJ         -0.719124        -5.84355         2.48843
LJ          -4.50718       -0.039865        -0.81757
LJ           1.38535         1.85875        0.204779
LJ          -2.59938         5.25208         6.22303
LJ          -1.93609         1.71336        -5.65849
LJ            6.4419        -2.82897        -5.61618
LJ           2.18351        -6.06198        -4.11432
LJ           2.11029       -0.394431         2.40995
LJ          -1.74163        -5.21051         -2.9086
LJ           1.84198        -4.99768         4.87625
LJ           1.83664         6.18261         2.03743
LJ            3.7385        -3.57637        -0.86172
LJ          -4.94338         1.71281         3.86077
LJ          -2.42618         1.40569        -4.33587
LJ            1.3334         2.64148        -2.24803
LJ           3.79683         2.39052          2.8797
LJ           6.24762         6.17917        -2.68765
LJ           5.71818         2.74572        -2.67862
LJ          -4.05822        -3.03226        -4.23542
LJ          -1.86098         1.61998        -2.13757
LJ           4.54599         5.07087         4.32491
LJ          -6.14312         6.26634       0.0772739
LJ           -1.7609        -2.26751         5.72867
LJ           -5.0862        -3.47119         1.53152
LJ          0.940507            5.79        -1.07133
LJ          0.252867        -5.91885        -6.41379
LJ           3.26533        0.539479         2.12227
LJ          0.658642       -0.548231         2.54537
LJ            4.2639        -4.06386        -5.17316
LJ          -5.07261        -2.16114        -5.48139
LJ          -4.08803         2.75844        -5.99585
LJ          -6.24485        0.750806        -4.48929
LJ           5.20125        -2.28123         -3.2004
LJ           2.66487        -1.29284       0.0287919
LJ           5.62802         2.73255        0.512267
LJ         -0.484245         5.90778        -3.44858
LJ         -0.711309         3.11444         4.38959
LJ           2.37936         5.04867        -3.62468
LJ           1.36184        -1.21805         2.89122
LJ           1.39359         3.20141        0.403611
LJ           5.13484        0.294913         1.86395
LJ          -5.75057        0.180173         2.01212
LJ           1.05618         -1.1614        -2.30806
LJ           4.09952        0.404602         3.94033
LJ         -0.992869        0.895597        -3.03455
LJ          -1.67401       -0.116638         1.76963
LJ          -1.10399          3.4144        -3.12028
LJ         0.0118925         1.17303        -4.94579
LJ          0.886549        -2.23258        -5.50993
LJ           4.39319        -4.83418        -2.54749
LJ           1.94845        -5.89164        -2.30939
LJ          -1.33661        0.371311        -5.14646
LJ          -1.64783         6.29404        -5.66635
LJ          0.457964         5.59022       -0.147194
LJ         -0.735634         3.05779         5.79686
