108
#Comment!
LJ          -2.23592        0.198534        -1.04733
LJ          -1.40639         2.14579        -2.62659
LJ            5.7539         -5.4681         4.22297
LJ            5.7153         1.25065        0.656658
LJ          -3.96677         4.55972       -0.894903
LJ          -3.95589         -6.0428       -0.384306
LJ           2.53537        -2.88337       -0.370032
LJ          -5.96522        0.231815         0.79974
LJ           0.68292         6.14609         4.54409
LJ           1.41734         6.14731        -1.14596
LJ          -4.21665        0.623323        -1.66045
LJ             6.177         4.51278         4.75553
LJ          -2.08134         3.80458        0.531268
LJ          -2.78778       0.0727404        -4.27988
LJ          -2.48782         -1.3948        -4.96076
LJ          -2.61449        -2.49284        -6.31345
LJ          -2.74267        0.270641         5.12468
LJ          -2.70394         4.22137       -0.331993
LJ          -3.81763       -0.464432         4.61058
LJ          -6.10385      -0.0795597         1.85341
LJ            4.3137        -4.24714          2.9083
LJ          -1.10375        -3.96751        -3.83039
LJ          -1.54543         4.71071        0.800428
LJ          -5.15465        -3.31385        -4.50498
LJ          -5.06632         1.85189         1.58788
LJ          0.255259        -4.35375         2.94847
LJ          -2.36554        0.311138        -5.95559
LJ          -4.30086        -6.03312         4.20517
LJ          -5.87848         1.36802         2.49896
LJ         -0.105743         3.77022        -2.62398
LJ          -1.28689        -1.86059        -6.15649
LJ          -4.39175          1.3673         3.48733
LJ          -5.05532        -2.33348       -0.287942
LJ           -4.8679         1.21981         6.31625
LJ          -3.93087        -4.49058        -3.86079
LJ          -4.16561         2.03258         2.04084
LJ          0.381709        -2.10649       0.0195243
LJ          -1.62533         2.09948         4.58559
LJ          -2.76153         3.10491      -0.0484859
LJ           1.79222        -6.39689         -5.9582
LJ           3.21336         4.55401         4.94139
LJ          -1.87125        -1.31255         2.57869
LJ           2.88252        -3.23636        -4.60052
LJ           5.23341         5.81797         -1.2511
LJ          -3.35651          4.4022        -2.07721
LJ         -0.649837         4.99682        -2.49957
LJ           2.84845        -1.42951        -3.22895
LJ           2.69792         4.01137         6.46327
LJ            5.5268         3.32008         -1.6189
LJ          -1.03882        -5.68754        -3.72652
LJ           4.73565        -2.67623        -4.96608
LJ           3.08336          5.4821         -1.5833
LJ          -3.59405        -1.73446        -3.31546
LJ           1.41189       -0.219076        -3.50798
LJ          -1.18137        -6.27629         3.82474
LJ         -0.606375         3.68374         4.67746
LJ          0.728918        -1.42974         -1.8148
LJ           1.26919         -3.9097       -0.371182
LJ           1.03137         3.71602         4.07081
LJ           2.18619        -3.14381         -1.3723
LJ           4.63455         2.98266          6.3432
LJ         -0.106988       -0.439399         -5.7017
LJ           1.60404         1.14865         3.89033
LJ            5.4569         4.64456         1.53847
LJ         0.0268702        -1.54053         5.29376
LJ          -5.57114        -4.63782         1.82272
LJ           5.01077        0.526375         -4.1786
LJ          0.669267         -2.9884         2.48464
LJ           1.39901         4.58922        -3.05535
LJ           4.02473        -5.15984         3.23373
LJ          0.263132        -4.23917         6.41144
LJ           5.97208       -0.247659         1.16663
LJ          -3.24365         -3.7513         3.60143
LJ          -3.80142        -3.59603        -4.77393
LJ           -2.9129     -0.00323084        -2.11842
LJ           1.48075        -3.28711        -5.06406
LJ           5.99575        -4.55715         3.58463
LJ          -2.16026        0.811825         1.24144
LJ           4.35209        -4.99744         4.29657
LJ          -1.63305         3.73197         2.63202
LJ          -3.48853         1.34947        0.581028
LJ          -1.47423         2.68351        -6.02711
LJ          -5.29607         -5.9625         5.18583
LJ         -0.923925         1.15332        -2.88474
LJ            6.3867        -3.51001         6.32797
LJ           6.35689         5.29161         6.31661
LJ          -3.79413         6.19196         3.47177
LJ          -3.29448         2.08506        -1.72632
LJ           5.81037         6.40556         2.26414
LJ           6.01905         3.67509         1.19334
LJ          -5.85834       -0.324696         2.85701
LJ            4.3535         1.77575         3.59324
LJ          -2.10229         6.29333         3.50833
LJ          -5.63175        -2.30632        -4.63309
LJ           5.15787         3.38476         1.07499
LJ          -5.61215        -4.34293        -3.85475
LJ           6.08161        -1.67419        -1.00255
LJ           1.69554         4.88532        -1.73082
LJ           2.31746        -3.44148         3.67485
LJ           5.81812        -3.16718        -4.89175
LJ          -3.58061         5.98467        -3.46616
LJ          -5.07368        -1.09386         3.87651
LJ          -5.73113         4.13198         5.12961
LJ          -4.36951        -1.49614        -4.12001
LJ          -3.60052         1.89574        -3.76019
LJ          -6.26985        -4.48729         5.28776
LJ         -0.959332        -5.92837         2.46145
LJ           3.93988        -5.46351         5.54628
