108
#Comment!
LJ          -2.18081         1.32086        -2.24188
LJ          -0.55453         1.88479         -1.5909
LJ           6.14236        -5.55244         3.49893
LJ            4.7674         2.12054        0.672292
LJ          -3.96998          4.1436       -0.485974
LJ          -3.33286         6.19953        -0.16854
LJ           2.95407        -3.61718        -1.05406
LJ          -6.00497        0.898599         1.61613
LJ          0.626202        -5.65232         4.64807
LJ           1.23692        -5.99962        -2.78083
LJ          -3.86436        0.729247        -1.94122
LJ           4.60436         3.52167         2.95317
LJ          -2.34337         4.42813         0.69634
LJ          -2.25019        -1.07882        -4.17004
LJ          -1.64131        -1.08983        -5.77983
LJ          -2.79322        -1.65007         6.44679
LJ          -3.26006        0.699038        -6.35785
LJ          -2.49401          3.7981       -0.507572
LJ          -4.21469       -0.750159         3.81094
LJ          -5.36516       -0.150924         2.09718
LJ            4.4653        -4.20825         3.52487
LJ          -0.64952        -4.03152        -3.30669
LJ          -2.11778         5.51765        0.330865
LJ          -5.87295        -2.83483        -4.03423
LJ          -4.99161         2.27808        0.974022
LJ         -0.353736         -2.9352         3.25772
LJ          -2.76101       -0.207203        -5.87354
LJ          -3.56416        -5.06384         4.48247
LJ          -6.45234         2.64199         2.03065
LJ         -0.988121         2.29186        -2.96137
LJ         -0.377179        -1.42971         -5.3066
LJ          -4.68756        0.381308         3.27573
LJ          -3.83462        -1.10833        -0.91416
LJ          -4.98058         1.24971        -5.59368
LJ          -2.84816        -4.35701        -5.21805
LJ           -2.7154        0.889409         3.44988
LJ          0.765744        -1.41415       -0.540256
LJ          -1.34188         1.77765         5.18891
LJ          -1.83585         3.01185        0.119483
LJ           2.21293        -5.79441        -5.21933
LJ           3.70006         4.23691         4.03732
LJ          -2.84686        -1.89427         2.70094
LJ           3.55287         -2.3742        -3.40982
LJ           4.87583         4.11021       -0.398168
LJ          -3.01986         4.60341        -3.38844
LJ          -2.00645         5.45188         -1.5909
LJ            2.7461        -1.34691        -4.47085
LJ           2.66393         3.14081         5.94707
LJ           6.40706         3.43063        -2.30389
LJ         -0.745846         5.40653        -5.04018
LJ           4.74179        -2.89011        -5.59085
LJ           2.36104        -5.99043       -0.654524
LJ           -3.7694        -1.46655        -1.99544
LJ           1.53515       -0.630819        -2.25736
LJ          -2.05565        -5.75207         2.58743
LJ          -2.30335         4.04496        -6.40885
LJ        -0.0938336        -1.75921         -2.5942
LJ          0.744518        -4.26684         1.26512
LJ          0.294367         2.37433         3.42019
LJ           1.40817        -3.25256        -1.79125
LJ           5.46565         3.06972         5.46167
LJ         -0.540434        0.377084        -5.80059
LJ           2.26572        0.467952         4.79101
LJ           5.85779         4.08125          1.5746
LJ         -0.331812        -2.26958         1.99823
LJ          -4.53583        -3.94008         1.62802
LJ           5.55372         2.12055        -3.79639
LJ          0.684677        -2.72898         3.88233
LJ          0.423999          5.3054        -1.78241
LJ           3.16917        -5.69333         4.25665
LJ          0.312752        -5.06986        -5.33134
LJ           5.85389        0.135787         2.05971
LJ          -2.62978        -3.85762         3.01769
LJ          -3.11844        -2.46248        -5.98842
LJ          -3.26745        0.646202        -2.97235
LJ          0.289697        -2.93221        -4.97382
LJ           5.37041        -3.09093         4.25771
LJ          -2.00197         1.08165         2.69262
LJ           2.81143        -3.55286         4.64621
LJ         -0.158984          3.9731         2.28979
LJ          -3.45514        0.691655         0.53482
LJ          -2.61613         1.99359         -5.4366
LJ           -5.0582         -5.4451         5.71314
LJ           0.29304         1.10276         -2.2275
LJ          -6.26153        -4.52209        -6.41772
LJ          -5.98662         4.48585        -6.12956
LJ          -4.69161         6.36239         3.88237
LJ          -3.52563         2.00051        -2.99693
LJ           5.59566        -6.21219         2.82715
LJ          -3.86529         5.08259        0.531067
LJ          -5.45572       -0.687183         4.27542
LJ           5.40457        0.932706          3.7707
LJ          -2.47352         4.93812         2.35044
LJ            6.2821        -2.57777        -5.13321
LJ           5.47833         3.16564         1.94425
LJ           6.39577        -4.30091        -4.70155
LJ           4.97693        -1.32306         -2.3549
LJ           0.60312         4.39221        -1.09205
LJ           2.47359         -4.6399          2.8976
LJ           5.02924        -4.38568        -5.68764
LJ          -2.22967         6.23682        -4.24591
LJ          -5.97393        -1.99796         4.40777
LJ          -3.03864         4.10288          5.3148
LJ          -4.05122       -0.597622        -2.67665
LJ          -2.69707         1.85362        -3.68921
LJ          -6.28031        -4.39792         4.91473
LJ          -1.43248         5.55802          1.8413
LJ            2.0568        -6.43288         4.72856
