108
#Comment!
LJ          -4.46196       -0.427449           5.673
LJ          -1.65527          4.1373        -5.80364
LJ          -5.26061         6.42552         5.22122
LJ           1.98572        -5.69031        -2.57823
LJ           1.72359         2.22014          4.2594
LJ          -3.95023        -4.01265         3.07732
LJ           5.57449        -3.77227        -1.61302
LJ           2.02412       -0.933914        -2.89102
LJ          -2.43828         3.45387         4.02748
LJ          -2.84179        -4.23193       -0.467786
LJ            2.2829        -1.13749         3.11679
LJ         -0.311146          4.4579        -5.56714
LJ           1.86288        -6.14639         5.01058
LJ         -0.584389         2.78899         6.39613
LJ          -4.26802        -6.05799        0.158483
LJ          -6.44131        -5.63667       -0.834872
LJ          -1.84068        0.538246        -3.05663
LJ           3.28734         6.26548         3.07051
LJ         -0.224322         3.55404        -4.89928
LJ           4.01907        -1.81436        -2.95272
LJ           4.27293        -2.79548        -3.88696
LJ         -0.301542          5.3413          -2.847
LJ           5.51724          5.7478       -0.238219
LJ          -3.11125         -2.4758       -0.822354
LJ           5.79359         4.39187        -3.97021
LJ            2.4239         6.05341         4.73346
LJ           5.49305         -1.8479        -6.29963
LJ            5.7646         4.42894         6.35337
LJ          -2.13969       -0.340196        -1.87044
LJ           4.94615         4.29415         3.05882
LJ          -4.43863         4.48741         6.31417
LJ           -5.8727         1.53207        -5.00204
LJ           1.19074         3.50587         1.17954
LJ          -2.06772       0.0101564         -4.5226
LJ           1.51105         3.40544         6.39907
LJ           1.21427         6.39011        -1.16364
LJ          -4.30056         1.42659        0.565286
LJ          -3.89515         4.78555        -1.35374
LJ          -3.13786        0.194427       -0.545114
LJ          -5.79817        -1.48098        0.901267
LJ            1.5342        -4.46391         2.73826
LJ           1.08241       -0.712166          6.3725
LJ          -5.42496         4.05275        -2.73228
LJ           -1.5123         6.22261         1.82793
LJ          -5.30376         -2.4593         -2.5098
LJ           1.43347       -0.256239         1.30513
LJ           2.67711        -2.62623        -5.66481
LJ           1.61383        -4.43075        0.591892
LJ           1.55803        -4.10621        -2.22335
LJ          -5.71185         1.77759           5.456
LJ           5.55658        -4.18626         1.97219
LJ           4.87067        0.199756        -6.18961
LJ          -1.74224       -0.103456         1.91059
LJ            0.2218         2.44846       -0.361017
LJ             1.498        -2.68774        -1.06078
LJ          0.672914        -5.69498         3.31764
LJ           2.27358        -3.92079        -5.62477
LJ           5.15899        0.473281         -1.4474
LJ         -0.263917        -3.56605        -3.72419
LJ         0.0364903       -0.891316       -0.732976
LJ          -4.69679        -6.26421        -3.21417
LJ           5.93526          4.8064         -3.0605
LJ         -0.662123         5.30426        -1.48013
LJ          -5.32825        -3.09243        0.404009
LJ          -3.43958        -1.98445         4.74843
LJ           1.53387          1.1606         -2.7689
LJ          0.121495        -1.24593        -3.02794
LJ           2.56862        -3.82763        -2.85091
LJ          -1.93202         4.79327        -3.13387
LJ          -1.81201         5.90381        -1.55263
LJ          -1.00164         2.72154       -0.279201
LJ           4.80759        -6.19617         0.12238
LJ           -4.9368        -5.59903          1.7807
LJ          -5.30151        -2.61245        -5.18912
LJ          -5.18727         1.56477         2.98201
LJ          -6.11583         3.60195        0.114807
LJ           3.77805         1.61657          -6.279
LJ          -1.21557        -1.94978         5.87053
LJ          -4.49404        0.559436         4.59986
LJ           2.72896        -3.62834         2.54719
LJ          -2.68578         3.54213        0.438668
LJ           5.87807        -5.70745       -0.173737
LJ           5.36129        -6.39796         2.65488
LJ           3.17177         4.10116        -6.22572
LJ           5.29907        -3.67926         3.44361
LJ            5.5854         1.57623      -0.0744554
LJ          -4.04575         1.18235         4.03957
LJ           4.57488          1.8952        0.770404
LJ          -6.26278          2.4525        0.725314
LJ          -4.38438         5.32891           5.277
LJ            3.9773        -5.16786         4.17448
LJ          0.465863        -2.69728        -3.35141
LJ           4.09686        -3.77471         2.10327
LJ            5.0187         2.13274         1.83827
LJ          -2.51022         5.30084        0.901971
LJ           3.57523        -4.18596        0.111052
LJ           3.85792          4.0159        -1.44986
LJ          -4.24761        -6.04236         4.10241
LJ         -0.859604         3.90333         5.81304
LJ           1.81522         2.11296       -0.280084
LJ          -1.96633         2.54982         2.26113
LJ          -2.99218         3.60028         1.53221
LJ           1.91119         3.16513        -3.20914
LJ          -2.21211        0.709131        -6.03824
LJ           3.88421        -6.26272         4.42736
LJ           6.15724       -0.453325         2.94463
LJ          -2.51584        0.808345         3.15753
LJ           5.85316        -2.81752         6.05469
