108
#Comment!
LJ           4.47103        -4.70113         6.06124
LJ          -4.94346       -0.847527        -2.71978
LJ          -1.95684         0.53354        -5.51747
LJ          0.286711        -5.83989        0.423014
LJ         0.0525018       -0.940602         1.36237
LJ           2.18453        -4.66822          2.6577
LJ          -1.56339        -4.72353         3.47961
LJ          -4.27715         -5.7503        -0.11855
LJ           2.90314        -3.39247         5.51516
LJ          -1.75327         5.81728        0.336411
LJ          -3.52689         5.79087        -4.06467
LJ          -3.54825        -2.81748         4.32958
LJ          -4.58435         6.19235         4.84491
LJ          -3.46196         2.73377         3.54965
LJ           1.05906        -6.22546        -2.70751
LJ          -1.40546       -0.526504         6.36913
LJ          -2.59924        -2.18066        -5.45446
LJ            5.3168         5.66111        -4.72984
LJ           6.39703        -6.01042         6.09579
LJ          -2.57593        -6.31299         2.67174
LJ          -3.78606       -0.777867         -3.0376
LJ          -2.76353       0.0777066        -2.11182
LJ          -2.57062         2.57452        0.414121
LJ          0.295345        -2.26102        -5.40206
LJ          -5.76654      -0.0646999         5.12149
LJ          -3.36838        -5.52794          1.5381
LJ           1.79921        -1.55577        -5.20949
LJ           -2.9616         2.34081        -2.45643
LJ          -2.42353        0.194838          1.5541
LJ           1.23906        -3.05757         3.98631
LJ           3.87629        -3.10093         4.91004
LJ          -2.28815         2.36272         3.20075
LJ           1.90472        -2.97636        -4.35914
LJ           6.07115         3.20533         1.71899
LJ           4.27478        -4.07621        -3.07731
LJ          0.833529         1.63539        -2.27688
LJ          -2.11374         2.92108         4.47384
LJ          -5.21431         3.41371        -5.76181
LJ           5.64784          4.5349         0.96457
LJ          0.221616         2.90264        -1.04838
LJ           4.95847         -3.7202        -2.32118
LJ         -0.925085         5.31315        -0.54495
LJ          -3.79379          5.2751         4.82211
LJ           -6.3281        -5.28634         2.15254
LJ           1.14251        0.237756         3.52806
LJ          -3.68305         3.82903         2.62432
LJ          -3.49951        -3.96784       -0.698597
LJ           3.81927       -0.390591         2.29606
LJ         -0.862374        -0.65346        -3.05632
LJ          -5.91328         2.23496         1.72941
LJ          -3.78676        -1.91422          3.4372
LJ          -5.14184         1.16558       -0.241988
LJ           4.96036        -2.56317      -0.0152143
LJ          -1.93479        -4.56152        -1.71356
LJ          -2.41309         4.49887         3.71806
LJ           5.80492        -2.31207         5.86184
LJ          -2.19422        -2.26884        0.779628
LJ           4.51467         5.55272        -2.93905
LJ            1.4484       -0.854854         4.52725
LJ         -0.154873        0.277374        -6.07335
LJ          -5.55763        -4.76058       0.0227096
LJ          -4.45523        -3.26112        -1.24633
LJ         -0.615158        -1.93969       -0.793647
LJ          -6.27306        -2.00036         6.29198
LJ           1.60824        -2.61226        -5.37466
LJ        -0.0346768         3.79798         -5.4894
LJ          -1.50856        -5.79059       -0.315892
LJ           3.13011         5.19969         5.30653
LJ           6.12774         5.37088        -2.74354
LJ           2.74149         3.76804        -3.30421
LJ          -4.18198        0.799275        -2.81089
LJ           6.24996        -4.11181        -3.47624
LJ           1.41337         3.92567         -2.4213
LJ          -1.51697         6.07699         3.71524
LJ             -4.19         6.29557        0.499713
LJ         -0.771688        -1.96006         5.17661
LJ           2.24447        0.237411         4.47738
LJ           2.32235         1.10743       -0.332284
LJ          -4.60131        -0.24099          5.7121
LJ          -1.93388         -4.6481        -4.91451
LJ           4.69529        -6.39352        -2.87352
LJ          -2.49503        -1.09013         1.42597
LJ          -6.17274        -2.25493        -2.23516
LJ           5.24583        0.829243        -6.20792
LJ           6.26701        -4.36501         2.64686
LJ           -3.3462         3.95045        -3.14141
LJ           6.04672         5.82722         1.07023
LJ          -4.83005       -0.202912        -4.44505
LJ          -4.40586       -0.684612         1.27124
LJ           2.95069         5.36426          4.1107
LJ          0.629892         2.65431         -3.7998
LJ          -3.99874       -0.896929         4.96002
LJ           5.40725        -4.82676         -6.2255
LJ          -4.41317        -1.76077        -2.96528
LJ         -0.807235         4.38551         1.74192
LJ          0.228478       -0.635382        -3.22776
LJ           1.59057       0.0690777        -1.48956
LJ         -0.898329         4.82121         4.34696
LJ           2.26844         6.37048        -5.19614
LJ          -5.77827         4.55269        -3.20798
LJ          -1.39063        0.408339          2.7263
LJ           2.55822        -2.39977         -3.7477
LJ           5.88524        -4.19424        -5.53544
LJ          -1.99966       -0.758858         -2.3785
LJ          -6.06677        -5.08123        -5.87589
LJ           -5.7582        -3.93123         5.41982
LJ           4.85693         3.92617          -2.638
LJ          -3.57323         3.68887         4.09356
