108
#Comment!
LJ           3.62004         3.10031         2.19643
LJ          -2.51855          1.1975         3.80651
LJ         -0.586471        -1.47366       -0.823392
LJ         0.0413619         1.11615         5.78853
LJ          -1.97032         4.91544        -1.07901
LJ          -4.09654         6.45543         3.97616
LJ          -1.30055        -2.84067        -2.11985
LJ           2.99986        -6.36778         2.34063
LJ          -1.68873         5.20201         5.52154
LJ           2.86994        -2.73182        -5.74185
LJ           3.85476         5.97392         4.76757
LJ           5.85939          3.2174         1.25848
LJ         -0.377461          3.2653        -6.12401
LJ          0.866899       -0.720329         5.21873
LJ           2.08054        -4.94265        -1.82242
LJ          -5.30277        -4.32886        -2.93481
LJ         -0.958291        -2.56274       -0.753504
LJ           6.05195         1.36084         4.27018
LJ           1.08617        0.236334         -2.9588
LJ           2.18566        0.989156         1.22873
LJ          -2.48196        -4.05227          3.1613
LJ          -1.53059        -2.52505         5.52365
LJ          -4.30548       -0.908403         1.76235
LJ          0.219613         4.59382        0.161458
LJ           3.05989        -3.84605        -1.34354
LJ          -3.73735         1.70835        -4.96277
LJ          -4.94946         5.25512        -4.27513
LJ          -4.82989         3.85672         3.97089
LJ           4.58543           1.265        -2.49573
LJ          -4.84918       -0.492405        -1.57977
LJ           3.98939         -3.6434         6.27599
LJ           5.30545         3.64263         2.63722
LJ           5.94607         2.12837         6.11581
LJ          0.466724        -2.41236        -2.84374
LJ           5.76331         1.82387        -4.39156
LJ           1.16244        -1.38083        -3.25309
LJ           6.32536         3.67902        -1.84203
LJ           4.57882        -3.67945         3.43318
LJ         -0.889817        -5.06186         2.13618
LJ          -5.81737        -3.10178         5.58259
LJ          0.530169       0.0688378       -0.171332
LJ        -0.0706484        0.786216         4.65295
LJ          -1.17406        -1.11542          5.0118
LJ           1.82418           5.209         3.36133
LJ           5.76898        -4.79215         4.93411
LJ           4.87081        -3.83317         2.19971
LJ           2.56971         4.60503          1.5224
LJ          -3.27394        -5.07655         6.14111
LJ             5.067        0.524007       -0.841329
LJ         -0.941552           2.901         5.77911
LJ          -3.71311         5.55644         4.76477
LJ           3.41633         3.22133         0.32073
LJ           0.29517        -5.06317        -1.11107
LJ           5.49955        -2.53107        -2.67569
LJ          -4.33458          6.0843         2.85056
LJ          -2.57286       -0.962653        -3.32044
LJ          -3.45935         4.38858         1.89285
LJ           6.44219         4.87055      -0.0977032
LJ            3.4985        -5.60588         4.79015
LJ          -4.20301        -3.64178         2.42437
LJ           1.22198        -1.11114         2.27534
LJ          -4.81905        -3.25622         1.38228
LJ           5.95947        -3.50155         3.78318
LJ          -4.23597         2.77102         2.39955
LJ           2.80324         2.25843        -5.62523
LJ           2.28694        -4.63971         2.38263
LJ           5.48898         4.72426        -1.88227
LJ           -5.9893         2.40532         5.84184
LJ           3.25446       -0.189177        -2.03842
LJ         -0.923455         4.81901         1.01975
LJ           4.60499         4.52748        0.880195
LJ           6.26627         2.05818        -1.41396
LJ           2.24584         6.29029       -0.772734
LJ          -4.42654        -5.80068         5.97799
LJ         -0.796498         1.65571         4.01361
LJ          -3.22449         0.47623        -5.37174
LJ          -2.76299         1.69778        -4.42553
LJ          -4.67238         5.24188          2.2317
LJ           3.70491        -3.73074       -0.458448
LJ          -5.32158         6.29444         5.03667
LJ           1.94428        -5.79621        0.384054
LJ          -4.97892        -6.05604          3.3688
LJ          -4.11423         3.98212        -3.28915
LJ          -1.90995         3.72967         6.19169
LJ           3.76494         4.37214        0.460242
LJ          -1.13116         3.21238         3.62608
LJ           2.12942          3.0551         1.19308
LJ          -1.58463        -6.40619        -1.93149
LJ           4.37576        -6.38282        -2.44909
LJ          -2.90658         3.91673        -5.56942
LJ          -4.71961         3.53162         5.54864
LJ           3.65111       -0.716058         2.52137
LJ          -4.80164         5.11187         5.60867
LJ           2.82704        -1.30151         5.07197
LJ          -5.76847         2.22761        -1.92538
LJ           6.30971         2.69457         3.19339
LJ          -1.57821        -6.35037        -6.24653
LJ           4.34446         4.56488         5.41106
LJ          -3.64989         -1.7316           2.735
LJ           5.26688        -6.19616         4.79052
LJ           3.76602        -1.82923       -0.202338
LJ          -5.13799         5.33316        -2.27546
LJ           3.61634         1.44741         3.78875
LJ           0.06417       -0.688643         2.58294
LJ           -4.1951        -1.98932         3.86055
LJ          -5.92227        -2.46932        -3.90073
LJ           3.91326         6.09309         2.48067
LJ          -5.15418        -3.07365        -6.14232
