108
#Comment!
LJ          -2.24646        0.153452        -1.01043
LJ          -1.43417         2.14311        -2.66698
LJ           5.73682         -5.4536         4.25239
LJ           5.75187         1.19269        0.643827
LJ          -3.98715         4.58167       -0.920002
LJ          -3.98018        -6.01681       -0.392693
LJ           2.51135        -2.85549       -0.348922
LJ          -5.97482        0.204395        0.772787
LJ           0.68512         6.10165         4.53984
LJ           1.42747         6.10959        -1.08217
LJ          -4.23204        0.592841        -1.64432
LJ           6.24031          4.5519         4.82787
LJ          -2.06417         3.77841        0.532621
LJ          -2.81334        0.124416        -4.27497
LJ          -2.51042        -1.42121        -4.94278
LJ          -2.60482        -2.52354        -6.30078
LJ           -2.7228        0.249914         5.07106
LJ          -2.69408         4.23088       -0.327287
LJ          -3.80476       -0.450941         4.64162
LJ          -6.14994      -0.0618014          1.7909
LJ            4.3042        -4.24429          2.8828
LJ          -1.12154        -3.96579        -3.85137
LJ          -1.52558         4.67502        0.818699
LJ          -5.18939        -3.25835        -4.53935
LJ          -5.08078         1.82838         1.61623
LJ          0.283046        -4.40036         2.93414
LJ          -2.35674        0.336985        -5.96173
LJ          -4.33859        -6.06356         4.20548
LJ          -5.84975          1.3159         2.50902
LJ        -0.0720333         3.83307        -2.61406
LJ          -1.32867        -1.87464        -6.18875
LJ          -4.37755          1.4067         3.48952
LJ          -5.10352        -2.38158       -0.264353
LJ          -4.86286          1.2184         6.27593
LJ          -3.89061        -4.54226        -3.80827
LJ          -4.22028         2.07465          1.9895
LJ          0.367194        -2.13442       0.0400462
LJ          -1.63645          2.1132         4.56244
LJ          -2.79906         3.11549      -0.0544148
LJ           1.77543        -6.42039        -5.98769
LJ           3.19425         4.56565         4.97851
LJ          -1.83283        -1.28957         2.57412
LJ           2.85409        -3.26703        -4.64841
LJ           5.24738         5.88484        -1.28472
LJ           -3.3706         4.39502        -2.02102
LJ         -0.594897         4.97542        -2.53593
LJ           2.85186        -1.43509        -3.17973
LJ           2.70026          4.0463        -6.44476
LJ           5.49193         3.31607        -1.59149
LJ          -1.05088         -5.6144        -3.67435
LJ           4.72911        -2.65682        -4.93774
LJ           3.10693         5.42428         -1.6209
LJ          -3.59124        -1.74077        -3.37261
LJ           1.40724        -0.20499        -3.55694
LJ           -1.1372        -6.28887         3.88911
LJ         -0.539501         3.66796         4.60409
LJ          0.762777        -1.41633        -1.78351
LJ           1.29228        -3.89301       -0.437397
LJ           1.05945         3.76911         4.09675
LJ           2.22096        -3.13966        -1.34827
LJ           4.60145         2.97974         6.37756
LJ        -0.0921023       -0.474291        -5.69791
LJ            1.5779          1.1757          3.8548
LJ           5.44462         4.65284         1.53228
LJ         0.0432846        -1.51632         5.42423
LJ          -5.61206        -4.66549         1.83076
LJ           4.98937        0.463478        -4.19365
LJ          0.663168        -3.00435         2.43172
LJ           1.43894         4.56191        -3.09343
LJ           4.04767        -5.15464         3.17653
LJ          0.261908        -4.20565         6.36562
LJ           5.99637       -0.254678         1.13166
LJ          -3.26797        -3.74741         3.62453
LJ          -3.83478          -3.646         -4.7185
LJ          -2.90098      -0.0193382         -2.0722
LJ            1.5289        -3.30169        -5.06753
LJ           6.08443        -4.60758          3.5469
LJ          -2.17143         0.80257         1.18416
LJ           4.36545        -5.06148         4.32035
LJ          -1.69149         3.72294         2.64507
LJ          -3.48886         1.37633        0.585535
LJ          -1.42934         2.71022        -6.05081
LJ          -5.30355         -5.9805         5.16006
LJ         -0.979388         1.16638         -2.9066
LJ           6.40158        -3.48054         6.29029
LJ           6.33425         5.32271         6.29625
LJ          -3.75255         6.17774         3.44821
LJ          -3.27415         2.10703        -1.68641
LJ           5.81687         6.39172         2.24122
LJ           6.02203         3.67067          1.2341
LJ          -5.86027       -0.318614         2.85181
LJ           4.31236         1.80915         3.58595
LJ          -2.09839         6.34558         3.54624
LJ          -5.58889        -2.30323          -4.611
LJ           5.02436         3.37613         1.04511
LJ          -5.59325        -4.35708         -3.8186
LJ           6.12549        -1.68806       -0.949051
LJ           1.73733         4.91054        -1.76638
LJ           2.31215        -3.39476         3.70587
LJ           5.83422         -3.1212        -4.83519
LJ          -3.63337         5.97394        -3.43476
LJ          -5.03718        -1.05821         3.85502
LJ          -5.83933         4.13397         5.12223
LJ          -4.37677        -1.53427        -4.17234
LJ          -3.63356          1.8954        -3.76174
LJ          -6.27133        -4.49193         5.30427
LJ         -0.941231        -5.87873         2.47779
LJ           4.01666        -5.42244         5.57298
