108
#Comment!
LJ           2.41555        0.796921          1.6898
LJ            2.7386        0.594494        0.223499
LJ          -2.63647       -0.874054        -2.38943
LJ           6.26363        -4.34937       -0.996621
LJ          -1.85345        -5.64292         1.83831
LJ           5.20928        -3.01074        -3.20055
LJ          -4.01663     -0.00957702         -3.7327
LJ           -6.2947        -5.15894        -2.43617
LJ           3.82474         3.01819        -5.70028
LJ           5.27053         4.76665        0.636971
LJ          -1.97769         1.61819          4.2075
LJ          -5.17245        -4.95217          4.6836
LJ          0.275917         3.13733        0.570208
LJ           3.74784        -3.01287         3.09074
LJ          -1.11498         -2.0833        -3.09288
LJ          -1.54979        -5.52843         4.11131
LJ          -4.33558        -3.41497        -3.69229
LJ          -3.25412         2.99395         2.28941
LJ           6.03089       -0.101317        -2.32715
LJ          -1.63151        0.670886        -3.43888
LJ          -5.07949        -3.45498        -4.89498
LJ           4.36497         6.03918        -3.21582
LJ           5.58218          4.1208        -5.49303
LJ          -4.28947         1.67066       -0.829775
LJ           2.55441        -6.29327        -4.43276
LJ          0.240352         3.45219       -0.871923
LJ          -5.03987        0.856681         4.28429
LJ          -2.83306          3.4574         6.39024
LJ          -4.73882        -5.91667         4.15214
LJ           2.01696         4.63379         1.80473
LJ          -3.28505         1.47947         -5.1438
LJ          -4.80246         4.32068         6.07248
LJ          -1.19331        -3.30586        -5.79823
LJ           4.11459        0.661274        0.393548
LJ            5.0808       0.0287515        -3.30432
LJ           5.73616         3.50331         3.73504
LJ           2.16925         3.06554       -0.976262
LJ          0.555493         2.13208        -2.45623
LJ          -4.48552        -2.10767         0.52446
LJ           -5.0842         3.48906        -2.19728
LJ           4.88974       -0.292541         4.93469
LJ           4.45003         1.60832        0.638632
LJ          -3.05835       -0.113351        -5.20956
LJ          0.520962        -4.67226         5.48157
LJ           1.80857        0.278123         2.46573
LJ          -4.95121         2.16735        -4.27897
LJ           4.20872         -3.2084        -6.11917
LJ           5.53044         2.19865      -0.0517635
LJ          -4.37797         4.63351         4.77796
LJ          -2.81197         1.23638         4.78288
LJ          -5.55333        -0.48326        -4.23157
LJ         -0.168411         4.63665        0.610573
LJ           4.74636         1.96636        -5.18976
LJ          -4.85119         5.05197        -2.11044
LJ            6.1265         1.01484         -3.2472
LJ           1.01261        -3.58058        0.354555
LJ           1.84778         -4.9796       -0.733679
LJ           5.27277        0.183587         1.80763
LJ           2.63707       -0.545531        -5.54925
LJ           4.45171         4.00377         1.39825
LJ           0.77875        -1.58175        0.849739
LJ          -2.94462         4.09342        -1.35717
LJ          -3.63338         4.22492        -3.52288
LJ           4.37975         -1.7365        -6.02772
LJ           2.91643         4.27277        -1.74891
LJ         -0.616197        -4.19595         5.44134
LJ          0.484462         5.76992         2.33637
LJ          0.731017        0.668159        -1.02846
LJ           -3.6371        -6.11167          2.5914
LJ          -2.40799         5.63925        -3.66807
LJ           0.54942         2.17408        -4.47398
LJ          0.781515        -5.03311       0.0408454
LJ          -6.12732        -5.64429        -3.34372
LJ           5.28145        -4.23254        -3.38693
LJ          -2.75873         2.41696         1.15225
LJ          -5.62312        0.934962        -1.84302
LJ         -0.786566        -1.48688         1.87631
LJ           3.63266        -4.60655       -0.777787
LJ          -2.89716         -3.7293         4.47147
LJ           5.94155         2.39864         -2.6717
LJ          -4.27026        -3.17289         3.93396
LJ          -4.82462        -4.96058         5.79712
LJ           1.28897        -1.38377         4.29203
LJ          0.595016        -0.71746         4.80676
LJ           3.23011         1.99774        -6.10839
LJ          -3.14202        0.325697        -2.51302
LJ           5.89709        -2.47536         2.51481
LJ         -0.101316        -1.47189         3.69279
LJ           2.62336        -5.88718      -0.0615862
LJ           4.18675         -4.8483         1.73192
LJ          -5.32916        -3.87329        -2.91379
LJ          -3.61519        -2.17256        -2.45485
LJ          -4.62492         2.44281        -1.73158
LJ          -5.25046        0.710588         2.87086
LJ         -0.564198       -0.312139         -4.1941
LJ           2.70877        0.392442        -4.62008
LJ            5.6773         4.05019         1.65809
LJ          0.928779         2.12693         3.64655
LJ          -1.22041       -0.360607       -0.415727
LJ           4.74751        -2.99478        -1.17522
LJ          -5.27622        -1.98821        -3.60976
LJ           1.62899        -3.68542        -3.57237
LJ           2.61066        -5.07814         -1.6699
LJ         -0.699826        -1.28542         2.86635
LJ          -4.56968         1.10897        -2.92958
LJ          -2.68476        -1.28003         2.31327
LJ          -6.41191         1.65613        -6.33161
LJ          -5.76415        0.654416        -3.04678
