108
#Comment!
LJ           3.23619         3.64185         2.15354
LJ          -1.65849         1.59462         3.88591
LJ          0.305083        0.289603         -1.6827
LJ          0.290665       -0.422439        -6.08622
LJ           -2.3308         4.46804        -1.35829
LJ            -4.936        -5.90859         2.65369
LJ          -2.03027        -5.28787        -3.03677
LJ           2.67815        -5.95015         1.71079
LJ        -0.0274098         5.86052         6.07104
LJ           3.04582        -4.09615        -6.03971
LJ           4.36369         5.38694         6.13317
LJ            4.4547         1.93965       -0.114572
LJ           0.26821         2.89196        -4.33959
LJ           1.12146         -1.0982         5.43274
LJ           2.18919        -5.31921       -0.252467
LJ          -4.80931        -3.82689        -2.69129
LJ         -0.797942        -3.17132        -1.84163
LJ           -6.0182        0.836467         3.75943
LJ           1.86984         1.34304        -1.05604
LJ           1.22903         1.44921         2.07883
LJ          -2.08124        -3.87694         1.32689
LJ          -3.10894        -1.42589         4.02511
LJ          -4.89679        -1.70967         2.07738
LJ           1.30351         4.30186       -0.199199
LJ            3.3572        -3.29179       -0.661526
LJ          -3.35249          2.8769        -4.35961
LJ          -5.68947         4.09085         6.44143
LJ          -4.52344         4.05148         4.15451
LJ           2.75148        0.609463        -3.28117
LJ          -4.47111       0.0320803        -1.68746
LJ           3.42335        -2.27199         5.92391
LJ          -5.81716         3.54267         2.46455
LJ           4.83488         3.47112         5.12157
LJ          -1.18576        -1.84853        -3.21786
LJ           4.73905         1.03076        -5.70194
LJ           2.15587        -1.35168        -3.59497
LJ           6.31567         4.73839        -1.96802
LJ           5.61704        -4.28848         4.44787
LJ         -0.730269        -4.64991         1.63635
LJ          -5.14329        -3.36114         5.38063
LJ          0.707381         1.77175       -0.718926
LJ         -0.794514        0.176216         4.54726
LJ           -1.2586       -0.660311         4.11235
LJ           3.59583         4.59722         3.99379
LJ          -6.01543        -4.42287          6.3286
LJ           4.69325        -2.96364         3.60597
LJ           1.82945         6.44016         2.22215
LJ         -0.848233        -6.01564        -5.72396
LJ           4.14545          1.5487        -1.18999
LJ          -1.83579         1.03786        -6.29138
LJ          -4.90089        -6.40448           4.441
LJ           1.37489         3.05176         1.03354
LJ          0.808644        -5.00001        -1.54251
LJ           4.98536        -3.58575         -2.2925
LJ          -5.33257         4.21871         3.09817
LJ          -2.96631        -1.85998        -2.43566
LJ          -3.65759         4.46838         1.56918
LJ           5.86997         4.12543        -1.14742
LJ           3.94766        -5.77176          5.4216
LJ          -3.23019        -3.72364          2.8246
LJ           1.91281       -0.852133         2.73004
LJ           -5.2504         -2.3094         2.85045
LJ          -6.38985        -3.71007         4.38057
LJ          -5.59594         1.40118         2.34179
LJ          0.187821        0.665191         -3.7847
LJ           2.89063        -5.57507         5.51666
LJ           5.70535         5.65786        -2.57074
LJ           -6.2078        0.920362         5.33556
LJ            4.1898        -2.96504        -2.48463
LJ          -1.02744         4.25093        0.174737
LJ           5.55542         5.45419       -0.646722
LJ           5.19728         1.81163       -0.691923
LJ           1.97061        -6.22039        0.572375
LJ          -4.00393        -5.53747        -6.32398
LJ         -0.801439         2.02762         3.51437
LJ          -4.44199        0.262438         4.89334
LJ          -2.49131         2.31216        -3.95866
LJ          -4.76022         5.34952          1.8434
LJ           4.85519        -3.05732         1.55096
LJ          -5.32779         5.58323          5.4822
LJ           1.30849        -5.83183       -0.007966
LJ          -5.68663        -5.27719         1.66915
LJ          -3.35156         3.61774        -3.37568
LJ          -1.58995         3.11147          4.6832
LJ           1.79008         5.71917         0.66663
LJ           1.19399         2.57252         5.09125
LJ           3.55572         1.59665         1.36795
LJ          -0.40299           5.735        -1.45331
LJ           3.93995         5.65943        -2.57428
LJ          -3.56361         5.13817         5.59112
LJ          -4.75566         3.17126         5.89888
LJ           2.88003       -0.229067         2.07223
LJ          -4.53006         5.10518         5.96328
LJ            2.3198       -0.894152         3.81205
LJ           6.31002         2.22249        -1.27897
LJ           5.74125         3.14476          3.4025
LJ          -1.37019          6.3753         5.88071
LJ           5.52234         4.53384        -6.26847
LJ          -3.42547        -0.34434         2.19932
LJ          -6.36169         -5.1564         4.09179
LJ           2.46159        -0.39493       -0.322194
LJ          -6.05364         6.21909          -1.324
LJ           3.68538         2.77385         3.57646
LJ          0.243587      -0.0292987         3.52129
LJ          -3.54529        -2.59681         2.98774
LJ          -6.15766         -1.8263        -4.99694
LJ           4.28926        -5.65296         2.39403
LJ          -3.52657        -4.39758        -6.14415
