108
#Comment!
LJ          -2.55346        -1.17723        0.554128
LJ          -2.68532         2.45243        -3.94198
LJ           5.10659        -4.97298         5.39227
LJ           6.35802       -0.129481        0.403503
LJ          -5.28245         5.69779        -1.03029
LJ            -4.836        -5.12639       -0.700959
LJ           1.67604        -2.03332         0.28901
LJ           -5.2881        -1.16388       -0.943424
LJ          0.173294          4.9463         4.35646
LJ           1.85257         4.63605         1.00876
LJ          -4.44086       -0.472589        -1.07473
LJ           6.46149        -5.17347         5.04261
LJ           -1.7809         3.12469        0.504745
LJ          -3.50191          1.9613        -4.10616
LJ          -2.24903        -2.42911         -5.4193
LJ          -2.23746        -3.41516        -5.69583
LJ          -2.56073        -0.62547         3.33729
LJ          -2.46853         4.03285    -0.000623668
LJ          -2.97632        0.188841         5.49176
LJ           6.01472       -0.457789         1.72455
LJ            4.2567        -3.31611         1.73913
LJ          -1.71826         -4.2023        -4.24538
LJ          -1.12692         3.26345         1.20363
LJ          -5.52203        -3.46306        -5.61253
LJ          -6.45107         1.82221         2.15222
LJ           0.92787        -5.97075         2.40279
LJ          -2.08211         1.21501         -6.1315
LJ          -5.08019         5.59842         3.54893
LJ           -4.6537        0.520278         2.33724
LJ           2.39372         4.09287        -2.08367
LJ          -2.85488        -2.35962         5.67177
LJ          -4.00848         2.61777         3.51701
LJ           6.00642        -3.68653        0.487547
LJ          -4.65577         1.15165         4.83382
LJ          -2.80659        -5.95685        -2.35477
LJ          -4.52456         3.88863        0.713514
LJ         -0.315416        -2.79462        0.441711
LJ          -2.03943         2.62491         3.72804
LJ          -3.66465         3.43703        0.394699
LJ           1.25198         5.59195         5.83548
LJ           2.47615           4.926         6.07976
LJ         -0.496816        -0.47595         2.41967
LJ           4.18885        -4.47021        -5.89815
LJ           5.75142        -4.69808         -2.4656
LJ           -2.7995         3.85244        -1.06571
LJ          0.268356         6.20833        -4.09145
LJ             2.893        -1.64656        -1.39955
LJ           2.80191         5.30321        -5.46525
LJ           4.25652         3.18665       -0.622935
LJ          -1.53754        -2.74262        -2.20506
LJ           5.15315        -1.95073         -3.7566
LJ           3.35234         3.55961        -3.04505
LJ           -4.5397        -1.97514        -4.36331
LJ           1.13226        0.232807        -5.27351
LJ          0.452099         6.19414         5.98823
LJ           1.99049         3.12456         2.07469
LJ           2.02868        -1.04457       -0.660848
LJ           2.31456        -3.06552         -2.7199
LJ           2.27705          5.3002         4.95785
LJ           3.12897        -2.95512       -0.489609
LJ           3.41037          2.9151        -5.35135
LJ        -0.0941414        0.433799        -2.83496
LJ          0.673303         2.21484         2.60332
LJ           5.44273         4.43152         1.47574
LJ           1.21508        -2.71182        -5.63753
LJ           5.90738        -5.79345         2.43434
LJ           4.28248        -1.86574        -4.68498
LJ          0.690785         -3.9983        0.900981
LJ           2.81114          3.7177        -4.02578
LJ           4.72379         -5.8539         1.71113
LJ          0.230558        -3.01267         4.77691
LJ           5.50518        -1.19784        -1.08268
LJ           -4.1263        -3.62162         4.44154
LJ          -3.84106        -5.63169        -3.02332
LJ           -2.8464       -0.728823       -0.674738
LJ          0.873625        -3.76179         -5.6334
LJ          -3.95765         6.41792         2.16711
LJ          -2.78515        0.684729       -0.893616
LJ           2.95352        -6.33792         4.84883
LJ          -3.65893         3.52682         3.00193
LJ          -3.32425         2.43286        0.731076
LJ          0.143214         3.64107         6.03102
LJ          -5.94309         6.39085         4.63749
LJ           -2.8185         1.21329        -3.86208
LJ           -5.9777        -2.97249         4.84984
LJ            5.8706        -6.26822        -5.72163
LJ           -2.3452          5.8735         2.85676
LJ          -2.87031          3.0453       -0.377148
LJ           6.01174         5.87802         1.44861
LJ            5.8558         4.13072         2.52056
LJ          -6.39444        -1.19548          2.5342
LJ           2.85607         2.98698         3.32296
LJ          -1.96019        -4.84023         4.82315
LJ          -5.68387       -0.343353        -3.71193
LJ          0.248578         3.11711        0.014011
LJ          -5.95758        -4.73731        -2.06436
LJ          -5.16292        -2.41282         1.03181
LJ           3.53509         5.60476        -3.06551
LJ           2.11614        -1.76964         4.78431
LJ            5.8954        -1.38839        -3.10621
LJ          -5.46931          5.6034        -2.25728
LJ            -3.674        0.315086          3.1699
LJ          -5.99808         1.71962         6.02143
LJ          -3.85152        -2.92151        -6.23328
LJ          -4.83187         1.79812         -3.7809
LJ          -5.22108        -4.17494         5.59799
LJ        -0.0167458        -4.15699          3.1851
LJ           5.57137        -4.27072         6.18472
