108
#Comment!
LJ          -2.30037         5.41376       -0.723338
LJ          -5.19608         4.03154        -4.90635
LJ          -5.08122         5.46636        -5.96789
LJ           6.05809         0.60814       -0.170692
LJ         -0.197832        -2.90578          3.1982
LJ          -4.06079         1.95283         -2.7958
LJ          -5.87875         3.95655         2.34627
LJ          -1.03593        -2.07033        -3.56475
LJ          -2.31654         3.48542         1.30969
LJ          -2.24937          2.8877         2.93124
LJ          -2.53979         1.35269        -1.91257
LJ          -0.25229         3.74554         3.41873
LJ           1.44619        -5.37333         -2.9674
LJ          -3.98058         2.06433        -1.14945
LJ          -5.54893         -4.1596        -3.91044
LJ            1.6533         3.24601        -2.17376
LJ          -1.52624        0.665229         -6.4297
LJ           -4.4333         3.17726        -1.92389
LJ           4.50355       -0.689516         4.30082
LJ         -0.635048          4.8007        -4.39235
LJ          -1.57854        -2.35903         3.60491
LJ          -1.63942        -4.64933         6.20209
LJ           -1.1874         6.29947        -5.25955
LJ           4.42067         1.14838       0.0256837
LJ          -5.76388         4.86702        0.905269
LJ           2.69256        -4.75067         2.66582
LJ          -0.57408        -6.14519      -0.0407996
LJ           3.61258         4.37015         5.25599
LJ           2.52797        -2.57866         2.89579
LJ           -6.1737         2.95402         2.02576
LJ          -2.33631        0.494177        -1.38939
LJ          -4.57175        0.392321       -0.302573
LJ           1.82719         2.22908         2.87846
LJ            1.9722        -5.58108         5.02519
LJ          -5.68999         4.49017      -0.0237961
LJ          -2.43962       -0.524756        -6.24337
LJ            6.3726          1.7525         1.20142
LJ           4.23685         2.83972        -0.19478
LJ          -4.37812         -4.7901        -5.00966
LJ           3.83561         1.64691        -2.27419
LJ          -5.86612         -6.2433         3.51795
LJ           4.60721        -5.53511         4.12125
LJ          -1.26998         4.13228        -3.78019
LJ           2.52129         5.04878       -0.878897
LJ          0.110598          -4.814        -6.45611
LJ           2.16995        -1.04519         3.28693
LJ           6.09611        -5.31522         5.59194
LJ           3.24839         5.19983         1.49221
LJ          -1.91929        -5.62942         3.02901
LJ          -6.08245         2.33502        -3.82568
LJ           4.23192        -4.56012         2.14664
LJ           0.89708         3.04462         2.90495
LJ           1.72679         1.97925         1.84207
LJ          -1.21182        -2.87689       -0.716315
LJ          -4.39813         3.78218        -3.20434
LJ           4.09804        -5.23357        -3.88265
LJ          -5.86034         5.54805         3.51761
LJ         -0.304706         6.03893         4.74765
LJ          -1.30051       -0.359007         4.29843
LJ          -2.36274        -6.37767        -6.06589
LJ           4.93807        -0.65406         5.46634
LJ          -1.81272         2.77679         5.37476
LJ          -2.50353        -1.63563        -1.22381
LJ           1.63238         3.76244         3.69204
LJ           5.20872         6.00179         4.75539
LJ            1.0136         1.95439       -0.167381
LJ         -0.704659       -0.210565          5.1505
LJ          -3.12352        -5.05999        -2.42425
LJ           0.12838          4.4395        -4.96471
LJ          -5.00246       0.0769783        -2.34544
LJ          -2.02396         1.70526        -4.90213
LJ             1.664        0.522341        -1.75657
LJ          -2.99144       -0.191814         -3.0707
LJ           1.80287        -2.84045           0.135
LJ           0.44951        -4.70585        0.349813
LJ         -0.564617        -2.46497         2.28744
LJ           -6.4396         3.03093         3.43931
LJ           1.99323        0.358203        -5.00472
LJ            4.3972         1.19396         4.12063
LJ           2.37412        -3.54605        -1.56856
LJ          -5.09393        0.271475         5.90669
LJ           4.81765         6.04207        -5.62364
LJ          -5.03165         4.53369         3.31559
LJ          -6.33912         5.93987        -4.24037
LJ         -0.341744         6.20435        -3.36041
LJ           5.72982        -4.42801        -4.00121
LJ          -3.54472       -0.304358         4.06734
LJ          -1.78127         1.99767        0.534199
LJ          -3.93417        -4.98191        -5.90759
LJ            2.3998         3.07112         3.12111
LJ           1.76717        -5.12329         -1.8841
LJ         -0.840661        -5.18593         1.86659
LJ          -4.40552         3.84201         4.41162
LJ           1.10934      -0.0645878         5.64398
LJ            5.5994         1.38848        0.502238
LJ          -2.70489        -5.24279         5.97188
LJ           5.81994       -0.820839         3.76116
LJ           0.67995        -2.92869         4.67926
LJ          -1.26242        -3.68647         4.09122
LJ           -2.8117         3.98267        -6.30493
LJ           3.43831       -0.377334        -3.41886
LJ            3.2358        -4.64068        0.495693
LJ          -4.07931        -1.29048        -1.64592
LJ          -3.02256        -1.48068        -2.22217
LJ           -1.4667         4.10698         1.10862
LJ           5.60224        -2.81765        -4.75454
LJ          -5.09521         1.10503         4.37754
LJ          -1.31062       -0.651795        -3.05872
