108
#Comment!
LJ           -3.7529         6.44078         4.98069
LJ         0.0837843        -3.69245         6.29827
LJ          -4.54642         2.51565        -1.47261
LJ           5.14887        0.271746        0.740069
LJ           0.22433        -5.15874         5.68975
LJ           6.44722        -3.25482        -3.63921
LJ          -1.69651         -5.9621         4.55692
LJ          0.719809          6.1446         4.67424
LJ          -6.44691          1.6995         -5.2448
LJ           6.32965      -0.0837083         2.76899
LJ          -5.75097         1.49052        0.197363
LJ          -1.96734         2.48969         -2.6962
LJ          -4.65416        -4.51964        -5.91609
LJ          -5.90017        -6.44921         2.78542
LJ         -0.629973          4.3979         5.58727
LJ           2.41224         3.95151         -1.1893
LJ          -6.25547        -3.16576       -0.123558
LJ          0.637928         2.79102         1.01538
LJ           2.23773        -1.45092         3.65566
LJ          -2.67716        -3.71501         -6.3392
LJ           4.09855        -2.77811         1.09313
LJ          -3.38254         4.41454          -4.297
LJ         -0.248417        -4.36037         4.97944
LJ          -3.22019         3.36478        -6.14808
LJ          -5.14892        -4.25855         3.03522
LJ           2.74767        -2.20568         1.20182
LJ          -5.01942         5.88732        0.608392
LJ          -3.77098        -2.31342        -5.63044
LJ           6.39795        -1.34872         -2.5179
LJ          -2.81553        -4.51207       -0.882607
LJ           3.41944        -6.13678         2.28174
LJ          -3.27844         3.27736        -2.17149
LJ           4.63698        -1.96482        -5.48141
LJ           2.94573        -1.18088        -2.87593
LJ           6.04886        -6.39478          1.4256
LJ          -2.72325         2.61498        0.710644
LJ          -5.20951        -2.55789        -2.14019
LJ          -5.26107        -3.56214        0.399523
LJ          -4.26825          5.4247        -6.43646
LJ           2.65326        -2.79782        -2.86132
LJ         -0.156355        -6.11601         3.56175
LJ           -1.5502         1.42256         2.60326
LJ           5.84956        -5.67189         2.48537
LJ           3.16442       -0.412848         2.78585
LJ           3.65101        0.480968        -3.49486
LJ          0.013766        -1.18737         -1.1692
LJ           4.66466        -3.59494       -0.169881
LJ          -3.60532        -3.22888         1.79729
LJ          -1.09031       -0.112405        -2.43896
LJ           -4.5731        -4.36966         4.27097
LJ           3.52355         2.62028       -0.960294
LJ           1.18967         5.73956         1.69773
LJ          0.514251         1.91558         5.48163
LJ          -0.69324        -5.98092         2.61237
LJ          -4.83632       -0.433868       -0.645787
LJ           1.29247         1.85728        0.189445
LJ          -2.43385          4.9975         6.42399
LJ          -2.10353         1.29062         -5.4853
LJ           6.24873        -2.62294        -5.48023
LJ           2.44627        -6.13453         -3.9216
LJ           2.03598       -0.106925         2.22374
LJ          -1.59611        -5.56033         -2.8367
LJ           2.13241        -5.25965         5.18919
LJ           1.85703          5.9755         2.90437
LJ           3.87906        -3.57224        -1.04433
LJ          -4.52333         1.96582         3.52566
LJ          -2.49934         1.61937        -4.20978
LJ           0.58892         2.88538        -2.30192
LJ           3.93189         2.13982         2.54469
LJ           6.07332         5.73585        -2.63926
LJ           5.43613         2.80003        -2.55786
LJ          -4.48988        -3.23366        -4.49713
LJ          -1.68244         1.72824        -2.15643
LJ           4.81447         5.09625         4.54944
LJ           6.37397         6.16857       0.0505681
LJ          -1.68311        -2.43533         5.92959
LJ          -4.98669        -3.92318         1.35594
LJ           1.00595         6.16112        -0.97929
LJ          0.141046        -5.56352        -6.31937
LJ           2.99954        0.681106         1.88395
LJ          0.364254       -0.728827         2.13938
LJ            4.4179        -4.28265        -5.41256
LJ          -5.29912        -1.84873        -5.12529
LJ          -3.88758         2.62086        -6.01037
LJ          -5.87049        0.486983        -4.47479
LJ           5.53217        -2.58922         -3.0979
LJ             3.002        -1.68272       -0.423124
LJ           4.95976         3.16838        0.130335
LJ         -0.312812         5.81149         -3.3983
LJ         -0.707954          3.2334         4.62712
LJ             2.689         5.07262        -3.68756
LJ           1.12468        -1.21359         3.05889
LJ           1.64883         3.84686        0.203783
LJ           5.30897        0.562812         1.75738
LJ          -5.60322        0.166361         2.18922
LJ          0.684683       -0.900286        -2.15154
LJ           4.15324        0.532205         4.28079
LJ          -1.06093         1.09291        -2.69969
LJ          -1.69625       -0.548214         1.73879
LJ         -0.981125         3.49532        -2.92356
LJ         -0.222611         1.25319        -5.05446
LJ          0.886982        -2.11012        -5.86393
LJ           4.90501        -4.80164        -2.60079
LJ           2.31798        -6.09643        -2.40059
LJ          -1.23772        0.266998        -4.90244
LJ           -1.2702         6.06313        -5.48115
LJ        -0.0027112         5.76829       -0.353518
LJ         -0.806594         3.32152         5.77571
