108
#Comment!
LJ         -0.548632        -1.63282         5.29026
LJ          -2.25186        -1.48663         5.07807
LJ           4.81581        -6.45971         5.89001
LJ           4.46323         3.40483         1.88289
LJ          -0.56049        -1.83787        -4.86252
LJ           -4.7281         2.85835        -4.26887
LJ          -4.13441         2.24337        -2.10667
LJ          -4.51825        -6.22909        -1.63243
LJ          -1.15448         -5.4091         2.83548
LJ         -0.698165         4.02958         3.19588
LJ           1.23103         3.12801        -1.51098
LJ          -3.19243        0.233356         3.73353
LJ          -3.24536         5.11978        -2.22042
LJ          -3.07592        0.583673        -6.08669
LJ           4.83672        -2.54597        -1.72523
LJ         -0.767388         1.71491        -2.94445
LJ          -1.75603         0.96221         5.63466
LJ          -6.05502         5.35629        -5.74855
LJ           6.35598         2.25936         4.96544
LJ          -2.07568        -1.93213        -4.65795
LJ           4.51411         5.32617       -0.361819
LJ           5.80182        -1.01637        -3.50308
LJ          -4.89677         5.99596         -2.3634
LJ            6.1711        -4.49795         2.62976
LJ           5.31965           5.652        -2.23578
LJ          0.317217        -5.87837         3.60814
LJ           4.45503        -5.40974          1.5879
LJ          -4.42357         5.37701          3.0191
LJ           -2.2885        -6.11516        -4.66714
LJ          -5.11562       -0.636678         4.38883
LJ           4.16885         2.74415        0.598805
LJ          -1.80457         1.74546         3.78754
LJ           4.34447         1.07459        -0.74935
LJ           1.59565         3.19794        -3.89946
LJ           3.17384         4.96825        -3.14301
LJ           -1.1321        -3.53556        -1.44652
LJ          0.921783         5.15885        -3.92351
LJ           2.52893        -4.60319        -1.61446
LJ          -4.46469         3.64024        -4.77894
LJ           2.83169         1.89768        -1.04732
LJ           6.34768        -5.06624        0.288556
LJ           1.79341         3.65635         5.02808
LJ           1.23348         3.56454         6.23736
LJ           3.33052         1.62137         4.99118
LJ          -1.19451        -2.12938         3.03724
LJ           4.29036         1.25792         5.29852
LJ           5.46418         1.10053        -6.13486
LJ          -2.32814          1.0569         2.29563
LJ          -5.20442         4.47679         -2.0807
LJ           1.81328        -5.95986         1.46747
LJ            5.7119        -4.49809         6.41391
LJ          -1.40295         4.93467         2.60366
LJ           1.43513        -1.19401        -3.56224
LJ          -2.19342         1.59933        -4.02255
LJ          -5.51138         5.68273        -4.67942
LJ          -5.19378         4.14976         5.48222
LJ          -6.34934         4.83089         0.93642
LJ           1.41658        -3.43887         6.20318
LJ          0.322847         3.30688        -6.14297
LJ         -0.162954        -5.94784        -4.94478
LJ          -6.20139       -0.572387        -5.38909
LJ          0.691862        -3.89158        -1.90707
LJ          -3.56358       -0.816951        -2.14943
LJ           5.16866        0.675338         2.81681
LJ           4.44023        -6.35472         2.61227
LJ           4.05139         3.53775        -1.28662
LJ            2.9939         1.80507          6.1117
LJ           -1.5833         2.38875       -0.668509
LJ           2.15337        0.781534        -4.51346
LJ           3.97642         2.73762          4.1691
LJ           2.42824         1.23719         5.24762
LJ           3.01682         4.03442         1.94794
LJ          0.432481         1.21664        -2.91384
LJ         -0.150978         4.86809         -3.0318
LJ          -3.23081         1.86594        0.878941
LJ          0.900574        -5.07652        -1.80612
LJ           2.83921         2.99922         3.07438
LJ            2.5682        -4.09358         4.36343
LJ           5.90632        0.362289        -5.65474
LJ           5.38048         1.77239         -3.5563
LJ          0.490514        0.472723        -3.75931
LJ          -5.58733          1.9571         5.48696
LJ           2.24613         4.63197          4.5649
LJ          -6.18281        -4.23424       -0.207797
LJ          -3.47786         1.10284        0.235011
LJ           0.12134        -1.05188        -3.51013
LJ           6.37341        -3.18519         4.73985
LJ            2.7553       -0.587139        -3.93455
LJ          -5.95892        -4.09534        0.878469
LJ          -2.16237         1.93892        0.327506
LJ           2.36089        -6.42697       -0.401008
LJ          -0.76003         6.19166       0.0838855
LJ          -3.68268         6.40163        -2.43402
LJ           -3.4813         1.91612         4.05401
LJ           5.10969         1.08124         1.72524
LJ           5.45948         4.64708        0.864442
LJ           6.38985       -0.450504        -2.10311
LJ           2.98394         -5.8759        0.333489
LJ           2.94002        -1.11475         4.70391
LJ          -4.66461         3.98951       -0.985138
LJ            3.7965         -2.1127         -1.6004
LJ           5.17228         5.99385         3.17254
LJ          -2.96399        -3.22618         2.28756
LJ           -3.3554        -1.93483        -2.50776
LJ           1.36409         5.17441         6.34952
LJ           5.91021         3.49782         1.26154
LJ          0.787613        -0.90222        -6.42855
LJ          -1.07297        -4.01911        -3.95935
