108
#Comment!
LJ          -5.38836       -0.206928          1.7496
LJ           5.57172        -1.47252         2.96301
LJ          -3.85612        -2.55194        -6.33415
LJ           0.12179         4.25281        -5.88742
LJ           -3.0564         5.88983         3.58814
LJ          0.566518        -5.65666        -3.83326
LJ           6.03485         5.05433         2.29998
LJ          -5.73717         3.94448         4.50212
LJ           3.42172        -0.80762          4.2175
LJ          -4.18592        -4.92072        -6.18987
LJ          0.189552        -5.99909        -5.04067
LJ          -4.17233        -1.20951        -4.30783
LJ          -3.33281         4.72611          2.8162
LJ           1.69729         4.75353        -3.87171
LJ          0.671592         6.01058        0.167785
LJ           -2.0114         4.41328         2.77649
LJ           1.65779        -2.61432         3.29979
LJ           1.20575       -0.745781        -1.08021
LJ           -6.3388        -4.16043         3.60374
LJ          -3.79409         4.73588        0.354385
LJ          0.567685        -3.62274        -4.74706
LJ           6.08371        -3.01644         6.00168
LJ            5.8788         2.84672         2.71778
LJ          -6.16475         6.09142         3.34254
LJ          -5.93232        -4.85258         4.69101
LJ           5.57946         6.18361        -4.88185
LJ            4.7627        -1.00272        -4.31132
LJ            3.9787       -0.167647         1.22326
LJ          -4.87178         3.15671          -2.456
LJ          -1.26382         6.18979         2.01684
LJ           1.34214        0.668966        -3.46308
LJ         -0.441699       -0.100108         1.68447
LJ            1.6902         4.59838        0.514972
LJ           0.26441       -0.132341         3.20758
LJ          -4.30569        -2.27876        -2.62625
LJ          0.975064         2.47928        -4.72053
LJ          -4.29636         2.37185         3.10523
LJ           2.95164        -0.37514       -0.748806
LJ           4.54585         6.10186       -0.736446
LJ          -3.29157       -0.838951         -1.0766
LJ           5.03663        -1.00867        -1.40295
LJ           2.22946        -6.35606        0.219083
LJ          -0.43208         1.26084         3.52395
LJ          -6.38001        -2.67159         3.49639
LJ           1.75995         3.58913         4.21092
LJ           1.16324         3.88968        -4.04945
LJ          -2.85444        -4.40203       -0.675709
LJ          0.914856       -0.347503         1.25306
LJ         -0.219724         6.22117        -2.18149
LJ          -1.48945        0.702702          1.7984
LJ          0.384929        -4.55206        -5.37218
LJ          -2.80504       -0.237879        -6.15152
LJ           4.62079         0.43397       -0.711164
LJ           2.93189        -4.32747        -1.78387
LJ           3.75263         4.67109         6.05214
LJ          -4.37658          2.9172         5.85855
LJ           5.60298           4.778        -3.08335
LJ           1.07525        0.316344      -0.0661551
LJ           3.69929        -2.97884        0.968004
LJ          -1.15039        -5.25617        -4.57821
LJ           0.85486        -1.27742         2.28093
LJ          -2.89034         6.11417         4.54376
LJ           3.53502         -2.6161       -0.610347
LJ          -5.84178         3.34866        -3.37759
LJ           4.91129         -1.7674        -5.72065
LJ          -5.08599         0.73818         4.56114
LJ          -2.04023       -0.877983          4.8094
LJ          -5.26813        -2.74853        -2.30088
LJ          0.818066         6.11958         6.12868
LJ           1.60975        -4.01803         4.18976
LJ          -3.89636         2.22342       -0.827627
LJ           6.15522         3.82014        -3.77523
LJ          0.363289        -5.92497         -2.0275
LJ         -0.252516        0.133437        -5.01252
LJ           6.40302        -2.93434        -1.40605
LJ          -2.48071         4.52058        0.134784
LJ           4.47638        -4.35642         5.18812
LJ         -0.464784         -6.0582        -3.77571
LJ          0.500953       -0.890262        -1.75055
LJ            -3.674         5.43925         4.74458
LJ           1.37291        -3.99586         5.69639
LJ          -6.06988        0.385684         5.10495
LJ           2.27228        -4.23822        -3.72426
LJ           4.57917        0.740636         4.48728
LJ           5.82356         3.36631         4.17404
LJ          -4.20096        -3.19538        -4.44342
LJ           4.75452         4.78535       0.0481492
LJ          0.567857        -5.29362        0.433857
LJ           2.41692         3.42239         3.16904
LJ           3.02562          3.5766         5.08024
LJ           -2.9893       -0.876207        -3.12188
LJ          -4.80728         4.56918        -1.36556
LJ          -4.67235         5.54268         -2.9031
LJ          -1.28965        -1.98194        -4.99553
LJ           4.77088         5.75276         1.76775
LJ           1.26213        -5.21178        -4.85265
LJ           1.96642        -5.41247       -0.946636
LJ           -3.3067         2.54818         3.59165
LJ           3.72179         4.50124        -1.86572
LJ          -5.94939        -1.53927         4.78743
LJ           2.40871         5.23205        -4.61999
LJ           4.87913          1.7486         1.90371
LJ           5.06284         4.26357         4.18812
LJ          0.895903        -1.44965        -2.79845
LJ         -0.759719         3.63903         1.67505
LJ          -6.06718        -4.82912       -0.903775
LJ           3.32768          -5.742       -0.853664
LJ           1.41595        -4.89503         6.36159
