108
#Comment!
LJ           2.99326         3.90274         2.14039
LJ           -1.4102         1.64416         4.14601
LJ          0.873403         1.39913        -2.17768
LJ          0.454928         -1.3584        -5.55647
LJ          -2.51324          4.2096        -1.51701
LJ          -5.23963         -5.5972         1.62502
LJ          -2.45265         6.19132        -3.56805
LJ           2.86906        -5.60424         2.38499
LJ          0.680812         6.45793         -6.4116
LJ           3.21861        -4.95702        -6.32383
LJ           4.80874         4.97799        -5.94014
LJ           3.60973         1.61306       -0.408125
LJ          0.645061         2.64742          -3.279
LJ          0.815385        -1.22881         5.84266
LJ           2.23251        -5.19911        0.406245
LJ          -4.51184        -3.52127        -2.54639
LJ         -0.705692        -3.51827        -2.54104
LJ          -5.88255        0.855125         3.31631
LJ           2.08843         2.04679        0.141998
LJ          0.664681         1.75415         2.56567
LJ          -1.79436        -3.82387        0.300094
LJ          -4.04929       -0.780139         3.03386
LJ          -5.02186        -2.08025         2.21632
LJ           1.96095         4.14059        -0.32756
LJ           3.54706        -2.97917       -0.249814
LJ          -3.12569         3.28592        -4.52049
LJ          -5.90665         3.37796         5.02587
LJ          -4.32353          4.0774         4.45124
LJ           1.64658        0.189764        -3.73371
LJ          -4.24211        0.343393        -1.75434
LJ           3.01957        -1.49459         5.78108
LJ          -5.29094         2.45179         1.54186
LJ           4.54588         3.73509         5.22662
LJ           -2.1879        -1.52173        -3.39349
LJ           4.12752        0.557439         6.43717
LJ           2.73983        -1.30934        -3.78621
LJ          -6.41643         5.20543        -2.49029
LJ           5.40573        -4.07615           5.016
LJ          -0.75761        -4.33403         1.30853
LJ          -4.18895        -3.43576         5.92264
LJ           1.06796         2.64179        -1.13068
LJ         -0.861074        0.327155          4.5061
LJ           -1.5568       -0.835205         3.37106
LJ           4.27955         4.69043         3.59712
LJ          -5.27977        -4.13254        -5.92272
LJ           4.65805        -2.52312         4.53497
LJ           1.49056        -4.78483          2.6358
LJ          0.644474         6.14045        -5.35217
LJ           3.25826         2.01927         -1.8541
LJ          -2.37283      -0.0368593        -5.79505
LJ          -5.61549        -5.66815          4.6982
LJ          0.320253         2.36456         1.11317
LJ          0.852532        -4.67263        -2.36179
LJ           5.48096        -4.80426        -1.78056
LJ          -5.56385         4.06794         3.60586
LJ          -3.17515        -2.39752        -1.91937
LJ          -3.93226         4.62354         1.42387
LJ           5.43073         3.83594        -1.70439
LJ           4.18942        -5.91371         5.79741
LJ           -2.5196        -4.26891         2.84169
LJ           1.60822       -0.785585          1.6674
LJ          -5.45475        -1.87881          3.9324
LJ          -6.30192        -4.05906         4.12026
LJ           -6.4185        0.562051         2.46353
LJ          -1.37256       -0.284294        -2.67093
LJ           3.32066        -6.08332         -5.5082
LJ           5.85481         6.16718        -2.77397
LJ          -6.28932       0.0435777          4.8764
LJ           3.92865         -4.0411        -3.00606
LJ          -1.07194         3.92039       -0.373687
LJ           5.88953         5.91705        -1.40265
LJ           5.20686         1.09063       -0.614377
LJ           2.34911        -6.13724         1.61013
LJ          -3.89499        -5.45889        -5.96703
LJ         -0.471049         2.43983         3.19561
LJ          -4.81799       -0.121011         3.42526
LJ          -2.44075         2.80397        -3.65889
LJ          -4.71642         5.27659         1.70916
LJ           5.52224        -2.65842         2.75369
LJ          -5.64515         5.19111         5.79489
LJ          0.326333        -5.63961       -0.517028
LJ          -6.12597        -4.77943        0.701387
LJ          -2.77379         3.56903        -2.92926
LJ          -1.33398         2.61881          3.6953
LJ          0.462541         5.64812        0.998891
LJ           2.54263         2.12584         5.94659
LJ           3.40529        0.608635         2.23481
LJ          0.297527         5.24878        -1.14272
LJ           3.75831         5.11405        -2.63493
LJ          -3.69278         5.84542         4.40863
LJ          -4.93787           3.185         6.08795
LJ           2.49908        0.207171         1.75447
LJ          -4.52674         4.89302         6.35901
LJ            2.9186       -0.738238         4.18083
LJ          -6.45611         2.78914         -1.2791
LJ           5.46256         3.49897         3.44295
LJ          -1.03496         6.24223         5.54836
LJ           6.11107         4.59647        -5.64288
LJ          -3.42929        0.401423         1.87928
LJ          -5.08936        -5.06719         3.74681
LJ           1.67827        0.511578       -0.402922
LJ           6.35775        -6.08835       -0.736142
LJ           3.76154         3.70622         3.42275
LJ          0.209526        0.366729         4.24102
LJ          -3.33159         -2.3043         2.61121
LJ          -6.29836        -1.44642        -5.65272
LJ            4.3923        -4.95283         2.30465
LJ          -2.43958        -5.12985        -6.17689
