108
#Comment!
LJ           2.65184         5.35599         2.62062
LJ         0.0325187         1.68131         4.79612
LJ            4.1109          1.3167        -2.07826
LJ           1.57932        -2.87566        -6.04341
LJ          -3.41672         4.13543       0.0265464
LJ           5.82828        -3.94422         1.49397
LJ          -5.07909          3.2047        -4.01228
LJ             3.501        -4.37174         4.89888
LJ           3.21604        -4.60192        -4.35237
LJ           2.63679         4.54199         6.22946
LJ          -5.51998         3.52108        -3.15668
LJ          0.866852       -0.116698         1.02588
LJ          0.640975         6.08271        -1.99185
LJ         -0.480155         -1.7264         -4.8738
LJ           2.39412        -4.44259         2.58434
LJ           -3.8617        -3.49225        -3.13058
LJ         -0.489908        -5.18577        -5.00025
LJ           4.77065         2.13921         1.13664
LJ           2.59674         4.34212         4.10769
LJ          0.526867        0.820598          2.4515
LJ         -0.406324        -4.34335        -2.71368
LJ          -2.14762        -1.41408        -1.52081
LJ          -5.28347        -3.16393         3.22587
LJ           4.04929         3.37607        -1.35177
LJ            4.2885        -1.83928         1.42133
LJ         -0.930216         2.00637        -5.58783
LJ          -5.47063         1.30477        0.241626
LJ          -4.86538         4.14626         5.65378
LJ          -2.11662        -1.58199        -5.49346
LJ           -3.4104         1.37711        -1.92373
LJ         0.0248012        0.070798         5.01046
LJ          -3.40385        -1.94325        -2.06386
LJ           5.06065         2.57176          -4.504
LJ          -5.61164        -0.41383        -3.63828
LJ           3.36077          1.5489         5.27643
LJ           4.69306       -0.947215        -4.10902
LJ          -5.50133        -5.28252        -5.72709
LJ            4.3211         -3.2382         -5.4683
LJ          -1.37234        -3.02345       -0.631893
LJ         -0.992189        -4.24589        -4.75409
LJ           2.59969           5.101        -3.00576
LJ         -0.850824        0.257852         4.13215
LJ          -1.92259       -0.960644         1.01485
LJ           5.97431        -5.43797        0.275347
LJ          -2.11117          -3.248        -3.83062
LJ           4.90272        -1.18482        -5.42507
LJ           1.23955        0.747395         3.99271
LJ           6.04164         3.55669        -4.55987
LJ           0.59915         4.86406        -4.32507
LJ          -4.60877        -3.77046        -4.03835
LJ           5.45023        -3.69509         5.80708
LJ          -3.27441       -0.031196         1.99625
LJ          0.586046         -4.7022        -3.52744
LJ           6.09925        -6.25128        -3.02102
LJ          -5.95112         4.08776         5.66424
LJ          -4.25584        -3.79824       -0.345479
LJ          -4.34798         4.83225        0.856115
LJ           4.01741         3.04971        -3.95174
LJ           6.08191         6.17291        -5.83838
LJ         -0.142045        -6.12672         2.90265
LJ          0.392135       0.0922183        -1.38792
LJ          -4.53991        -0.21842        -5.82926
LJ          -6.04351        -4.81923         2.26237
LJ            3.7481        -2.21782         3.13679
LJ           -4.7642        -2.19603       -0.133245
LJ           4.39638         5.52368       -0.041803
LJ          -5.60446        -6.24695        -2.82458
LJ           6.43731        -2.45302         2.20761
LJ             2.928         4.57091        -4.81475
LJ          -1.40744         2.85998         -2.0587
LJ           4.54021          3.6248        -2.87599
LJ           3.70162        -2.07391      -0.0308455
LJ           3.46039        -5.92191         5.54029
LJ          -3.54086        -4.97524        -4.75346
LJ          -1.23823         5.51669         2.46895
LJ           4.26892        0.172981         1.98245
LJ          -2.15034           4.622        -2.85243
LJ          -5.02953          5.4858         1.38561
LJ          -5.26605        -2.23025         -5.5471
LJ           6.32437         4.33074        -5.17455
LJ          -2.88224        -4.41646        -2.23245
LJ          -6.39444        -2.83908        -2.24931
LJ         -0.730712          3.2014        -3.78986
LJ         -0.983118         1.85571        0.680398
LJ          -4.29841         5.47172          2.0337
LJ          -5.47116         0.63158        -4.09672
LJ           4.89302         -1.1722         3.29686
LJ           2.83606         3.06017        -0.19402
LJ           3.41925         3.05763         -2.6468
LJ          -4.29274        -4.14154        0.511394
LJ          -4.86774         2.38307        -6.23257
LJ          -0.93051        0.167077       -0.603945
LJ          -5.29976         4.28898        -5.66503
LJ           5.00465        -1.96317         6.33547
LJ          -5.15696         6.02865         -2.1883
LJ           4.09933         5.80029         3.77256
LJ          0.294855          5.8598         4.64822
LJ          -5.89023         3.49748        -4.66114
LJ           -3.6505         2.86157        0.817294
LJ           -1.0064        -5.37729         2.79167
LJ         -0.905942         4.15655       -0.774933
LJ           4.45049        -4.60716         2.13211
LJ           3.96027         6.05873         2.17268
LJ         -0.488776         1.60299         5.88669
LJ          -3.82864       -0.700311        0.840204
LJ           4.84579        0.243351         5.45182
LJ           4.30453        -2.73656         2.25629
LJ           1.43845         5.32056         -6.4312
