108
#Comment!
LJ            -3.276        -3.60505         4.94879
LJ          -1.20907        -5.28025        -5.85205
LJ          -4.42967         3.15743        -2.58227
LJ           5.43155        0.420212        0.495993
LJ          0.797913        -4.13717          5.1422
LJ          -5.98184        -4.35898        -2.91295
LJ          -2.42128        -6.44348         4.41471
LJ         -0.162822        -5.09161         5.88744
LJ           5.05999          2.1943        -2.63056
LJ          -5.04989        0.817913         3.15733
LJ          -5.40423         1.71132       0.0403024
LJ          -2.13841         2.62842         -4.8785
LJ          -6.06346         -4.7915         -5.1386
LJ          -6.07218         6.00239         1.65892
LJ           1.58586         5.31941         6.23239
LJ           2.44281         3.69896        -1.11688
LJ          -5.03421         -2.1561        -2.03844
LJ         -0.671323         3.05871        0.383073
LJ           2.16065        -1.22332         3.87172
LJ          -2.69916        -4.33577        -5.81046
LJ           5.54474        -3.37146         2.60486
LJ          -2.35918         5.14133        -1.75236
LJ         -0.646886         -5.3835         4.70101
LJ          -2.66511         4.15352        -4.66578
LJ          -5.28649        -5.10274         2.73691
LJ           2.93659        -3.33438        0.675156
LJ          -5.62381         4.67577        -1.17581
LJ          -4.91438       -0.260281        -6.06241
LJ           5.65047         -2.3181        -1.94679
LJ          -3.55447        -5.77311        -0.65851
LJ           5.21686         -4.2842         3.47067
LJ          -2.03808         2.80782        -2.91859
LJ            -5.937        -1.29051         -6.1842
LJ           2.71209          -1.697        -1.38094
LJ          -6.07946         4.71007         1.48074
LJ          -2.34872         2.41059         2.50196
LJ          -5.76722        -1.64742        -4.21678
LJ          -6.10317        -2.45661        0.256583
LJ          -3.70001         5.64447        -5.53766
LJ           3.86747        -2.30479        -3.50297
LJ         -0.701194        -5.68048         3.47687
LJ          -2.95186       -0.211383         2.83391
LJ           5.31602         5.79923        0.651718
LJ           2.04237        -3.02099         3.00179
LJ           2.58301        -1.54576        -4.41791
LJ          0.286836        -1.33415     -0.00982098
LJ           4.30167        -3.36102        0.677284
LJ          -4.81267        -4.26537          1.6155
LJ           -1.4003        -1.45373         -2.0496
LJ          -5.02423        -2.78686         5.04737
LJ           4.24633         1.30491       -0.830124
LJ          0.829727         3.83884         2.64759
LJ           1.26765         3.00102         4.10138
LJ         -0.760224        -5.43295         2.33827
LJ          -3.39543         1.30055        -1.40048
LJ            1.9681        0.764602       -0.163621
LJ          -3.23204         6.15855         5.78594
LJ          -1.36703         2.96197        -6.00769
LJ          -5.64551        -3.39492           -6.07
LJ           1.29257        -5.85376        -4.70232
LJ           2.68165        -0.48324         2.91076
LJ          -2.23082        -4.03928        -3.15218
LJ          0.711183        -4.15237         3.78622
LJ           1.72342        -6.13884       -0.851225
LJ           3.70244         -4.0685        -1.23324
LJ          -5.80109         2.06026         6.27558
LJ           -1.9627        0.745732        -4.79975
LJ           3.86874         1.85076        -2.00658
LJ           3.33962          3.2091         4.00139
LJ          -6.09387        -5.25275        -2.84707
LJ          -6.27807         2.50462        -3.16286
LJ          -2.64381        -2.32306        -3.40468
LJ          -2.37017         1.25621        -2.27679
LJ           3.64099          4.9811         3.56357
LJ          -5.00909        -6.20054        0.369555
LJ          -2.02949        -1.72569         5.06568
LJ          -5.18094        -2.09742          1.9303
LJ           1.07435         4.67259         -1.7493
LJ          0.596796         5.82807         6.08465
LJ           3.55904      -0.0679379         1.84441
LJ           1.61994        0.279598         3.59583
LJ           3.75124         -3.2993        -4.34074
LJ          -4.56191        -3.32087          6.2904
LJ           -4.6246          3.3671        -5.90978
LJ           5.37706         1.73342        -4.51478
LJ           4.98564       -0.840116        -3.49187
LJ           1.54806      -0.0543673         1.64813
LJ          -5.34492         1.36624         2.23518
LJ          -1.06648         6.23519        -3.61653
LJ         -0.661941         2.68901         3.89017
LJ           1.32443         5.01458        -3.40566
LJ           1.58508        -2.09946         2.17467
LJ          0.427513         2.18693         1.44016
LJ           4.53552       -0.521317         2.36953
LJ          -6.32095        0.325178         1.55993
LJ           1.95957        -2.13629        -2.98755
LJ            4.3728       -0.111292         3.80302
LJ         -0.939336        0.262085        -4.09136
LJ          -1.58171         1.39628         1.87075
LJ          -1.37767         3.25716        -3.83721
LJ          0.643658        0.845051        -4.56816
LJ          0.883953        -2.65033        -4.31733
LJ           2.66184        -4.92406        -2.35532
LJ          0.709229        -5.23351        -2.03952
LJ           -1.6706         1.01501        -5.97257
LJ          -2.98584         -5.9599        -6.40552
LJ           1.72998         4.90497        0.936736
LJ         -0.450599         2.24074         5.61446
