108
#Comment!
LJ          -3.10737        -2.77385         1.82034
LJ          -2.19962         3.13842         -5.0038
LJ           5.96253        -4.85447         4.41681
LJ            6.2094        -1.73158        0.601774
LJ           5.96373        -5.32134       -0.553651
LJ          -6.45863        -4.17466         -1.2754
LJ           1.51201       -0.681839        0.270537
LJ          -5.40614        -4.00639        -2.63772
LJ         -0.950882         4.09835         4.32406
LJ            2.5165         2.56918         1.89709
LJ          -3.02872        -1.17076       -0.578914
LJ          -4.49439       -0.967554         5.39233
LJ          -1.11338          3.3054         2.01312
LJ          -6.10215         2.97082        -4.70513
LJ           -1.3527        -3.23649          5.9806
LJ          -1.95951        -5.06714        -5.81435
LJ          -2.88251       -0.665642         1.89518
LJ          -3.09057         3.73775         1.07376
LJ          -1.69869        0.979493         6.34583
LJ           5.19567         -1.4893        0.733988
LJ           5.36594        -2.81319         1.61759
LJ          -2.47553        -4.52432        -4.03769
LJ          -1.63061         1.64974         2.10451
LJ          -5.54566        -3.76748         5.55522
LJ           5.50894         3.15519         3.01409
LJ           1.37421            5.08         1.79121
LJ          -1.88658         2.40482        -6.34837
LJ          -5.86319         4.30746         2.50671
LJ          -3.82587        0.764116         1.16567
LJ           6.07706         4.03259        -1.77068
LJ          -4.04266        -1.93695         4.97086
LJ          -4.67243         2.09034         4.87121
LJ           3.63875        -4.71418         1.44621
LJ          -4.37781        0.593858         2.87667
LJ           -1.6277         5.33221        -0.65522
LJ          -5.06436         6.09809       -0.487491
LJ          -1.76278        -2.68409       0.0341823
LJ          -2.66395         3.27863         2.53402
LJ          -3.62092         4.76189        0.756333
LJ           3.35364         3.84733          3.9303
LJ           2.16984         5.30075        -4.41058
LJ           1.12455        0.544323           2.236
LJ           5.15507        -5.63023        -5.31704
LJ          -5.99999        -1.78649        -3.68775
LJ          -1.88116          4.1032        -1.82333
LJ           1.01626        -4.62295        -6.21642
LJ           2.68221        -1.83788        0.444265
LJ           2.61104        -6.35658        -4.31459
LJ           2.93456          3.8858        -1.45263
LJ          -2.28402        0.946366       -0.641031
LJ           6.42685        0.112268         -3.6767
LJ           3.43295         1.60651        -3.87533
LJ           6.36639        -2.36676        -4.92882
LJ          0.677498        0.657722          5.5202
LJ           1.13918         6.41912        -4.45146
LJ           4.80173         1.67969         1.23982
LJ           2.79659        -1.08746         1.32936
LJ           3.71377        -2.06494        -5.55903
LJ           2.86167         5.24714         5.32912
LJ           3.20428        -2.87099       -0.187093
LJ           1.77119         1.32407        -5.35576
LJ         -0.236575          2.5543         1.94108
LJ           2.02332         3.99061         1.62421
LJ           6.07312         4.62064          2.4062
LJ           3.34761        -3.27703        -4.58156
LJ           4.00197         5.17081         2.56463
LJ           3.64678        -4.95526        -4.89365
LJ           1.38086        -6.13621      -0.0820429
LJ           4.30117         4.56706        -4.17125
LJ           6.26504         6.30166        0.473878
LJ        -0.0278059       -0.996448         2.97836
LJ           4.88889        -2.91108        -2.23816
LJ          -4.99768        -3.50135         3.79013
LJ          -3.47804         6.00691         -1.6837
LJ          -3.35385        -3.07528        0.570895
LJ         -0.546008        -6.23525        -6.12356
LJ         -0.294486         3.86489        0.845185
LJ          -3.51591         1.62653        -2.87229
LJ           -1.7162        -5.46243         5.00562
LJ          -5.11257         5.65481         2.20741
LJ          -3.84166         2.13963        0.348363
LJ           1.90264         4.89928         4.96735
LJ          -5.86035         4.99285         3.53576
LJ          -5.18959         2.23869          -5.081
LJ          -6.03869        -3.14563         3.26569
LJ           5.78396        -4.38823        -3.41605
LJ         -0.962913          5.3803         1.75529
LJ          -4.10893         3.28822        0.830888
LJ           5.86499          4.7111         1.07003
LJ           5.24359         5.27276         2.83554
LJ           5.81468        -3.22827         2.43232
LJ          0.670615         4.43646         4.49661
LJ          0.438083        -3.14276         6.13088
LJ          -6.31363         1.48181        -2.11623
LJ          -3.87082         1.03528        -1.53842
LJ           5.52085          -5.362        0.547735
LJ           -3.2294        -3.50735         3.54789
LJ           5.90274         6.00125         -4.7417
LJ           1.73915        0.302282         6.16212
LJ           5.45338        0.441312        -1.51442
LJ           5.05238         4.91666        -1.07801
LJ          -1.00889         1.26103         3.12975
LJ           -5.9579        -1.47427        -5.78319
LJ          -2.87276         -3.0635         5.91435
LJ            6.4534         2.00878        -3.95478
LJ          -4.83833        -5.03367         6.18065
LJ           1.72848        -2.59417         3.87471
LJ           5.23497         -3.7131        -5.98328
