108
#Comment!
LJ           5.29812        -3.60916         5.13088
LJ          -5.14202        -2.90303       -0.499127
LJ          -1.72843       -0.736615        -4.61183
LJ          -0.17061        -5.26772        -1.01784
LJ         -0.479879        -2.28009         1.87854
LJ           1.87211        -4.48382         1.12952
LJ          -1.57278         6.39312         2.49587
LJ          -5.51925        -5.52084        -1.80351
LJ           2.22738        -3.24957          4.6597
LJ          -5.16256         4.30682       -0.755257
LJ          -2.41432         6.11706        -4.55143
LJ          -4.72742        -3.67001         5.32303
LJ          -4.50134        -5.71371         3.32796
LJ          -2.11866          3.4483         1.60769
LJ            0.2543         5.65754        -2.86385
LJ          -1.54369        0.398915         5.56649
LJ          -2.38008         -2.5437        -5.48474
LJ           5.03955         4.86279        -3.20389
LJ           6.39793        -5.60341          5.5275
LJ          -4.07184         5.95649        0.960941
LJ          -2.70272        -2.18066        -2.92561
LJ          -3.59623         2.72483        -3.34424
LJ          -3.46542         2.48712       0.0356178
LJ           2.50939        -3.19825        -3.29214
LJ          -5.37068         1.50147          4.5026
LJ          -3.88933        -5.67313        0.558709
LJ           2.61746        -1.23583        -4.81875
LJ          -4.79747         2.07389        -1.20576
LJ          -2.80623         1.05865        0.714006
LJ           1.16438         -3.7935         3.98586
LJ           3.11423        -2.66597         5.97222
LJ          -1.95066         1.77486         2.65767
LJ           1.87978        -4.55731        -3.19204
LJ           4.65111         5.42903         2.33089
LJ           5.23382        -3.39061        -3.21519
LJ            1.1041        0.927329        -3.56258
LJ          -2.77146         2.78617         4.35708
LJ          -6.41837         5.25689        -4.45568
LJ           5.36818         4.65215        0.800289
LJ        -0.0209099        0.981731        -1.07014
LJ           4.80597        -3.12781        -1.46406
LJ         -0.682136         4.99842        -1.99336
LJ           -6.2419         4.41068         4.41844
LJ           5.89969        -5.32642         2.53724
LJ           1.57455         1.14092         3.89147
LJ          -2.55689         4.38501         3.70159
LJ          -4.62105        -4.00063        -0.76777
LJ           3.15492       -0.291903         1.93736
LJ         -0.697077          0.9986         -2.9696
LJ          -4.77571         1.79401         1.64324
LJ           -3.5692        -3.03522         5.62846
LJ          -4.73501        0.189689         -1.5763
LJ           3.49502        -1.11477        -1.76317
LJ          -1.76391        -3.12941        -2.98657
LJ         -0.712139         4.87457         3.53781
LJ           6.21881         -1.2179         6.24104
LJ          -3.27649        -4.03278       -0.611126
LJ           3.64369         4.68763         -2.7468
LJ           1.95883        -1.43758         4.74353
LJ         -0.205271        -1.47675        -5.53751
LJ          -4.39426        -4.80396         1.19941
LJ          -2.72414        -3.21629         -3.2091
LJ          0.458445         -2.5929       -0.624914
LJ          -5.15988       -0.422353        -5.82209
LJ           1.76292        -1.37276          6.3919
LJ         -0.258671         4.84561        -3.47379
LJ           0.95967        -3.88198         -2.7563
LJ           4.02985         3.35966        -6.32291
LJ          -5.36268        -6.06161         -2.5979
LJ            2.5803         4.52862       -0.821452
LJ          -3.92839         1.24741        -1.84858
LJ           6.27731        -2.25727        -4.67432
LJ           1.36511         4.30734        -2.51705
LJ         -0.812395         4.77232         5.02746
LJ          -5.31571         4.81422        0.107454
LJ          -1.27858        -3.59175         4.01279
LJ           2.83769       -0.730369         4.61243
LJ           1.88675       -0.262692        -1.20782
LJ          -3.89233        -0.49099        -5.87837
LJ          -2.32798        -4.96054        -5.80077
LJ           4.91838        -5.29994        -4.45947
LJ           -3.3013       -0.669145         2.29836
LJ          -6.07411          -4.431        -2.15824
LJ           5.02085         1.02638         5.89168
LJ          -6.14998        -4.28211         2.47457
LJ          -3.29093         5.16562        -3.13859
LJ           5.81257         5.15661       -0.094144
LJ          -3.72651         1.37722        -3.54711
LJ          -5.98904        0.171913         2.13192
LJ           2.03348          4.0286         5.70406
LJ          0.814679         2.37112        -4.50379
LJ          -4.62282        0.621318         3.87032
LJ            5.6533        -4.91587        -5.02381
LJ          -3.65996        -2.00362        -4.39412
LJ           -0.8586         5.59468         1.99422
LJ           2.07472        -1.08714        -2.74279
LJ          0.504065        -0.15419        -1.23567
LJ          -1.81533         3.97107         4.80495
LJ           3.15106          5.2144        -3.50826
LJ          -5.31733         5.74096        -1.11617
LJ          -1.26497         1.82788         4.11637
LJ            3.1619        -2.31517        -4.73949
LJ           5.65649        -5.06147        -3.18656
LJ          -1.42597       -0.781831        -2.40829
LJ          -4.21805          6.2468         6.23929
LJ          -4.43848         -3.4851        -6.38255
LJ           4.68355         5.04425        -2.00913
LJ           -4.9919         4.81808         4.88635
