108
#Comment!
LJ           2.04907         3.10396         1.99716
LJ           1.93475         1.01199         1.78086
LJ          -4.53068       -0.738651        -3.79912
LJ           4.85855          -3.024        0.764451
LJ          -2.04786        -6.36852        0.931447
LJ          -5.52807        -3.84283         6.11909
LJ          -5.22827         0.71258        -4.13789
LJ           5.13565        -4.16296        -3.24734
LJ           5.37942         5.18293         5.55518
LJ            4.0652        -4.09136         2.88391
LJ          -1.62456         2.23705         1.25881
LJ          -4.17316        -3.17497         5.42042
LJ          0.742337        0.289997       -0.496032
LJ           2.45587        -2.31309          6.4044
LJ           -1.2385        -1.77904        -5.84987
LJ           -3.1151        -4.17038         5.63873
LJ          -2.88417           -4.51        0.471143
LJ          -5.35456         2.76138         2.07853
LJ            4.3006        -2.88442        -4.39574
LJ          -1.25939        0.764287        -2.43878
LJ          -3.47587        -3.99914        -5.05616
LJ           2.79789         3.48807        -2.50755
LJ          -6.45443        -5.24259         5.00313
LJ           -4.5186          2.7363        -3.18982
LJ           3.71718         3.80949         4.73871
LJ         -0.217508         4.12535       -0.351118
LJ           -5.6201        -1.43353          5.1638
LJ          -4.24762          3.1431         -4.7699
LJ          -4.60864        -4.73221         6.18309
LJ          -0.68533         3.77172         1.36539
LJ          -2.49866         1.30587        -4.39284
LJ          -3.94739        -6.18784        -6.35571
LJ          0.607181        -2.62831         3.20147
LJ           4.15341       0.0308475        -1.44372
LJ           5.20277         1.61716        -3.81551
LJ           5.18712         2.44333         2.13442
LJ           4.73025        0.551788         1.70604
LJ           2.75543       0.0415961         -2.4239
LJ           -1.9551       -0.509855         1.54272
LJ          -6.17718         3.94186        -2.62942
LJ           5.07714        -3.02888         6.15233
LJ          -5.97969         1.49303        0.958558
LJ          -2.11432        0.102756        -2.96325
LJ          -1.20835         4.27387         2.43083
LJ           0.56485        -1.22933        0.712662
LJ          -5.80926        0.905252        -5.25126
LJ           4.20747        -5.89435         5.25602
LJ          -5.00189         2.30916        -1.40342
LJ           5.09498         3.86941        -5.52284
LJ         -0.410428         1.55425         3.91012
LJ           4.02241         -1.8144        -5.19045
LJ           2.78786        -5.55542          1.7786
LJ           3.01394         3.94983        -4.37947
LJ           5.90618         5.15321        -5.79965
LJ           5.88672         3.02881        -5.07664
LJ            2.6573         -3.3269        -1.17226
LJ           3.38402         -5.3917       -0.436532
LJ           4.46234        0.681804         3.90539
LJ         -0.649655         1.82408        -5.61997
LJ           3.59501         4.26389         1.92536
LJ          0.265013        -0.79318        -1.80886
LJ          -3.04013         2.45182        -2.06198
LJ          -4.45726          4.7935         -1.6637
LJ            3.6438        -2.86212         5.69524
LJ        -0.0295584         2.45115        -1.07504
LJ           1.53749        -1.08832         3.52835
LJ           3.10905         6.17762          5.5254
LJ           3.64459          -2.083        -1.93956
LJ          -1.21464         -2.8473         4.33172
LJ          -2.08513         4.04598         -3.5157
LJ           1.93722         3.16656         -4.5511
LJ          0.884995         6.41256       -0.267051
LJ            5.9077        -5.09104        -2.99191
LJ          -4.73155        -3.73666        -2.66554
LJ          -2.99452       -0.928768         1.41707
LJ          -3.64554        0.879144       -0.652847
LJ          -1.16131        -4.24009        0.524821
LJ           5.29789        -5.33923        0.171675
LJ          -4.11754        -2.71923        -5.64085
LJ          -6.14404         2.80715        -3.51967
LJ            -4.036        -3.61758         1.57736
LJ          -4.38802        -3.88947        -5.63197
LJ          0.856912        0.552272         5.42835
LJ          0.183008      -0.0567536        -5.09212
LJ           4.28387          3.4476         5.56261
LJ          -3.39967        -4.59207        -2.80775
LJ           5.41036        -4.44518         1.13251
LJ           1.19429        -0.26824         -5.8718
LJ           3.20291        -2.26379       -0.277861
LJ           6.38039        -3.94711         4.05811
LJ          -4.30395        -1.74891        -2.87462
LJ          -4.36678           -1.72        -4.01263
LJ          -5.90987         3.14277        -1.68891
LJ          -5.20422       -0.745464         4.36712
LJ          -1.60745        -2.41843        -2.92486
LJ           3.75876        -1.29043         6.32467
LJ           3.79658         5.04141         2.90483
LJ         -0.823964         3.21989         4.01756
LJ          -4.12831          2.1551         -1.0691
LJ            2.1582        -2.31251       -0.473482
LJ          -4.18738        -4.44625        -3.61083
LJ          0.681319       0.0931103        -2.71608
LJ           3.89003        -4.80968        0.551915
LJ         -0.721129       -0.938301         3.83879
LJ          -5.29375         1.55444        -2.27448
LJ         -0.469947        -5.48678          3.3614
LJ           6.02875       -0.768962         5.39564
LJ           6.24001         1.87765        -4.21804
