108
#Comment!
LJ          -4.26189        -2.57872         6.25582
LJ          -2.37186         5.21762        -6.05312
LJ           -5.6418         -5.9056         5.84839
LJ          0.574231        -5.89301        -3.35911
LJ           1.25519          3.5121         5.44716
LJ          -6.04231        -3.95859         4.02388
LJ          -6.34672        -5.21422        -2.37842
LJ           1.23652        -3.60664        -2.80924
LJ          -3.74227         4.80129         5.66801
LJ          -1.02982        -3.98743        -2.22785
LJ           2.40356        0.857915         4.60608
LJ           1.11052         5.03799        -4.89562
LJ           2.97956        -4.39283        -6.08792
LJ          -1.53746         2.10073         6.41812
LJ          -5.00295         5.33126       -0.773893
LJ          -5.74072        -4.59943        -1.54632
LJ          -1.66991        0.565234        -4.10887
LJ           2.40383        -5.31488         4.25938
LJ         -0.962192          3.2664        -5.00071
LJ           2.94964        -1.88453         -3.2457
LJ           3.99929        -2.44215        -4.86067
LJ           1.21452         4.71675        -3.36048
LJ            4.4906        -5.16702       -0.521318
LJ          -2.74867        -2.29635        -1.94079
LJ           5.53171         3.04285        -4.18716
LJ           4.03658         5.44445         5.26178
LJ          -6.03383        0.187614        -5.36193
LJ           -5.6827         4.08786        -5.15184
LJ          -2.52768       -0.149497        -2.88651
LJ          -6.14134         3.97576          4.5447
LJ          -4.33619         5.17274        -5.93402
LJ          -4.90997         1.74404        -4.91846
LJ           2.08017         2.43817       -0.205212
LJ         -0.290498        0.831707        -5.40467
LJ           1.06869         3.08378        -5.39795
LJ          0.882407         6.29855        -1.76842
LJ          -3.97599         2.89913        0.224109
LJ          -4.35945         5.15433         -2.2755
LJ          -4.34028         1.91795       -0.602666
LJ           -5.6026        -2.85237         1.09179
LJ          0.599926        -4.86454         1.18225
LJ          0.743066        -1.44186        -5.57557
LJ          -4.91503         2.99357        -2.41373
LJ          -1.35124        -6.25153       -0.169898
LJ          -3.62021        -3.96374        -2.78353
LJ         -0.718489        -1.28999       0.0561822
LJ           2.69956        -3.43347        -3.78632
LJ           2.10633        -4.93392        0.596562
LJ           2.89608         6.23889        -1.88681
LJ          -4.30355         1.80197        -6.04084
LJ           4.95494        -2.91898       -0.258736
LJ           5.62408        0.148578        -6.01647
LJ          -0.93576        -1.89919         2.59968
LJ         -0.397918         3.30915        -1.38661
LJ          0.593783        -2.23816       -0.712986
LJ           1.75568        -5.92664         2.18656
LJ           2.18072        -4.26702        -4.78094
LJ           5.15469         1.23556        -2.83709
LJ          -1.81551        -2.28309        -2.18841
LJ           1.23858       -0.829204        -0.67594
LJ          -5.78595         6.08484        -2.71386
LJ          -4.79222         4.49283        -2.86768
LJ          0.318093         5.01863       -0.265263
LJ          -4.89462         -1.8015         0.15507
LJ          -3.09554       -0.875254         3.08507
LJ          0.618618         2.00991        -3.91772
LJ         -0.598493       -0.811873        -2.34323
LJ            2.2381        -6.18215        -3.32015
LJ         -0.796455         4.31939        -3.44386
LJ         -0.367497          4.5546        -1.40726
LJ         -0.756853         2.48954         1.68853
LJ           2.60573        -6.33513         1.66676
LJ          -5.31091        -5.82291         1.80918
LJ          -5.27089        -3.18336         6.21008
LJ          -5.48996      -0.0873209         3.34464
LJ          -5.71001         4.02254         1.21243
LJ           2.39456         2.88267         5.57522
LJ         -0.793762        -3.49259         4.90737
LJ           4.64142        0.759021         5.39677
LJ           1.95906        -4.24396         3.00103
LJ          -1.66816         4.29527        0.471221
LJ            5.4952        -5.47202        0.721053
LJ            4.6953        -5.87513         3.08166
LJ           3.51601         4.75256         6.08666
LJ           5.56591        -3.41894         2.83699
LJ           5.50561        0.552856         1.24135
LJ          -4.47097         1.40189         4.27668
LJ           4.95082         1.57632        0.631944
LJ          -6.42589         1.99072        0.826962
LJ          -3.24693        -6.11056         4.49806
LJ           2.64621        -3.45882         3.94705
LJ          0.894106        -2.51297        -3.83599
LJ           4.10276        -4.02136          0.9595
LJ           4.69918         1.40518         1.95542
LJ          -4.49029          3.9235         2.28976
LJ           3.89756        -2.80023        0.950673
LJ            5.1769         2.69847       -0.106984
LJ          -4.54796        -6.37606         3.35082
LJ          -2.57265         3.21059         5.56523
LJ          0.431831         1.93732        0.467146
LJ          -1.73664          2.2062         1.89923
LJ         -0.856919         4.16636         1.25251
LJ          0.192238         3.53795        -4.70496
LJ          -1.60085         1.48021        -5.61479
LJ           3.54737         5.29907         3.59355
LJ           6.18085        0.739883         2.48788
LJ         -0.854704         1.77536         2.81259
LJ           5.67423        -1.33089         5.86685
