108
#Comment!
LJ           -4.5808        0.945493         0.47398
LJ           4.47612       -0.515822          3.8206
LJ          -4.63446        -3.06951          5.1222
LJ          0.552501         1.93398         4.71281
LJ          -4.64187         2.99058         2.35391
LJ          -0.26905         5.84266        -3.02805
LJ           5.13065         5.32731         4.56075
LJ          -5.31643         2.82753        -6.21646
LJ           3.49989       -0.391475         3.82755
LJ           4.25663       -0.678338         6.12047
LJ          -1.28015         5.14748        -4.88994
LJ           -3.1529        0.293539        -4.00035
LJ          -1.86214         3.52411         3.11702
LJ           3.38216          5.9019        -3.97854
LJ           1.46213         6.31671        0.113879
LJ          -2.69709         4.39494         2.69713
LJ           3.51865        -2.72969         1.25105
LJ           1.47039        -3.03391         1.85923
LJ          -6.03794        -3.96114         3.59496
LJ          -4.38404         3.96867        0.148544
LJ           2.22241         -4.1387        -5.33468
LJ           5.04887      -0.0558851         4.98661
LJ            4.1279         1.85567         4.53866
LJ          -4.43066         4.32002         5.86825
LJ          -6.45026        -2.39673         3.96856
LJ           3.44753         5.44982         6.18251
LJ           5.55302       -0.972715        -4.59367
LJ           2.18237        -0.89552         2.03268
LJ          -4.99067         2.72192        -4.09176
LJ          -1.00132        -6.17689      -0.0709494
LJ           1.01737        0.629975        -2.78927
LJ          -1.32298       -0.518472         1.83119
LJ           1.05597         3.85472         1.26931
LJ          -1.74157         2.25366         2.83018
LJ          -4.13729        -3.49192       -0.627526
LJ          0.885146         4.74317         -4.9466
LJ          -3.90215         2.30883         2.78255
LJ           1.97349         2.92489        0.307291
LJ           3.57874         5.79719         -1.0185
LJ          -4.61314        -1.67906        -1.40716
LJ           5.25785        0.323676        -2.74066
LJ           3.58034        -6.12722         2.04328
LJ          -3.41036       0.0131305         3.01768
LJ          -6.25097       -0.969152         3.80105
LJ          0.707789         3.85569         4.83644
LJ           2.27566         3.59273        -1.80434
LJ          -1.33842        -3.80482        0.879341
LJ            1.7287        -1.94074         2.13879
LJ          -1.86392          5.8395         -2.8106
LJ         -0.588886        0.770064         2.46107
LJ           1.22398        -4.41789        -6.00645
LJ          -2.62507        0.500545         5.31007
LJ           5.08515       -0.549235        0.393698
LJ           4.31201        -2.46218        -2.61715
LJ           5.44497         5.21379        -4.88627
LJ          -4.63466         3.80435        -6.15117
LJ           3.90243         6.36873        -2.25215
LJ         -0.331849       -0.721662        -1.64468
LJ           4.06842        -3.69363          1.9505
LJ         -0.854425         -6.0872        -4.91958
LJ           3.27859        0.516551         2.51737
LJ          -2.64611         4.69305         4.67898
LJ           4.11117        -2.56402        -1.36364
LJ           6.43019         5.17334        -2.25434
LJ           -6.3912        -2.37073        -5.85276
LJ           5.38755        -0.52663         2.36065
LJ           1.86148       -0.028636         3.16731
LJ          -4.08935        -5.22607       -0.878482
LJ           3.34009         5.83573         5.25902
LJ           1.58958        -1.31066         4.71155
LJ          -3.76842         3.21854        -0.70128
LJ          -6.27962         3.52447        -5.04643
LJ          0.395652        -4.32392        -1.78559
LJ         -0.181964        -1.70177         -3.8764
LJ          -4.49431        -6.05823        -2.01955
LJ          -2.17646         2.77965        -1.22667
LJ           5.01527        -5.66625         5.36374
LJ         -0.709895         4.83216        -3.74152
LJ          0.457745       -0.602272        -2.40897
LJ          -3.97283         4.45298          3.3897
LJ         -0.322331        -3.37294         4.77737
LJ           6.34741         1.15214         5.50946
LJ          0.413787         -2.9176        -2.70712
LJ           5.15803        0.815183         4.38631
LJ           5.76918         1.65547         4.65477
LJ          -4.88596        -1.18893        -5.01409
LJ           5.07189         5.92319         1.26613
LJ           2.54746        -3.65448         2.03955
LJ           1.80626         4.44595         2.27868
LJ           4.15598         3.80537         4.32768
LJ           -4.3851        -1.14173        -3.07434
LJ          -5.14264         6.42617        -3.18885
LJ          -5.14648         2.98208        -2.79448
LJ         -0.224254        -2.46392        -4.57499
LJ           5.85288          6.2825        0.198295
LJ           2.36417         -4.5765        -6.43482
LJ           2.75812         5.70862        0.485716
LJ          -3.22877         2.34591         1.52766
LJ           3.55435         4.57714        -1.96581
LJ            6.1792        0.334857        -5.89662
LJ           5.04544         6.19651        -5.17941
LJ           5.48754         3.99783       -0.541722
LJ           3.33686         1.55673         5.81188
LJ          0.814325        -1.49454        -1.52882
LJ          -0.37071         3.02586      0.00324233
LJ            6.3445        -5.52722        0.916297
LJ           3.45175         5.25024         1.51008
LJ          -1.28741         -5.3824          4.3912
