108
#Comment!
LJ            6.0053         -2.4748         4.08391
LJ          -5.56585        -4.24809         1.92306
LJ          -1.99335        -1.83755        -4.11079
LJ         -0.657988          -4.637        -2.59523
LJ          -1.02721        -3.66826         2.41551
LJ            1.5262        -4.26494       -0.451234
LJ           -3.0624         5.46866         2.26741
LJ           -6.2696         6.07116       -0.122766
LJ           2.48845        -2.60141         4.53256
LJ            4.1808         2.71354        -2.48364
LJ          -1.32778         6.40693        -4.98187
LJ          -5.21143        -3.94394        -5.76757
LJ          -4.96126        -5.11187         2.33259
LJ         -0.797775         4.09251       -0.128762
LJ          0.550189         6.04587        -1.47877
LJ          -1.64884         1.41739         4.77668
LJ          -1.61727        -2.72812        -6.12482
LJ           4.44385         4.04365        -1.57605
LJ          -6.45689        -5.13227         5.02381
LJ          -4.15151         5.77709        0.516611
LJ          -1.46158        -3.36454        -2.97948
LJ          -4.65176          4.9362        -4.48833
LJ           -4.6004         2.53431         0.12104
LJ           3.85245        -4.29956        -1.20346
LJ          -5.51025         3.53783         4.14609
LJ          -4.26913        -6.25786       -0.912465
LJ           3.45641        -1.41463        -4.45359
LJ          -6.14033         1.28665       -0.262282
LJ           -3.2108         2.26995       -0.142523
LJ          0.320615        -4.68375         3.43026
LJ           2.17722        -2.17109        -5.95178
LJ           -1.4194         1.19424         2.36296
LJ           1.84985        -5.86181        -1.82297
LJ           3.28469        -5.19961         2.60949
LJ           6.32709        -2.88747        -3.18831
LJ           1.42356       -0.345656        -4.31159
LJ           -3.3171         2.70234         3.93076
LJ           5.24673        -5.74828        -3.06716
LJ           5.38221         5.04954        0.326881
LJ          -0.96834        0.294836        -1.02426
LJ           4.68436         -2.5632         -0.8723
LJ         -0.170872         5.33919        -1.88533
LJ           4.71851          3.4045         4.06912
LJ           5.83645        -4.61659         2.88295
LJ           1.77363          2.1027         4.06724
LJ          -1.07705         4.72739         4.67055
LJ          -4.49791        -4.12626        -1.24445
LJ           2.46997        -0.19766         1.59323
LJ         -0.520734         2.53309          -2.782
LJ          -3.59092           1.316         1.55088
LJ          -2.38843        -4.22501          6.3667
LJ          -3.99776       -0.362056        -3.08065
LJ           3.56167         1.32388        -2.41724
LJ         0.0343708        -1.77051        -3.56073
LJ          0.823043         5.09109         3.64185
LJ          -6.02649       0.0144976         6.44624
LJ          -5.01922          -5.636        -1.87428
LJ           4.00758         2.79266        -1.22633
LJ           2.79121        -1.74379         2.79573
LJ         -0.415341        -3.21215        -4.94602
LJ          -3.16497        -3.98048         1.89722
LJ           -2.6805        -3.83679        -5.19372
LJ           1.56943        -3.25647       -0.450625
LJ          -5.09684        0.854927        -4.97331
LJ           1.90999       -0.653675        -5.12904
LJ          -1.65314         3.64579        -4.51971
LJ           3.97121        -2.19216        -5.20611
LJ           4.92438         1.47711        -4.91342
LJ          -3.62365        -6.23921        -4.32188
LJ           2.29053         5.32935         1.57579
LJ          -4.10786         1.60089        -1.07347
LJ           6.33833       -0.118838        -5.23202
LJ           1.34709         4.88647        -2.58623
LJ         -0.364027         3.24365         6.08755
LJ           5.59615          2.8177        -0.57603
LJ          -1.76821        -5.22923         2.81529
LJ           3.50811        -1.83462         4.85133
LJ           1.07947        -1.82397        -2.48979
LJ          -2.24678       -0.724102        -4.64804
LJ           -2.7943        -5.37587         6.23432
LJ           3.75901        -4.87095        -5.37927
LJ          -4.15982       -0.388099         3.18146
LJ           5.65832        -4.57081        -3.36353
LJ           4.79974         1.22217         5.05686
LJ          -6.28434        -5.19607         2.49567
LJ          -3.29705        -6.41322        -3.25456
LJ           5.09653         4.53283       -0.832017
LJ          -2.56241         3.37794        -2.34715
LJ           5.39217         1.09106         3.02267
LJ            1.5015          3.0517        -6.22226
LJ          0.498981         2.20842        -5.19918
LJ          -4.66469         1.69348         2.44483
LJ          -5.80179        -4.62579        -4.76937
LJ          -2.88637        -1.92792         -5.3834
LJ          0.550078         5.76644         1.69949
LJ           2.15335        -2.42805        -3.21797
LJ           0.62876        -1.67636        -1.09434
LJ          -2.58923         3.48564         4.85161
LJ           3.44448         4.95122        -2.88162
LJ          -5.18842        -5.60075        0.772132
LJ          -1.49595         3.56951         5.35826
LJ           3.97449         -1.6745        -6.04361
LJ           5.96831         -5.6697       -0.598838
LJ         -0.804827       -0.790171        -2.62419
LJ          -2.42301         4.58416         5.31226
LJ          -4.65692        -3.41209        -4.42704
LJ           4.18618         6.10963        -1.70656
LJ           6.02848         6.00461            5.93
