108
#Comment!
LJ           2.58094        0.703874         1.52117
LJ           2.60372        0.549678       0.0945126
LJ          -2.74784       -0.723936        -2.06144
LJ           6.37005        -4.38555       -0.939737
LJ          -1.84141        -5.56232         1.94837
LJ           4.93107        -2.96215        -2.73914
LJ          -3.80731       -0.254399        -3.84894
LJ          -6.13005        -5.18399        -2.36251
LJ           3.61613         2.65217         -5.5692
LJ           5.58232          4.5083        0.342212
LJ          -2.00964         1.51146          4.5401
LJ          -5.23964        -5.10163         4.63209
LJ            0.2414         3.30935        0.876593
LJ           3.91214        -3.09013         2.74218
LJ         -0.824092        -2.25826        -2.91118
LJ          -1.38704        -5.66097         3.92626
LJ          -4.60928        -3.25344         -4.1352
LJ          -3.00624         2.99266         2.27325
LJ           6.23781        0.254158        -2.14541
LJ          -1.67425        0.631653        -3.56143
LJ          -5.27007        -3.37889         -4.8333
LJ            4.5333         6.31602        -3.29541
LJ           5.48089         3.72117         -5.2292
LJ          -4.31835         1.59081       -0.634721
LJ           2.44036        -5.99572        -4.02052
LJ          0.234528         3.36946           -1.13
LJ          -4.95041         1.09929          4.0863
LJ           -2.6874         3.49101         6.20126
LJ          -4.70273        -6.10211         3.89865
LJ           2.33154         4.82773         1.70333
LJ           -3.3902         1.50555        -5.22892
LJ          -4.91182         4.03965         5.92731
LJ          -1.34997        -3.36865        -5.41473
LJ           4.31831         0.57718        0.532663
LJ           5.00531       -0.232259        -3.54091
LJ           5.81324         3.55689         3.94067
LJ           1.88056         3.33831        -1.26949
LJ          0.284286         2.47066        -2.52456
LJ          -4.86779         -2.4359         0.19975
LJ          -5.08933         3.51674        -2.12935
LJ           4.83971     -0.00828357          4.8203
LJ           4.22608          1.7746        0.599317
LJ          -3.17978       -0.170782        -5.39566
LJ          0.894756        -4.44564         5.80668
LJ           1.82786        0.320834         2.77849
LJ          -4.86481         2.27442        -4.11012
LJ            4.2128        -2.87463        -5.94766
LJ           5.34823         2.33382        0.341369
LJ          -4.01641         4.74452         4.56937
LJ          -2.98048         1.40396         5.05818
LJ          -5.18836       -0.324773        -4.09048
LJ         -0.477192         4.31212        0.478668
LJ           4.96788          1.8169         -5.1903
LJ          -4.56588         5.02766        -1.63922
LJ           6.13677        0.686923        -2.99411
LJ          0.943174        -3.14357        0.657101
LJ           1.95426         -5.2088       -0.843302
LJ           5.35464        0.139681         1.56654
LJ           3.03766       -0.757719         -5.4943
LJ            4.5091         3.73729         1.49958
LJ          0.726025        -1.43233         1.16597
LJ          -2.87825          4.2361        -1.27228
LJ          -3.69999         4.19833         -3.6614
LJ           4.46199        -1.63298        -5.92434
LJ           3.22441         4.44925        -1.80003
LJ          -1.08489        -4.33012         5.68871
LJ          0.202525         5.71553         1.98198
LJ          0.445964        0.858662       -0.876239
LJ          -3.88225        -6.46101         2.42036
LJ          -2.25711         5.96007        -3.75675
LJ          0.404116         2.06393         -4.4603
LJ          0.762958        -5.16651       0.0445873
LJ          -5.98734        -5.81619        -3.67435
LJ           4.91792         -4.3282        -3.45542
LJ          -2.73459         2.79229         1.18228
LJ          -5.76779        0.891774        -1.68214
LJ          -0.78721        -1.27649         1.70239
LJ           3.34316        -4.54278       -0.915478
LJ          -2.77936        -3.82484         4.18032
LJ            5.8577         2.34048        -2.55582
LJ          -4.27205        -3.14138         4.20813
LJ          -4.88688        -5.06879         5.59096
LJ           1.36788        -1.72564         4.07553
LJ          0.502253       -0.756527         4.48969
LJ            3.1028         1.90311        -6.06842
LJ          -3.01009        0.779021        -2.60872
LJ           5.93563        -2.27553          2.6675
LJ         0.0566703        -1.60484         3.61613
LJ           2.50403        -6.22467       -0.162901
LJ           3.95304        -4.93164         1.46386
LJ           -5.3271        -4.02019        -3.01561
LJ          -3.49908        -2.17619        -2.25097
LJ          -4.40352         2.29001        -1.80235
LJ          -5.26041        0.862595          2.8106
LJ         -0.521356      -0.0960746        -4.32901
LJ           2.55503        0.539285        -4.45805
LJ           5.71719         4.05509         1.37732
LJ           1.08314         1.92079         3.74636
LJ         -0.934338       -0.655415       -0.325061
LJ           5.17451        -3.16958        -1.08144
LJ          -5.41658         -1.7852        -3.57408
LJ           1.58924        -4.01859        -3.81685
LJ           2.44861        -5.07473        -1.78083
LJ         -0.873257         -1.1621         2.88082
LJ          -4.54913         1.14693        -2.83571
LJ           -2.9013       -0.819825         2.19043
LJ          -6.38288         1.93048        -6.19562
LJ          -5.72974        0.509421        -3.18202
