108
#Comment!
LJ           5.63785       0.0714218       -0.621846
LJ           3.79254       -0.659129         1.76849
LJ          -4.38115         2.16466        0.846285
LJ           6.17262        -3.39626       -0.709844
LJ         -0.797233        -5.78006         3.57232
LJ           4.33377        -3.02247         5.70152
LJ          -2.42809        -3.76635        -6.37638
LJ          -2.31418        -0.65941        -3.35423
LJ          -2.20777       -0.819376       -0.168198
LJ           5.59643        -1.37518         -1.3769
LJ          -5.11022         0.67753        -1.40143
LJ          -3.44349         5.12261         1.48757
LJ          -1.01834        -4.96633          4.9885
LJ          -5.92284        -4.74365        -4.94627
LJ           5.70797        -6.36094          1.7136
LJ         -0.424207         5.85253         -0.2297
LJ           -4.9159        -2.31163         5.22733
LJ           1.46102          3.5422          2.1188
LJ           2.74691       -0.676763          2.3371
LJ          -1.77436       -0.940334        -6.14808
LJ         -0.637194       -0.336432        -5.74677
LJ          -5.40778        0.002804        -5.22102
LJ           2.43181        -1.77045        -5.51131
LJ          -1.06421        0.845677           3.958
LJ          -2.18309         -3.1467         5.62597
LJ          0.763063         2.18182         6.26511
LJ          -3.19835        -6.11052        0.866155
LJ          -1.04139         4.90075         5.10356
LJ          -6.34401          4.2135        -2.06893
LJ          -3.74059        -4.05535        -0.89667
LJ          -1.82077         3.55394        -2.19939
LJ          -5.90317         1.62691         1.49873
LJ         -0.485976        -3.65933        -2.95658
LJ           3.37088        -2.24989        -2.91804
LJ          -1.05019        -4.03376         4.50244
LJ          -4.76368         4.16583        -4.37964
LJ          -2.95017        -5.38854         4.62076
LJ          -4.98382        -5.55066        -1.92697
LJ          -5.08295         6.23358         1.26311
LJ           -1.2212          6.4293        -1.00318
LJ           3.70697         6.19406         2.26372
LJ           3.04473         6.19024          1.2148
LJ          -5.76669        -2.47223         4.53862
LJ           4.30137        -4.26056       -0.620969
LJ           4.13914        -3.39397        -4.67927
LJ          -2.53723         0.51489        -1.47388
LJ           5.96074        -4.55548        -3.12506
LJ          0.157622       -0.500071         1.75503
LJ          -4.76816        -2.49112        -4.86535
LJ          -4.03469         5.29778         5.37822
LJ           1.68612         2.17828        -2.79842
LJ           4.04804        -1.46301        0.113437
LJ           -2.7539        0.335474        -4.99886
LJ          -2.13693         5.37108         1.49556
LJ           3.57299        -5.97879          1.1604
LJ          0.279847         3.26063         1.89879
LJ         -0.242109         4.44239        -2.34313
LJ          -2.21891        -1.82874        -1.87179
LJ           3.87042        -1.43682        -2.76324
LJ           5.98544        -6.13912         -4.0939
LJ            1.0434         1.45495         1.82517
LJ         -0.422094         5.19771        -1.17681
LJ           6.28263         4.15937        -3.33654
LJ          -4.53537         3.42818        -5.09781
LJ          -6.34312        -6.39867        -2.12569
LJ           2.00546         5.32986        -1.60193
LJ          -3.70001         3.49677        -4.39713
LJ          -1.14982         1.63268         2.35771
LJ           4.40512        0.410607        0.841488
LJ           2.49494       -0.784063        -2.63578
LJ           1.42457         3.68503        -1.90794
LJ           2.76157         6.14092         3.73303
LJ          -3.08519         4.02232         3.13188
LJ          -2.96489         6.37243        -5.06763
LJ           1.22878         4.88413        0.999345
LJ          -2.44299         -5.8398        -2.26379
LJ          -3.19013         3.28254      -0.0660235
LJ           1.64999        -3.07091         -1.5867
LJ          -1.86793        -3.39427        -1.99242
LJ           4.19079         1.09365       -0.734503
LJ          -3.73074        -2.30459        -2.75003
LJ          -6.29417         -6.3613         4.61003
LJ           5.05197         3.56181       -0.327601
LJ          -2.68308        -1.59158        -5.82284
LJ          -1.05988        -2.11908        -4.77438
LJ          -2.56613        -4.48082         -3.6635
LJ           5.32027        -1.36843        -5.88916
LJ           1.73691        -4.59908        -5.31823
LJ           1.42161          3.8049        -3.20823
LJ         -0.209387         5.10626        -4.52291
LJ          -5.62203         5.18968        -4.07954
LJ         -0.919387        -1.60982         2.14856
LJ          -1.63418        -1.00968        -2.24296
LJ          -5.40713         3.01374         1.53441
LJ           -3.5425        0.354817         4.90969
LJ        -0.0702311         2.55004         -3.1321
LJ           4.83668         2.26737        -4.11019
LJ           1.70492         2.74575        -4.65611
LJ          -1.27522        -3.94167         1.64847
LJ           -3.0336        -6.26841        -3.16829
LJ           -4.2688        0.046445        -4.58631
LJ           1.34914         1.49546         5.48799
LJ          -2.10731         4.71191        -2.55588
LJ          -5.99054         2.88164       -0.759249
LJ          -1.80668         1.65092        -3.23609
LJ           4.55847         4.65851        -1.56367
LJ          -6.34172        -5.73612          -3.457
LJ          -1.52929        0.104008        -5.38773
