108
#Comment!
LJ            6.0555        -2.39517         4.00947
LJ           -5.6186        -4.13867         1.94367
LJ          -2.07653        -1.87142        -4.12893
LJ         -0.694144        -4.58884        -2.70884
LJ           -1.0673        -3.77225         2.45652
LJ           1.49866        -4.32324       -0.565078
LJ          -3.17941         5.41114         2.25695
LJ          -6.31262         5.96792        0.011658
LJ           2.51923        -2.53608         4.52404
LJ           3.90594         2.62351        -2.57514
LJ          -1.25244         6.42755        -5.01171
LJ          -5.23695        -3.96127        -5.60855
LJ           -4.9527        -5.22379          2.3772
LJ         -0.704026         4.13862       -0.252294
LJ          0.581601         6.07556        -1.36904
LJ           -1.6567          1.4958         4.71906
LJ          -1.50695        -2.71862         -6.2418
LJ           4.32483         3.92313        -1.57819
LJ          -6.45146        -5.09988         4.98806
LJ          -4.13224         5.74387        0.504274
LJ          -1.36163         -3.4425        -2.99662
LJ          -4.72448         5.09239        -4.56787
LJ          -4.70284         2.59244        0.197294
LJ           3.94425        -4.37642        -1.05671
LJ          -5.51841         3.68017         4.11852
LJ          -4.32075        -6.27953        -1.02574
LJ           3.50641        -1.40354        -4.43226
LJ          -6.22255         1.23401       -0.197422
LJ          -3.24179         2.34316       -0.202044
LJ           0.25937        -4.74534         3.39011
LJ           2.12184        -2.12404        -5.87059
LJ          -1.38312         1.15384         2.34313
LJ           1.84465        -5.95285         -1.7243
LJ           3.18868        -5.03608         2.62899
LJ           6.40484        -2.86319        -3.18506
LJ           1.40975       -0.420366        -4.30816
LJ          -3.36361         2.67977         3.89053
LJ           5.16092        -5.59654        -2.96727
LJ            5.3894         5.06724        0.251195
LJ          -1.04352         0.25949        -1.02317
LJ           4.67384        -2.52635       -0.832888
LJ         -0.126444         5.37239         -1.8551
LJ           4.58095         3.33289         4.04519
LJ           5.83112        -4.54432         2.91151
LJ           1.78767         2.17104            4.08
LJ         -0.985456         4.72896         4.75309
LJ          -4.47606        -4.17151        -1.29109
LJ           2.42133       -0.192619         1.57051
LJ         -0.508802          2.6419        -2.76843
LJ          -3.51491         1.28609         1.55159
LJ          -2.28068        -4.23443         6.40856
LJ          -3.94368       -0.397759        -3.18715
LJ           3.60028         1.52096        -2.44011
LJ          0.204432        -1.71284        -3.55131
LJ          0.927673         5.10706         3.64742
LJ          -5.95245        0.123761         6.38543
LJ          -5.14684        -5.73779        -1.93577
LJ           4.04797         2.66101        -1.12763
LJ           2.85836        -1.76775          2.6719
LJ         -0.440094        -3.33068        -4.89971
LJ          -3.04534        -3.88965         1.90208
LJ          -2.70329         -3.9184        -5.28237
LJ           1.65106        -3.22742       -0.440167
LJ          -5.09768        0.938939        -4.91636
LJ           1.96672       -0.631267        -5.08343
LJ          -1.75599         3.54335        -4.63322
LJ           4.20031        -2.14023        -5.33311
LJ           4.98833          1.3424        -4.81389
LJ          -3.48771         -6.2616        -4.43036
LJ           2.26819         5.38698          1.7461
LJ          -4.11379         1.57746        -1.08108
LJ           6.32355       0.0172874         -5.1925
LJ           1.33712         4.93802        -2.58617
LJ          -0.35215          3.1311         6.14668
LJ           5.47643         2.65429       -0.621604
LJ          -1.80065        -5.34111         2.72787
LJ           3.53467        -1.92931         4.85728
LJ           1.03353        -1.94369        -2.59068
LJ          -2.12954       -0.773687        -4.55472
LJ          -2.83489        -5.46746          6.1766
LJ           3.67682        -4.84088        -5.44177
LJ          -4.22187       -0.364324          3.2437
LJ           5.55268         -4.5729         -3.4571
LJ           4.78446          1.2363         4.99748
LJ          -6.34561        -5.36656         2.56973
LJ          -3.31139        -6.30758        -3.27647
LJ           5.09837         4.57367        -0.75485
LJ          -2.48045          3.5222        -2.26102
LJ           5.28333         1.15701         3.08708
LJ           1.55133         3.07071        -6.27342
LJ          0.385919         2.10879        -5.12747
LJ          -4.65635         1.76886         2.32953
LJ          -5.69061        -4.59655        -4.75668
LJ          -2.84651        -1.89459        -5.42502
LJ          0.663196         5.76788         1.67626
LJ           2.11121        -2.53356        -3.26765
LJ          0.645798        -1.80291        -1.09735
LJ          -2.63383         3.49075         4.86398
LJ            3.4689         4.93423        -2.83073
LJ          -5.20484        -5.46762        0.872231
LJ          -1.48943         3.71083         5.45789
LJ           4.00601        -1.58757        -6.18416
LJ           6.01181         -5.7201       -0.413325
LJ         -0.755597       -0.800387        -2.64688
LJ          -2.28307         4.44602         5.23565
LJ          -4.69742        -3.41931        -4.28782
LJ           4.14988         6.16769        -1.68797
LJ           5.89249         6.09068         6.00285
