108
#Comment!
LJ          -4.94993        0.417509         1.05329
LJ           5.24225        -0.73171         3.47679
LJ          -4.25956        -2.82905          5.7911
LJ          0.332244         2.96239         5.79302
LJ          -3.99241         4.30917         2.78686
LJ        -0.0196989        -6.22897        -3.65533
LJ           5.43604         5.30256         3.39679
LJ          -5.57681         3.33978          5.6586
LJ           3.75323       -0.284716         4.11187
LJ           6.28256         -2.7958          6.0129
LJ         -0.577374         5.95679        -4.85963
LJ          -3.61136        -0.34534        -4.19016
LJ          -2.40155         3.91153          3.0668
LJ           2.55371         5.36334        -3.88388
LJ           0.97397         6.16043        0.139816
LJ          -2.16195         4.95968         2.34311
LJ           2.64903         -2.5835         2.21046
LJ           1.33083        -2.01497        0.451902
LJ          -6.17572        -4.11221         3.49502
LJ          -4.14334         4.35149        0.265733
LJ            1.4136        -3.85201        -5.09107
LJ           5.42849        -1.43327         5.26325
LJ           4.93912         2.32543         3.68437
LJ          -5.27368         5.16469         4.72951
LJ          -6.18329        -3.37366         4.83673
LJ           4.44588         5.90362        -6.01339
LJ           5.18122       -0.967785        -4.44033
LJ           3.08029       -0.595078         1.57349
LJ          -5.01877         2.90435        -3.36223
LJ          -1.35644         6.09521         1.16844
LJ           1.34313          1.6628        -3.02449
LJ         -0.732037       -0.359025         1.71668
LJ           1.43473         4.22496         1.06443
LJ         -0.770417         1.28536         3.12825
LJ          -4.02712        -2.62739        -1.76631
LJ          0.920338         3.69537        -4.87798
LJ          -4.29211         2.32234         2.99535
LJ           2.42201         1.42308       -0.177851
LJ           4.07541         6.02882        -1.07772
LJ          -4.01214        -1.22006        -1.17841
LJ           5.16339       -0.291702        -2.14948
LJ           2.85257        -6.09205         1.19125
LJ          -2.11031        0.558718         3.30039
LJ          -6.25272        -1.76966         3.64831
LJ           1.18214         3.76254         4.54309
LJ           1.59913          2.7164        -2.86651
LJ          -2.02954        -4.07647        0.171432
LJ           1.09032        -1.21859           1.789
LJ          -1.14658         6.04747        -2.40442
LJ          -1.01273        0.637223         1.98278
LJ          0.741471        -4.48359        -5.92393
LJ          -2.70686        0.164691         5.97984
LJ           4.87726      -0.0880146      -0.0924467
LJ            3.6836        -3.34711         -2.3165
LJ           4.73761         4.79631        -5.80501
LJ          -4.43055         3.38076         6.43076
LJ           4.65985         5.64938        -2.49007
LJ          0.255205       -0.177859       -0.794886
LJ           3.65375        -3.50446         1.48693
LJ         -0.776267        -5.71251        -4.64175
LJ           2.15626       -0.194713         2.50249
LJ          -2.64684         5.39705         4.68987
LJ           3.85458        -2.55354       -0.945678
LJ          -6.23201         4.29746        -2.69337
LJ           5.78555        -2.11481        -5.79522
LJ           6.33241     -0.00876018         3.41153
LJ         0.0788501       -0.432862         3.94215
LJ          -4.48647        -4.08693        -1.46471
LJ           2.17814         5.96033         5.64842
LJ            1.5756        -2.55947         4.55661
LJ          -3.85027         2.72477       -0.776793
LJ           6.42336         3.63657        -4.50101
LJ          0.449681        -4.80288        -2.09078
LJ         -0.196517        -0.81104        -4.39561
LJ          -5.59319        -4.70685        -1.78697
LJ          -2.26836         3.57964       -0.619562
LJ           4.76631         -5.0683         5.28284
LJ         -0.698143         5.53199        -3.82706
LJ          0.420527       -0.553554        -2.20018
LJ          -3.90614         4.90645         4.08915
LJ          0.490031        -3.58719         5.08393
LJ          -6.34339         0.62422         5.49309
LJ           1.17778         -3.7961        -2.95442
LJ            4.5206        0.363931         4.30295
LJ           5.84055         2.42812         4.37803
LJ          -4.57973         -2.1203        -4.76266
LJ            4.9395         5.28342        0.696816
LJ           1.92932        -4.36639         1.31899
LJ           2.01081         3.93567         2.52977
LJ           3.57387          3.7756         4.64962
LJ          -3.89218        -1.34538        -2.90042
LJ          -4.98059          5.6274        -2.33711
LJ          -4.81832         4.16149        -2.89973
LJ         -0.735498        -2.29542        -4.77824
LJ           5.60826         6.16484         1.11375
LJ           2.06958        -4.97722        -5.67836
LJ           2.38619        -6.36384       -0.109014
LJ          -3.09122         2.41721         2.37544
LJ           3.59633           4.471        -1.92134
LJ          -6.34497       -0.311148         5.92586
LJ           3.82676         5.84221        -4.83967
LJ           5.20914         2.96414        0.566722
LJ           4.11906         2.75536         5.15744
LJ          0.966535        -1.69486        -2.12356
LJ         -0.545267         3.29864        0.765169
LJ          -6.41371        -5.35008       0.0743741
LJ           3.56982         5.97971        0.408259
LJ         -0.112487        -5.13358         5.49006
