108
#Comment!
LJ          -3.91474          1.9136       -0.363017
LJ           4.25151       -0.739414         3.07078
LJ          -4.92775        -3.33105         4.23915
LJ           1.04422        0.268493         2.92876
LJ          -5.88299         1.48278         1.38721
LJ          -1.08753         4.07682        -2.36152
LJ           4.45556         5.60911         6.31604
LJ          -5.05897         2.44037        -6.12432
LJ           1.61878       -0.345589         3.42817
LJ           2.99916        -0.78369         6.34261
LJ          -2.06689         3.97045        -4.46275
LJ           -2.4455         1.29189        -3.66191
LJ          -1.40022         3.71844         3.19411
LJ           4.80407        -6.13643        -4.06653
LJ           2.47966        -6.11696        0.362084
LJ          -2.89614         2.90682         3.66466
LJ           4.96027        -3.48597     -0.00799049
LJ          0.805503        -4.73796         3.95303
LJ          -6.20987        -3.65914         3.61354
LJ          -4.83397         3.25003       0.0387855
LJ           3.43355        -4.41298        -5.65018
LJ           4.46113         1.69732         6.09473
LJ           3.18696        0.698297         6.25886
LJ          -2.64429         3.35362        -6.25291
LJ           6.18558        -0.43775         2.61769
LJ           2.05447         4.41182         5.82712
LJ           6.21215       -0.919247        -4.89473
LJ          0.850386        -1.21769         3.14716
LJ          -4.83279         2.48647        -3.59339
LJ         -0.374987        -5.04795        -2.07223
LJ          0.829511       -0.155586         -2.6485
LJ          -2.18871       -0.575246          2.1178
LJ            0.2272         3.14052        0.799456
LJ          -3.36733         3.42009         1.80628
LJ          -4.33402        -4.96136         1.19195
LJ           0.74041        -6.46194        -5.02567
LJ          -2.76579          1.6154         2.33381
LJ           1.15039         5.45126         1.23521
LJ           2.47999         5.51325       -0.344142
LJ          -5.55873        -2.45573        -1.89677
LJ           5.33984         1.27806        -3.36851
LJ           4.92336        -6.44893         3.14614
LJ          -5.52164       -0.835847         2.56023
LJ           6.45029       -0.108085         3.89849
LJ        -0.0749598         3.91332         5.33279
LJ           3.74431         4.43991       -0.456424
LJ         -0.211355        -3.36997         2.02549
LJ           2.43123        -1.88472         2.82426
LJ          -2.79509         5.40492        -3.51327
LJ         -0.131418        0.953995          3.2595
LJ           2.39635        -4.41873         -6.3505
LJ          -2.49634         1.05151         4.20343
LJ           5.78467        -1.32623        0.533438
LJ           5.19942        -1.16904        -2.54152
LJ          -6.46273         6.17463        -3.53878
LJ          -5.17639         3.69793        -4.39574
LJ           2.87643        -5.49612        -2.59274
LJ         -0.781082        -1.96075        -3.16209
LJ           6.04538        -3.32576         2.50729
LJ         -0.955538         6.00066        -5.30138
LJ           5.22415         1.44983         2.78582
LJ          -2.72464         3.53435         4.56831
LJ           4.66202        -2.42749        -2.59803
LJ           6.10162        -6.07035        -1.42603
LJ          -5.19524        -2.70159        -5.91183
LJ           3.65025        -1.19577         1.45982
LJ           4.67472        0.252924         1.55665
LJ          -3.59272         5.77145       -0.196363
LJ           5.35527         5.89855         4.06124
LJ           1.69048        0.744259         4.81649
LJ          -3.42919         4.03299       -0.636753
LJ           -6.1165         3.12966        -6.08563
LJ          0.022685        -4.20692       -0.842658
LJ         -0.680019        -1.79293        -4.19363
LJ           -2.5982         4.79884        -2.41259
LJ           -2.1337         1.50406        -2.16314
LJ           5.25518         5.98654         5.42924
LJ          -0.90083         4.25239        -3.67949
LJ          0.603582        -1.16379        -2.50127
LJ          -4.29179         3.69861         2.25465
LJ          -1.63483        -3.04747         4.27905
LJ          -6.37713         1.33698        -6.05262
LJ         -0.338074         -2.3208       -0.760053
LJ           4.48343        0.756257         3.49606
LJ            6.1243         2.71757         4.63735
LJ          -5.42769        0.315063        -5.37334
LJ           5.29215        -5.72635         2.08337
LJ           3.49522        -3.52306         3.20363
LJ            2.0984         5.32604         2.39281
LJ           5.14275         3.85914           3.857
LJ          -5.19726       -0.819953        -3.31232
LJ            -5.347        -5.15574        -4.35498
LJ          -5.66005         1.19068        -2.76636
LJ          0.514565        -3.13612        -4.50841
LJ           5.63409         5.48397        -1.23642
LJ           2.53793        -4.01716          5.3965
LJ           3.37943         4.24025         1.80387
LJ          -3.75812         2.24338         0.60248
LJ           3.25573         4.90493        -1.61019
LJ            5.6085         1.38454        -4.60585
LJ           -5.8836        -6.44321        -5.66337
LJ           5.82957         5.51382        -2.33136
LJ          0.446434         3.41884         6.21895
LJ         0.0217417       -0.750924        -1.00885
LJ        -0.0695967         2.60493        -1.20198
LJ           6.34614        -5.13562          2.3287
LJ           2.83864         4.51573         2.90101
LJ          -3.17696        -5.75745         2.61457
