108
#Comment!
LJ           2.14415        -5.46383         5.41592
LJ          -5.76905          1.6463         -5.6704
LJ          -1.92449         1.93434         6.01471
LJ           3.37355        -5.29197         2.66937
LJ          0.635321        0.750219        0.767643
LJ           2.60859        -4.54198          4.6097
LJ          -1.69004        -2.67263         4.60146
LJ          -3.70737        -4.09327        0.404687
LJ           4.51794        -3.58153        -6.46282
LJ         -0.291722         6.45437        0.969032
LJ          -4.94899         5.29519        -3.39983
LJ           -2.2274       -0.826885         2.50614
LJ          -5.12987         6.00651        -6.27463
LJ          -4.54404         1.26036         4.67113
LJ           2.10314         -4.9459        -2.51998
LJ          -1.21115        -1.11092        -5.17443
LJ          -2.80638         -1.6598        -5.49993
LJ           5.75362        -5.99835         6.46009
LJ          -6.24632        -6.30433        -5.39266
LJ          -2.36327        -2.97493         3.74772
LJ          -3.35699       -0.345355        -3.03491
LJ          -3.15954        -2.38101        0.100746
LJ          -1.56562         2.62987        0.824723
LJ          -2.10346        -2.41604         5.75318
LJ          -5.91955        -1.79343         6.19238
LJ          -2.72253        -5.31377          2.4102
LJ          0.449973        -2.85466        -5.67329
LJ         -0.746344         2.47648        -4.23849
LJ          -2.81165         1.19207         1.76384
LJ           1.07944        -2.19656         3.81631
LJ            4.5364        -3.74892         3.38905
LJ          -2.66574         2.28138         3.01845
LJ           2.41987         -2.7697        -3.42389
LJ           5.40719         3.42114       -0.216098
LJ           3.20026        -5.03723        -3.06329
LJ          0.637344          1.9417     -0.00553413
LJ          -1.79489         3.67141          4.6365
LJ          -3.56335         1.21927         -6.2961
LJ            6.4492         4.99162         1.59956
LJ          0.654775         5.21764        -1.19539
LJ           5.64034        -4.73237        -3.28658
LJ          -1.31699         6.04741         1.58122
LJ        -0.0659805         4.72506          4.8907
LJ          -5.32311        -5.09941         2.07412
LJ         -0.260995       -0.740047          2.5593
LJ            -4.576         3.46133        0.456117
LJ          -1.94505        -2.52232       -0.624674
LJ           4.64178        -0.51441         2.76344
LJ         -0.892266        -3.57054        -3.39075
LJ          -4.86366        0.208833         2.36532
LJ          -4.03479        -1.36533         1.32431
LJ          -5.58665         2.45353         1.51581
LJ           6.35303        -4.12207         2.28585
LJ           -2.2185         -6.3506       0.0546918
LJ          -3.71599          5.1319         4.22508
LJ           4.12803        -4.32731         5.31045
LJ           0.59715        -2.97788         1.04347
LJ           3.99988          3.9464        -3.42627
LJ          0.765374        0.342377           3.225
LJ         -0.519596         2.40587         6.02547
LJ           -6.2385        -4.40112       -0.786189
LJ           -6.3026        -3.57802          1.3006
LJ          -2.14657        -1.12098       -0.990908
LJ          -5.26627        -2.62585         5.22212
LJ         -0.422662        -3.02856        -6.42406
LJ          0.202894         2.34878          5.0191
LJ          -1.96748         5.02825         2.76819
LJ           2.36152        -5.89705         4.40061
LJ           6.39149         2.67209        -2.80386
LJ           2.56441         2.86628        -6.36526
LJ          -5.18412         1.04098         -4.3724
LJ           5.68988        -5.73582        -2.06705
LJ           1.71235         3.33611         -2.4205
LJ          -1.54215        -6.37873          3.3421
LJ          -5.40277         4.69048         2.23675
LJ        -0.0883356         1.29995         5.68498
LJ           2.35525         0.86687         4.89737
LJ           2.54323         2.64523        0.509938
LJ          -5.38721       -0.384132         3.56103
LJ            -1.441        -4.22244        -3.78766
LJ           4.94378        -5.11894       -0.972931
LJ          -3.34514       -0.396116         1.81574
LJ          -5.87977        0.438153         -2.3389
LJ            5.5652        0.567396        -5.16892
LJ           5.95498        -5.07707          2.4672
LJ          -3.28413         2.28785        -3.14748
LJ           6.01836         5.69376         2.61377
LJ          -6.07122        -1.95572          -4.892
LJ          -2.07414        -1.65811        0.376171
LJ           3.67154         -5.6532         1.39537
LJ          0.370649         3.67754        -3.32167
LJ          -3.41893        -2.65625        -6.35927
LJ           5.90136        -5.72557         5.50445
LJ          -5.42645       -0.782603        -1.09494
LJ         -0.710837         2.94305         1.57683
LJ          -1.51029       0.0495538        -3.91642
LJ           3.15128        0.611236        -1.69474
LJ           1.24246          4.6547         3.87071
LJ          0.845092        -5.11211         5.79508
LJ           5.98946         3.60358        -5.68334
LJ         -0.615263        -1.61751          1.5156
LJ           2.99147        -1.26199        -1.49138
LJ           4.11246        -2.53573         5.44626
LJ          -2.39331        -1.05088        -2.61242
LJ           5.20675          -5.073        -5.43588
LJ           5.34348        -4.41338         4.02987
LJ           4.56966         2.89911        -3.80599
LJ          -2.94009         2.13962         5.61119
