108
#Comment!
LJ           1.11025        -5.31289          4.6731
LJ           5.30078          5.1148         4.52596
LJ        -0.0415198         4.93443          3.8576
LJ           4.63187          6.0381          1.9886
LJ           1.55851        0.923854        0.770107
LJ           3.93703        -1.25107        -5.51455
LJ          -2.45748        0.106066         6.20436
LJ          -4.92764        -4.07606        0.439316
LJ          -5.89393        -3.82065         6.23386
LJ         -0.818689         6.10893         1.55562
LJ           5.81741          4.6083        -2.50408
LJ          -1.15638        0.738647       -0.901997
LJ          -5.41046          5.3738        -3.90933
LJ          -5.88603        -1.02568         2.27942
LJ           2.98307        -3.88089        -2.17351
LJ          -1.71437        -1.30805        -3.02824
LJ          -2.84237        -1.17589        -6.09454
LJ          -6.10167        -5.42605          6.3339
LJ           6.36372         5.34495        -5.11883
LJ          -2.34309         2.31423         5.43106
LJ          -4.37456        -1.76642        -3.16906
LJ         -0.359058        -2.39932         4.04725
LJ          -2.40865         3.01926      -0.0586202
LJ          -4.77348        -4.30719          5.2409
LJ          -6.22006        -3.56648        -4.87784
LJ          -2.49413        -4.58955         2.76168
LJ          -2.90686        -4.68958         5.15519
LJ           2.39384          2.9493         5.88367
LJ          -4.07407         2.56725           0.496
LJ          -0.19427       -0.560539          3.1241
LJ           5.29387        -5.39126         0.91528
LJ          -2.36053         1.97045         3.02998
LJ           3.19689        -1.74534        -2.32355
LJ           4.00813         4.05933        -2.81388
LJ           2.44105         6.28631        -3.29506
LJ          0.256048         4.91974          2.5063
LJ          -4.45965          4.6263         5.75047
LJ         -0.848343       -0.938025        -4.46221
LJ          -4.98009         5.00609         4.26155
LJ           1.31662        -4.34906        -1.48766
LJ           6.02694        -5.67338        -2.36939
LJ          -1.28405         6.29171         3.07232
LJ           4.96581         3.69209         4.98616
LJ          -1.37743         5.09557         3.02234
LJ          -2.65828        -2.51209         1.80175
LJ          -5.99975         2.83654        -2.54792
LJ          0.382058        -1.19731        -2.59431
LJ           5.91717       -0.706449         3.43075
LJ           2.40861        -4.75312         -2.2264
LJ          -2.48425        -1.91882         2.97519
LJ          -5.25478        -1.88804        -1.58517
LJ          -5.48449         4.21996          3.5796
LJ           4.68109        -2.87056         5.15049
LJ          -2.40676         4.23797         3.10481
LJ          -5.18326         6.43028         4.89252
LJ           1.31401        -6.26752         5.84865
LJ           4.76853        -4.26767          1.0744
LJ           2.78861         1.42285          -4.503
LJ         -0.218315         1.83578      -0.0929736
LJ         -0.263391         5.19414        -6.31037
LJ          -5.30354         -3.1233        0.229943
LJ           4.14745        -3.72649         4.55328
LJ          -3.73597       -0.792869        -1.37058
LJ          -3.61054        -3.00802         1.81455
LJ          -2.46292        -3.62138         5.39449
LJ          0.198808        0.609556         2.75834
LJ           1.25391         3.46704         4.10215
LJ           1.30707         5.44325         2.18492
LJ           5.68142         1.68865        -4.87373
LJ           2.15422         1.36379         2.14533
LJ           5.11299         1.75242         5.74176
LJ           4.31068         4.81974        -3.98985
LJ           1.61791         2.62228        -2.72936
LJ           -1.5983        -5.82204         5.23266
LJ           3.52482        0.594394         3.55224
LJ           0.96201         5.42528        -6.23871
LJ           2.30732         2.03718         5.37503
LJ           2.69795         4.81579         1.68605
LJ          -5.93492       -0.457916        0.165412
LJ          -3.42809         6.26802        -4.08839
LJ           6.30419        -2.02831         1.30594
LJ          -4.05993        0.700421         3.00099
LJ          -2.68147         1.72858       -0.232416
LJ           6.36131      -0.0819121        -3.74961
LJ          -5.63586         4.81946         1.32754
LJ          -2.51028         1.02526        -3.23049
LJ           6.40462         5.60718         3.87178
LJ           4.73906        -3.67509        -4.77223
LJ           1.59755        -2.46059         1.03349
LJ            2.2751        -2.82649       -0.719515
LJ          0.438262          4.9423        -2.32503
LJ          -1.97626        -4.39567        -3.97133
LJ          -6.44411        -6.06706         2.06222
LJ           5.81924        0.991978         1.37597
LJ           1.26629         2.16933         2.73125
LJ          -4.33059         1.25115        -3.36529
LJ           5.38106          1.2874        -1.93837
LJ           4.16751         4.52095         3.21285
LJ          -3.24373        -2.93806         4.41452
LJ           5.44891         2.49599         4.73521
LJ          0.471007         -3.1851        0.524204
LJ           3.76775        0.657659         1.87224
LJ            1.1014        -2.24841         3.73601
LJ          -2.94776        -1.74183        -2.48089
LJ           3.71428        -6.14719        -5.95967
LJ            6.1856        -1.09961        -5.55214
LJ            3.5666         1.49542         -5.3284
LJ          -2.65515        -1.00537        -5.03313
