108
#Comment!
LJ          -2.15715        0.978825        -1.83325
LJ         -0.827641         2.07644        -1.94996
LJ           5.99778        -5.59423          3.6709
LJ           5.08706         2.11762        0.827373
LJ          -3.86579         4.23804       -0.587364
LJ          -3.52661         6.41756       -0.236964
LJ           2.86441        -3.39312       -0.812615
LJ           -5.9576        0.708968          1.3434
LJ          0.639126        -5.99682         4.61611
LJ           1.28438        -6.21515         -2.2868
LJ          -3.93981        0.897445        -1.88354
LJ           5.08755         3.82402          3.5042
LJ           -2.3103         4.23866        0.628175
LJ          -2.38401       -0.788496        -4.26619
LJ          -2.02608       -0.976947        -5.48249
LJ          -2.74256        -1.91533          6.4522
LJ          -3.11991        0.594394          6.0898
LJ          -2.60715         3.88415       -0.415293
LJ          -4.05764        -0.67777         4.06549
LJ          -5.54529       -0.153799         2.04354
LJ           4.46902        -4.20396          3.3281
LJ         -0.789681        -4.01204        -3.46436
LJ          -1.91499          5.3263        0.471403
LJ          -5.44976        -3.17822        -4.11111
LJ           -4.9945         2.16557         1.13811
LJ         -0.170912        -3.41024         3.17739
LJ          -2.53953       -0.185875        -5.82515
LJ          -3.76276        -5.34451          4.3938
LJ          -6.28102          2.2566         2.20871
LJ         -0.731887         2.69522        -2.79676
LJ         -0.623381        -1.58467        -5.57045
LJ          -4.61594        0.697518          3.3568
LJ          -4.21067        -1.48272       -0.707148
LJ          -4.95038          1.2419        -5.90289
LJ          -3.40886        -4.27513        -4.80151
LJ          -3.15191         1.26169         3.02924
LJ          0.647179        -1.62301       -0.361606
LJ          -1.42698         1.87309         5.00188
LJ          -2.14692          3.0465       0.0127289
LJ           2.08689        -5.98034        -5.44315
LJ           3.54505         4.33834          4.3128
LJ          -2.54875         -1.7158         2.66134
LJ           3.35822        -2.66672        -3.76711
LJ           4.98375         4.63443       -0.659153
LJ          -3.12643         4.53739         -2.9938
LJ          -1.59103           5.319         -1.8684
LJ           2.77158        -1.34569        -4.09875
LJ           2.67111         3.40484         6.10965
LJ           6.13955         3.39543        -2.09662
LJ         -0.830155         5.96447        -4.64187
LJ           4.82651        -2.94901        -5.43381
LJ           2.59615        -6.43474       -0.931124
LJ          -3.70027        -1.57123        -2.39064
LJ           1.50235       -0.494798        -2.63984
LJ          -1.76844        -5.89447         2.92036
LJ          -1.78099         3.94037         5.95903
LJ          0.146966        -1.66358         -2.3588
LJ          0.901299          -4.162        0.767995
LJ          0.522985         2.78221         3.62025
LJ           1.61491        -3.22094        -1.69837
LJ           5.21297         3.04092         5.73325
LJ         -0.395574         0.14539        -5.77203
LJ           2.06396        0.674903         4.51612
LJ           5.73774         4.30779         1.57047
LJ          -0.25076         -1.9901         2.99165
LJ           -4.8525        -4.15272         1.68597
LJ           5.38755         1.63346         -3.9135
LJ          0.709575        -2.81908         3.45453
LJ          0.715276           5.075        -2.20177
LJ           3.43934        -5.55562          3.9434
LJ          0.293486        -4.82068        -5.69728
LJ            5.8034       -0.013667         1.79064
LJ          -2.81673        -3.82369         3.19549
LJ          -3.32807        -2.80428         -5.6221
LJ          -3.13218        0.384619        -2.77832
LJ          0.657442        -3.03766        -4.99915
LJ           5.25604        -3.57782         4.11015
LJ          -2.01593        0.991978         2.23344
LJ           3.54052        -3.90889         4.46506
LJ         -0.607355         3.89772         2.39406
LJ          -3.46498        0.888075        0.542418
LJ          -2.26567         2.20806        -5.61588
LJ          -5.13118         -5.6166         5.56977
LJ         -0.035726         1.06109        -2.45098
LJ           6.43713        -4.16169        -6.29803
LJ          -6.16517         4.73304        -6.27377
LJ           -4.4347         6.29375         3.75057
LJ          -3.52036         1.88076        -2.57012
LJ           5.69569         -6.2653         2.69727
LJ          -4.81807         4.64551        0.739895
LJ          -5.61305       -0.642314         3.85423
LJ           5.08126         1.18916         3.71928
LJ          -2.39646         5.31514         2.72394
LJ          -6.34914          -2.455        -4.99948
LJ            5.3368         2.94322         1.49964
LJ          -6.20424        -4.30167        -4.44777
LJ           5.31411        -1.43001        -1.94166
LJ          0.942002         4.53337        -1.25786
LJ           2.41497        -4.27049         3.12522
LJ           5.30052        -3.94135        -5.58553
LJ          -2.64699         6.16547         -4.0103
LJ          -5.71105        -1.66968         4.21852
LJ          -3.86198         4.11063         5.25583
LJ           -4.1771       -0.872259        -3.13888
LJ          -3.01634         1.88719        -3.68685
LJ          -6.27198        -4.41574         5.01617
LJ          -1.26601         6.02188         2.06467
LJ           2.61635        -6.15405         5.00574
