108
#Comment!
LJ           1.18228        -5.29988         4.72039
LJ           5.88696         4.60982         4.49985
LJ         -0.432623         4.43523         4.16532
LJ           4.67916         6.28476         2.14755
LJ           1.45929        0.930832        0.727643
LJ           3.73463        -1.69235        -5.89395
LJ          -2.30327        -0.26645         5.96757
LJ          -4.66305        -4.03506        0.455543
LJ          -6.25916        -3.83682         6.39921
LJ         -0.757962         6.16988         1.50532
LJ            6.1334         4.69835        -2.61401
LJ          -1.09832        0.993594       -0.258827
LJ          -5.42179         5.49757        -4.19843
LJ          -5.69086        -0.70762         2.63168
LJ           2.91932        -3.76366        -1.94121
LJ          -1.60681         -1.3075        -3.32077
LJ          -2.87269        -1.31648        -6.00353
LJ          -6.29909        -5.36363         6.37482
LJ           6.38596         5.65928        -4.96085
LJ           -2.3623         1.63483         5.16261
LJ          -4.12994        -1.22562        -3.28247
LJ         -0.792146        -2.52894         3.53224
LJ           -2.1783         2.68555       0.0908532
LJ          -4.49116        -4.03072         5.20412
LJ          -6.11857        -3.27691        -5.06997
LJ          -2.75699         -4.2171         2.70718
LJ          -2.40801        -4.55502         5.55404
LJ           1.96541         2.87984         6.32356
LJ          -3.91775         2.42599        0.739099
LJ          0.234784        -0.62698         3.24724
LJ           5.11064        -4.94522         1.07924
LJ          -2.41403         1.99557         2.98031
LJ           3.07731        -2.03145        -2.41457
LJ           4.25675         4.22497        -2.74033
LJ           2.53626        -6.43038        -3.26598
LJ          0.283393         4.45826         2.18952
LJ          -3.91718         4.50344         5.58388
LJ          -1.12324       -0.647009        -4.68526
LJ          -5.12589         5.18048         3.73507
LJ           1.27304        -4.82148        -1.50479
LJ           6.06627        -5.70829        -2.73447
LJ          -1.21733         6.33014         2.88539
LJ            4.2878         3.84698         4.98154
LJ          -2.00138         5.48148         2.91921
LJ          -2.37862         -2.3071         1.73961
LJ          -5.80291         2.92428        -2.13232
LJ        -0.0147502         -1.3348        -2.35798
LJ           5.71722       -0.679565            3.35
LJ           1.84712        -4.61897        -2.34589
LJ          -2.87389        -1.91863          2.9987
LJ          -4.95581        -1.74338        -1.24247
LJ          -5.94433         4.21899         3.68293
LJ             4.996        -2.95973         4.86232
LJ          -2.39417         4.49486         2.64497
LJ          -4.97235         6.28054         4.83218
LJ           1.77446        -6.04712         5.84193
LJ           4.29343        -4.23118         1.08263
LJ           2.95119         1.78631        -4.35484
LJ         -0.374781         1.52705        0.326154
LJ         -0.482647         4.94338         6.31312
LJ          -5.71115        -3.23067        0.227779
LJ           4.46852        -3.75063         3.98679
LJ          -3.69278       -0.882733        -1.22434
LJ          -3.33302        -3.20795         2.37833
LJ          -2.20177        -3.42258         5.55584
LJ          0.151961        0.577321          2.9131
LJ          0.855141         3.62745         4.13803
LJ           1.46737         5.67554         2.48033
LJ           5.86221         1.60294        -4.53047
LJ           2.25482         1.56216         2.73104
LJ           5.49435         1.81235         5.88659
LJ            4.4128           4.879        -3.43398
LJ           1.63604         2.71006        -2.67663
LJ          -1.63651        -5.85721         4.85661
LJ           3.99368         1.51653         3.76765
LJ          0.900937         4.89611        -6.37285
LJ           2.31966          1.8231         5.31386
LJ           2.68721         4.51511         1.51508
LJ          -5.85652       -0.485652        0.628063
LJ           -3.1547        -6.32902        -4.04294
LJ            6.1589        -2.60616         1.02931
LJ          -3.94266        0.575563         2.81711
LJ          -3.21857         1.62181       -0.620452
LJ           6.25147        0.120662        -3.91191
LJ          -5.86223         5.19842         1.57863
LJ          -2.65105         1.02083            -3.2
LJ            6.3651         5.28538         3.76892
LJ           5.06726        -3.58829        -4.98389
LJ           1.06652        -2.17262         1.01488
LJ           2.61383        -3.26036       -0.821103
LJ          0.415062         4.78071        -2.46461
LJ          -2.18293        -4.16937        -4.28904
LJ            6.4225        -5.98365         2.55758
LJ           6.01442        0.790235         1.01922
LJ          0.962591         2.19676          2.6293
LJ          -4.01586        0.980975        -3.64455
LJ           5.07372         1.19566        -1.90372
LJ           4.07179         4.21036         3.35008
LJ          -2.68141        -3.23715         4.51825
LJ             5.214         2.42197         4.88197
LJ          0.328819        -3.16587        0.633616
LJ           3.66389        0.387747         1.40993
LJ           1.30803        -2.13086         3.85033
LJ          -2.75372        -1.72657        -2.40197
LJ           3.89834        -6.00633        -5.87038
LJ           5.95292         -1.6298        -6.13058
LJ           3.70555         1.66975        -5.12511
LJ          -2.80929       -0.511652        -5.09169
