108
#Comment!
LJ          -2.42676        -0.78374      -0.0294234
LJ          -2.20846         2.43992        -3.45398
LJ           5.31346        -5.04128         4.91953
LJ           6.27579        0.262635        0.591804
LJ          -4.75798         5.24994        -1.01596
LJ           -4.5052        -5.46336       -0.577174
LJ           1.98293        -2.30923        0.139866
LJ          -5.59869        -0.49308       -0.286831
LJ           0.58118         5.21219         4.42774
LJ           1.68573         5.21621        0.215546
LJ          -4.44583      -0.0866736        -1.30159
LJ           5.71255         -6.2627         4.95706
LJ          -2.03184          3.2781        0.305824
LJ           -3.3834         1.28183        -4.16418
LJ          -2.57993        -1.99699        -4.95957
LJ          -2.34613        -3.14809        -5.94787
LJ          -2.53089       -0.286291         3.95146
LJ          -2.46919         4.17504       -0.119353
LJ          -3.35263      -0.0745437         5.23308
LJ           6.40986         0.10633         1.65976
LJ            4.2714        -3.64266         2.17566
LJ          -1.49345        -4.08359        -4.17915
LJ          -1.17378         3.87892         1.14947
LJ          -5.44395        -3.37198        -5.21317
LJ          -6.14524         1.42264         1.87925
LJ          0.778805        -5.38978         2.59696
LJ          -2.18021        0.881369        -6.07061
LJ          -4.84551         6.06141         3.87913
LJ          -5.03003        0.551925         2.58562
LJ           1.34737         4.08261        -2.26651
LJ          -2.27766         -2.1549          6.0325
LJ          -4.10674         2.24803         3.47015
LJ          -6.22278        -3.30119        0.207859
LJ          -4.74286         1.17996         5.39409
LJ          -3.13667        -5.47379        -2.85119
LJ            -4.452         3.21915         1.22891
LJ         0.0918033        -2.76201        0.495899
LJ          -1.87308          2.4212         4.05801
LJ          -3.36405         3.48592       -0.185759
LJ           1.41832         5.98629         6.29246
LJ           2.73903         4.78937         5.77567
LJ          -1.00536       -0.789876         2.47644
LJ            3.5071        -4.00178        -5.44971
LJ           5.54457        -5.60116        -2.01112
LJ          -3.20528         3.97688        -1.08411
LJ        -0.0151157         5.63856        -3.48388
LJ           2.90679        -1.55655        -2.11117
LJ           2.78065         4.82784        -6.04736
LJ           4.73491         3.23315       -0.994164
LJ          -1.33593        -3.87753        -2.67664
LJ           4.85768        -2.29546        -4.26127
LJ           3.37644         4.19692        -2.46087
LJ          -3.93303        -1.86484        -4.19397
LJ           1.29216       0.0807003        -4.61836
LJ         -0.165515         6.38696         5.20541
LJ           1.00358         3.35968         3.02872
LJ           1.51015        -1.14796        -1.09703
LJ           1.88925        -3.41282        -1.88903
LJ           1.67204         4.83166         4.68091
LJ           2.84919        -3.07913       -0.844157
LJ           3.87443          2.9306        -5.81114
LJ         -0.062702       -0.208305        -4.29251
LJ           1.01174          1.7706         3.08853
LJ           5.32864         4.59279         1.40559
LJ          0.670517        -2.02765        -5.98866
LJ           6.43299        -5.30372         2.14697
LJ           4.52825        -0.90929        -4.51799
LJ            0.5164        -3.39134         1.28222
LJ           2.27236         4.02063        -3.74835
LJ           4.43515        -5.60635         2.26176
LJ          0.239581        -3.47491         5.38233
LJ           5.64435       -0.814709       -0.249574
LJ          -3.79495        -3.66771         4.12473
LJ          -4.26609        -4.83319        -3.53669
LJ          -2.80168       -0.288028        -1.20418
LJ           1.30889        -3.53506        -5.38096
LJ          -5.01948        -5.76394         2.72027
LJ          -2.53406        0.627268       -0.122297
LJ           4.32387        -6.23297         4.80486
LJ          -2.94854         3.52594          2.9122
LJ          -3.41848         1.96221        0.721967
LJ         -0.461176         3.28301         6.35807
LJ          -5.73116        -6.25805          4.8257
LJ          -2.05065         1.08465        -3.46422
LJ          -6.18671        -3.04388         5.39663
LJ           6.01194         6.09932        -6.26313
LJ          -2.88008         5.97374         3.06306
LJ          -2.83999         2.65293       -0.737307
LJ           5.94939         6.07811         1.74471
LJ           6.01995          3.8364          2.1123
LJ          -6.13701       -0.617865         2.62211
LJ           3.42238         2.53239         3.42732
LJ           -2.0272        -5.49762         4.33854
LJ          -5.54749        -1.07776        -4.06029
LJ           2.07788         3.20528        0.407304
LJ          -5.45374        -4.58193        -2.92629
LJ          -5.78322        -2.06423        0.263206
LJ           2.78799         5.44174        -2.56313
LJ           2.19419        -2.39136          4.3695
LJ           5.99471        -2.05274        -3.68851
LJ          -4.76909         5.74472        -2.74301
LJ          -4.29267       -0.186858         3.34483
LJ          -5.98879          2.6851         5.66552
LJ          -4.12003        -2.39231        -5.44627
LJ          -4.28536         1.82224        -3.80741
LJ          -6.32037        -4.47198         5.66756
LJ         -0.465143        -4.80066          2.9164
LJ           5.68625        -4.58565         5.86135
