108
#Comment!
LJ          -2.21948        -5.72095        -2.54674
LJ          -5.10048         4.81208        -4.43537
LJ           -4.6626         4.87621        -5.53393
LJ           6.20232        0.575159       -0.294154
LJ          0.434568        -2.64418         3.30415
LJ          -4.02398        0.774489        -2.67906
LJ          -5.19796         4.67719         3.20903
LJ          0.133229       -0.267506        -3.11749
LJ          -3.46004         4.05536        0.445336
LJ          -2.60152         2.49269         4.18339
LJ          -3.38902         1.55354        -1.74596
LJ          -0.12349         3.84268         4.16601
LJ           2.90685        -4.95204        -3.23258
LJ          -4.79688          2.4409       -0.741651
LJ           6.38249        -4.92417        -4.72844
LJ           1.92981          3.3384        -1.75957
LJ          -1.86681       -0.020361         -5.7868
LJ           -4.2458         3.48967       -0.786915
LJ           3.73463       -0.520035         3.88855
LJ         -0.390937         6.19952        -4.99873
LJ          -2.79474        -2.76023         3.38609
LJ          -0.68101        -5.47062         4.88943
LJ         -0.946401         6.12877        -5.95132
LJ           2.65407         1.72989       -0.786481
LJ          -5.60936         5.72633         1.35406
LJ           3.19168        -4.48847          2.1855
LJ          -1.94883         6.27536       -0.530332
LJ           4.55724         3.46018         5.62584
LJ            3.1568        -2.48734         1.74542
LJ          -5.84711         3.97081         1.45009
LJ          -3.56662        -0.81778        -3.16682
LJ          -2.59142        0.311518        -1.95481
LJ          0.330264         1.32512         4.04251
LJ           2.22907         -4.5751         3.95715
LJ          -4.91537         3.83782       -0.134363
LJ          -2.34305        0.168576          5.8417
LJ          -6.08545         1.25624         2.87912
LJ           4.61718         1.52643       0.0138829
LJ          -4.68161        -4.89389        -4.91284
LJ           3.91186         0.76452        -2.58002
LJ          -4.15202        -5.81359         3.38046
LJ           5.81197        -4.39223         3.63213
LJ          0.411955          4.2241        -2.92783
LJ           1.54327         5.69688         1.37452
LJ           0.33827        -6.03871        -5.67049
LJ           1.38475        -1.60024         2.95457
LJ           5.64989         -3.8922         5.05513
LJ           4.22405         5.94753          1.5012
LJ          -1.77153        -4.90951         1.55098
LJ          -5.84374         1.21719        -4.69919
LJ           4.09658        -3.69416         1.96556
LJ          0.502026         3.01615         2.85031
LJ           1.96655         2.64829         2.33472
LJ         -0.965237        -3.29843      -0.0229363
LJ          -3.23088         3.94439         -2.9563
LJ            3.6231        -4.27554        -2.97456
LJ          -5.77839         5.84147         4.10522
LJ         -0.744676         5.69749         4.73446
LJ          -2.14641         -1.4567         4.86246
LJ          -1.66469        -5.97712        -6.19702
LJ           4.56375       -0.457709         5.00548
LJ          -2.53536         1.46657        -5.84803
LJ          -1.89137        -2.06929       -0.139815
LJ          0.895125         4.93446         3.72579
LJ            4.8145         6.18436         6.27415
LJ          0.709482         0.63289        -2.44857
LJ          -1.27071      -0.0678901         5.97173
LJ          -4.37269        -3.59639        -2.26491
LJ          0.726082          5.5073        -5.64014
LJ          -5.42346         1.72941        -2.49554
LJ          -2.86223         1.63734         -4.5231
LJ           1.46029       -0.240561         -2.3622
LJ          -3.00455        0.470469        -3.62082
LJ           2.01365        -4.46087        0.772718
LJ          -1.04723        -5.47404        0.173727
LJ          -1.11309        -1.58299         2.59063
LJ          -5.44107         2.00148          3.1084
LJ           1.84663         1.23773        -4.29522
LJ           3.45839         2.09326         4.50508
LJ           2.47616        -2.60729        -1.02156
LJ          -6.37272        0.408503         5.58956
LJ           4.47515        -5.81524        -5.25987
LJ          -4.43585         5.37076         3.77323
LJ          -6.33071         5.35999        -5.07205
LJ          0.845836         5.29721        -3.90343
LJ          -6.26994        -6.40824        -4.06955
LJ           -2.4345         0.15987         3.92008
LJ          -2.50199         1.81911        0.928568
LJ          -3.25302         -5.4437        -5.21089
LJ           1.56373         2.79708         3.30943
LJ          0.793302        -6.30169        -2.11958
LJ         -0.307691        -4.70061         1.97489
LJ           -4.2729         2.60252         3.62941
LJ           1.80505       -0.689318         5.09238
LJ           5.63408         1.22891        0.812404
LJ          -1.43765        -4.55393        -5.99015
LJ            5.9172        -1.78142         4.57414
LJ          0.370301        -2.26905         5.55825
LJ          -1.35616        -5.94793         3.92059
LJ          -2.68829          3.1704         5.80917
LJ           2.43889       -0.370622        -3.30563
LJ            2.5654         -4.2315       -0.414929
LJ          -2.81742        -1.73879        -1.79466
LJ           -2.2353        -2.83838        -1.92218
LJ          -1.66038         3.57409          2.6779
LJ           5.82714        -3.04972         6.10121
LJ           6.34452         2.00464         3.97446
LJ          -1.45179      -0.0163981        -3.21359
