108
#Comment!
LJ           -2.2469         1.48182         3.45009
LJ          -5.28023         2.59647        -6.07071
LJ           -5.0512        -6.38606        -5.84732
LJ           5.29314         1.24844         1.00203
LJ           -1.6403        -3.02114         4.85704
LJ          -3.32816         1.76552         -4.5744
LJ          -6.32174         2.54658         1.27569
LJ           -3.1001        -4.79057        -3.50014
LJ          0.272874         4.73011         1.23644
LJ          -1.56248         3.19616         3.61271
LJ          -1.02231          2.0657        -1.86509
LJ          -2.13194         2.73906         1.93992
LJ          -0.86848         6.29463        -2.48059
LJ           -2.1008         1.37963        -3.23175
LJ          -6.04797        -2.57853        -1.49169
LJ           1.07345         3.02321         -3.0403
LJ         -0.991574         1.50221         4.91127
LJ          -5.62508         4.37245        -2.91172
LJ          -6.38703        0.104461         4.32316
LJ          -1.37396         2.82287        -3.78272
LJ           1.65282        0.861572         2.16264
LJ          -3.71108        -2.50633        -4.12597
LJ          -2.57151        -6.35005        -4.31274
LJ           5.61461        -2.05298       0.0386327
LJ           6.11326         4.17302       -0.036355
LJ           1.62902        -5.34034         3.63564
LJ           1.59725        -6.03236        0.616757
LJ          0.521967         5.76067         4.44203
LJ          0.664768         -2.8305         5.40522
LJ           5.86015        0.918995         3.47754
LJ          0.383287          1.3249         1.27959
LJ           3.67369         0.84239         2.18777
LJ           4.77389         2.54332        0.997776
LJ            1.4136         5.12364        -5.71174
LJ            5.5762         5.04115        -1.71806
LJ          -1.95399        -1.50679        -4.30329
LJ          -4.13212         4.01277        -1.05675
LJ           3.74473         5.64889       -0.541223
LJ          -4.08742        -5.85658        -5.28819
LJ           3.62856         3.57516        -1.53836
LJ            6.3719        -5.86867         2.34174
LJ           3.44871         5.00475         5.00342
LJ          -5.91902         3.64486        -5.17973
LJ           4.66904         3.59292        -5.76576
LJ         -0.466185        -2.81634         4.58816
LJ           3.95763       -0.196645         3.97229
LJ            5.9957         4.50105          5.7562
LJ             1.017         3.40932         1.62363
LJ          -2.82135         5.69404         6.39877
LJ           4.87645          4.2427         -1.3766
LJ            4.7286         6.30997          3.3028
LJ         -0.334263         4.02662         2.43509
LJ          0.860923        0.998744        0.478127
LJ          -2.23214        -1.63666        -2.06065
LJ          -5.23144         3.89506        -3.97555
LJ           5.17255         5.57049        -5.88688
LJ          -5.83467          5.2621         2.18687
LJ          0.695489        -6.01111         4.82861
LJ         -0.463114         1.56159         3.00006
LJ          -2.94541         6.13803         -5.5841
LJ           6.03788        -1.02325         6.15209
LJ          -0.48584          5.7978         1.94514
LJ          -3.49958       -0.773001        -2.29481
LJ            3.3535         2.93463         3.92715
LJ           2.58155          4.9584         3.06155
LJ           2.44443         3.71441         4.72927
LJ           1.27508        0.370909         5.40299
LJ          -1.73885         4.08617        -2.53765
LJ         -0.638052         1.88207        -3.97067
LJ           5.74778        0.556353        -4.63255
LJ         -0.150518         1.73515        -5.90803
LJ             2.063         2.35496       -0.399282
LJ          -1.39928        0.724872         -2.6369
LJ           1.36265         0.55701        -1.20993
LJ           4.45526        -1.98439         1.26239
LJ          0.372803        -4.18519         1.52683
LJ           4.75393         5.38919         3.12744
LJ           2.30987        -1.57778         6.38044
LJ            5.3884          0.1969         5.08428
LJ           3.27929        -1.43745        -2.36071
LJ          -2.18106       0.0259455         5.72178
LJ           5.56409         3.65467        -6.26798
LJ           5.36455         3.77778         3.20455
LJ          -6.26805        -5.77291        -2.50683
LJ          -1.85762        -3.78687        -1.93221
LJ           3.29812        -2.76805        -3.84972
LJ           -5.8335       -0.691441         4.76258
LJ        -0.0320971         2.19911        -1.66573
LJ          -4.35127        -4.22457         4.12113
LJ           6.08247         3.01828         2.15269
LJ           2.62204         6.12721        -1.60339
LJ          -1.37497        -6.14417          1.5222
LJ          -3.99859         4.58457         -5.4895
LJ         -0.982714         1.04075         6.02526
LJ           5.96909         1.79271      -0.0269581
LJ          -4.99382         6.42778         4.02253
LJ           6.01926       -0.725017         1.19539
LJ           1.27023        -4.09257         2.45717
LJ         -0.903705        -1.06513         5.26342
LJ          -3.15797         4.71437        -3.98457
LJ           5.10316       -0.606284        -3.37044
LJ           4.37634        -5.11186         1.73496
LJ           -4.2432        -2.17191        0.192626
LJ          -3.73952        -2.10791        -2.27164
LJ         -0.473214         5.28366        -2.21768
LJ           5.55242        -0.12998      -0.0157647
LJ          -1.98661        -1.37525         5.55932
LJ          -1.07455        -2.50422        -3.03834
