108
#Comment!
LJ          -4.39847        -5.37972        -6.07048
LJ          -2.13111        -5.71094        -4.08246
LJ          -5.99507        -5.21586        -6.35421
LJ         -0.767186        -6.06565        -4.08625
LJ          0.941766         4.85259        -5.95563
LJ           4.27103        -3.88291         5.10948
LJ          -4.74869        -5.30532        -3.05061
LJ         -0.194044        -5.72954        -3.06356
LJ           6.15041         5.83023         6.12014
LJ           1.36235        -3.63751        -4.39449
LJ           1.71143         4.18177        -6.30008
LJ           2.76487         5.60746        -4.31848
LJ           4.12382        -1.96474        -3.62709
LJ          -2.68327         1.32342         6.25759
LJ          -5.73793         3.42049        -2.10263
LJ          -5.09714        -3.53348        -2.69821
LJ          -1.59783        0.236261         -5.4842
LJ           1.39892        -3.55313         5.49888
LJ          -2.05088         2.73073        -5.07435
LJ           1.60994         -2.2355        -3.61967
LJ           3.37423        -2.27108        -5.80379
LJ            2.9879         3.32603        -4.44629
LJ           3.87872        -2.94041        -1.82147
LJ          -5.56894        -2.25388        -2.68946
LJ           5.65191         2.20342        -5.63299
LJ           6.22604         4.77971         5.63266
LJ          -5.55511         2.23878         -4.7377
LJ          -4.43969         3.69596        -4.14442
LJ          -2.72155        0.258506        -4.45295
LJ          -3.77437         3.59704          6.3462
LJ           -4.1408         5.86573        -5.55022
LJ           -3.3603         2.50439        -4.15092
LJ           2.88921        0.843518        -1.95381
LJ            1.6716          1.9781        -6.07633
LJ          0.954919         4.20914        -5.09443
LJ           1.84776         5.88407        -2.79457
LJ          -4.12934         4.13583       -0.705365
LJ           -4.7359        -6.31617        -2.42643
LJ            -5.376         4.70925       -0.355996
LJ          -5.02908         -4.4706        0.873023
LJ         -0.765181        -5.46842       0.0950255
LJ          0.411328        -2.48902        -4.15748
LJ          -3.98294        0.161131        -1.47458
LJ         -0.877315         -5.8059        -2.42257
LJ          -1.69341        -5.71199        -3.27492
LJ          -3.45605        -2.53335        -1.12101
LJ           2.57552        -4.29824        -1.81507
LJ           3.22206        -5.59691        0.156185
LJ           4.38024         3.14501        -2.03982
LJ          -2.60994         1.72152        -4.61841
LJ           4.10106        -1.49836        -2.83836
LJ          -6.20151       -0.598589        -3.79636
LJ         -0.353886        -3.70919         4.11038
LJ           -1.6415         3.01294        -2.75453
LJ         -0.586209        -1.29206        -0.37031
LJ          0.252102        -3.99166         2.27699
LJ           2.36163        -4.43109        -3.53437
LJ            4.7868         1.33355        -3.45906
LJ           -0.5501        -1.78259        -1.59916
LJ            2.4629         -1.1211       -0.476097
LJ            6.3075         5.18578        -1.94054
LJ          -2.71315         3.28194        -3.07064
LJ           2.51594         4.35934       -0.210849
LJ          -4.73356       -0.299259        0.315327
LJ          -2.65494        0.524516         1.05802
LJ         -0.370962         2.96608         -3.9489
LJ          -1.21875         1.17499        -1.15922
LJ           1.29101          4.2342        -2.67556
LJ          0.550036          3.6138         -3.4548
LJ           1.58642         4.30362        -1.02479
LJ          0.411663         3.59925         1.37647
LJ           3.03041         4.17463         1.75481
LJ          -5.72855        -6.13976         2.03357
LJ          -4.92693        -3.74161         4.39657
LJ          -5.98623        -2.01729         3.78295
LJ           -4.9681         4.68447         2.70393
LJ          0.446519         4.57809         4.35696
LJ          -0.22978        -5.30792         3.64829
LJ           1.06516        0.815447         4.36118
LJ            1.0452        -5.12744         3.77369
LJ         -0.261253         5.11095        0.803344
LJ           4.96136         -5.0674          1.3351
LJ           3.80825        -5.24281         3.61212
LJ           3.67633         5.41292         5.44768
LJ           5.89583        -3.14532         2.07867
LJ           5.42435       -0.874193         1.70903
LJ          -5.08679         1.67209         4.51588
LJ           6.42501       0.0296983         2.09088
LJ          -5.24436         0.79188         1.40751
LJ          -2.05416        -4.26247         3.38647
LJ          0.704455        -1.47794         3.23816
LJ           1.59186        -2.84628        -4.95364
LJ           3.45553        -3.47226        0.812309
LJ           3.81213         1.20257          2.2012
LJ           5.88739         2.27892         3.62832
LJ           4.82607        -1.69434         2.00263
LJ           5.81735         2.04732        0.605174
LJ          -4.84832         6.12051         2.45965
LJ          -4.73134         2.54707         4.97023
LJ          -1.24426         2.26163         1.74732
LJ          -1.59063         1.06007         2.18116
LJ         0.0542649         5.05975         2.07768
LJ         -0.857271         3.84858         6.35363
LJ          -1.33711         1.69679        -5.57321
LJ            3.0431         3.54118         2.53572
LJ           5.52853         2.17951          2.1083
LJ           0.71993         1.62567         4.03484
LJ           5.48516        0.667901         5.79607
