108
#Comment!
LJ            1.9657        -5.44372         5.34722
LJ          -5.87059         2.06435        -6.11601
LJ          -1.79572         2.20706         5.75048
LJ           4.20207        -5.10762         3.09055
LJ          0.731039         1.05818        0.661891
LJ           2.72092        -4.09506         4.94376
LJ          -1.75387        -2.33862         4.80945
LJ          -3.60129        -3.75515        0.485952
LJ           4.83505        -3.69116        -6.40943
LJ         -0.317104         6.42753         1.03753
LJ          -5.20436         5.20514         -3.2824
LJ           -2.0569       -0.437221         2.10405
LJ            -5.265         5.99231        -5.92718
LJ          -4.70883        0.993136         4.40407
LJ           2.30796        -4.69639         -2.4871
LJ          -1.23164        -1.16154        -4.91272
LJ          -2.83083        -1.58898         -5.5637
LJ           5.86079        -5.77779         6.45481
LJ          -6.23718        -6.36926        -5.18175
LJ          -2.37127        -2.26958         3.90616
LJ           -3.4265       -0.241132        -3.10185
LJ          -3.08295        -2.79021        0.536608
LJ          -1.62581         2.52096        0.701114
LJ          -2.51965         -2.6329         5.53483
LJ          -5.94146        -1.98771         6.41569
LJ          -2.59088        -5.29382         2.57121
LJ          0.133049        -3.14814        -5.80654
LJ         -0.358223         2.51635        -4.55209
LJ          -2.92204         1.46441         1.79077
LJ           1.04859        -2.03874         3.78467
LJ           4.62928        -3.88971         3.00611
LJ          -2.69131         2.17558         2.84967
LJ           2.50495        -2.75138        -3.24378
LJ           5.24208         3.53058       -0.569572
LJ           3.02653        -5.21726        -3.04902
LJ          0.608999         1.99122        0.419158
LJ          -1.79634         3.82197         4.70974
LJ          -3.19896        0.902808        -5.97498
LJ          -6.31668         5.09786         1.79578
LJ          0.740603         5.62195        -1.23232
LJ           5.77969        -4.98817        -3.41233
LJ          -1.38037         6.20742         1.98712
LJ          0.600861         4.59315         4.84491
LJ          -4.87065        -5.42978          2.1976
LJ         -0.498908       -0.928703         2.36855
LJ          -4.74861         3.39022       0.0869856
LJ          -1.74469        -2.20914       -0.671725
LJ           4.78834       -0.536929         2.84763
LJ         -0.515781        -3.72904        -3.25686
LJ          -4.61749       -0.221708         2.49606
LJ          -4.14107        -1.40169        0.940934
LJ           -5.6558         2.69125         1.84864
LJ           6.23686        -3.92412         2.71881
LJ          -2.26325         6.25583        0.390334
LJ          -3.89437         5.29649         4.31785
LJ           3.86262        -4.62761         5.41794
LJ           1.11534        -3.15336         1.06076
LJ           3.83064         3.66751         -3.5419
LJ          0.608636          0.5376         2.95855
LJ         -0.611887         2.79776         5.77895
LJ          -6.20128        -4.21853       -0.620062
LJ            6.3721        -3.55264         1.59437
LJ          -2.46558        -1.04711       -0.988091
LJ          -4.90187        -2.70861         4.92891
LJ         -0.742525        -3.02694          6.3297
LJ          0.186767         2.07106         4.60095
LJ          -1.67493         4.75098         3.28852
LJ           2.24175        -6.11246         4.08392
LJ          -6.34539         2.20127        -2.80363
LJ           2.53005          2.7051         6.01856
LJ          -5.47531         1.14992        -4.74725
LJ            5.4966         -6.0848         -2.2432
LJ           1.72038         3.23214        -2.44232
LJ          -1.62898        -6.23764          3.2373
LJ          -5.99674          4.3283         2.56083
LJ         0.0293714          1.9839         5.75217
LJ           2.35096        0.964534         4.96012
LJ           2.57112         2.91368        0.651629
LJ          -5.51809       -0.411704         3.15842
LJ          -1.67909        -4.51289        -3.81491
LJ           4.87774        -4.87681       -0.570858
LJ          -3.40002       -0.210065         1.91113
LJ          -5.76622        0.886891          -2.335
LJ            5.6377        0.525233        -4.98241
LJ           5.90099        -5.41563         2.45308
LJ          -3.25888           1.978        -3.15134
LJ           6.04997         5.62328         2.82062
LJ          -6.28798        -2.24114        -4.95727
LJ          -1.70735        -1.79039        0.261634
LJ            3.7531        -5.28034         0.96666
LJ          0.353741         3.85237        -3.20805
LJ          -3.27193        -2.91996        -6.04733
LJ           5.99132        -5.75671         5.07695
LJ           -5.6482       -0.552974        -0.80076
LJ         -0.459902          2.8017         1.74962
LJ          -1.83538        0.138913        -4.03838
LJ           3.42583        0.701856        -1.72823
LJ           1.72872         4.47975         3.87302
LJ          0.339802        -4.86825         5.56515
LJ           5.77126         3.43507         -6.1078
LJ         -0.406631        -1.96028         1.38019
LJ           3.08534        -1.03751        -1.07458
LJ           3.62878        -2.37879         5.15946
LJ          -2.29357        -1.21069        -2.52822
LJ           4.97267        -5.20801        -5.45136
LJ           4.94903        -4.48695         3.79619
LJ           4.46669         2.69953        -4.01324
LJ          -2.96808          1.8226         6.02859
