108
#Comment!
LJ          -2.47106       -0.954853        0.222733
LJ          -2.40703         2.46344        -3.64919
LJ           5.21067        -4.99787         5.10733
LJ           6.30833        0.117572        0.499488
LJ          -4.96603         5.42591         -1.0099
LJ           -4.6357        -5.32889       -0.624762
LJ           1.85916        -2.20213        0.210055
LJ          -5.43841       -0.734818        -0.56095
LJ          0.411191         5.10335         4.39163
LJ           1.75255         4.98878        0.530421
LJ          -4.48291       -0.263451        -1.20406
LJ             6.106        -5.90157         4.96391
LJ          -2.06511         3.17432        0.239292
LJ          -3.47377         1.57563        -4.13088
LJ          -2.44414        -2.15297        -5.12962
LJ          -2.29739         -3.2738        -5.85291
LJ          -2.53617       -0.424162          3.7067
LJ          -2.45873         4.12805       -0.102752
LJ          -3.20321       0.0287565         5.33872
LJ           6.28139       -0.177435         1.76723
LJ           4.26512        -3.51203         2.00274
LJ          -1.58155        -4.13336        -4.20619
LJ          -1.14447         3.63948         1.18162
LJ          -5.47957         -3.4106        -5.36913
LJ          -6.26796         1.58765         1.98798
LJ           0.84294        -5.62482          2.5179
LJ          -2.13997         1.01443        -6.09449
LJ          -4.93431         5.86885         3.74732
LJ          -4.79701        0.493966         2.56236
LJ           1.75349         4.08699        -2.18773
LJ          -2.50544        -2.23021         5.87892
LJ          -4.03919         2.45548         3.45688
LJ            6.4227        -3.46072        0.317597
LJ          -4.70867         1.16819         5.17176
LJ           -2.9903        -5.67237        -2.64485
LJ          -4.48614         3.48539            1.03
LJ        -0.0305916        -2.83205        0.529373
LJ          -1.93566         2.50078         3.92888
LJ          -3.48385          3.4828      -0.0304929
LJ           1.33531         5.84614         6.12383
LJ           2.60878         4.85325         5.80347
LJ         -0.802497       -0.665404         2.45346
LJ           3.77626        -4.18762        -5.62656
LJ           5.61923        -5.24449        -2.19122
LJ          -3.04608         3.92562       -0.997527
LJ         0.0970957         5.86476        -3.72491
LJ           2.91072        -1.59058        -1.83776
LJ            2.7935         5.01922        -5.79608
LJ           4.54554         3.21426       -0.846469
LJ          -1.41546        -3.42605        -2.48639
LJ           4.96045        -2.17838        -4.06799
LJ           3.38422         3.93501        -2.68252
LJ          -4.17342        -1.90691        -4.25415
LJ           1.23267        0.141728        -4.88105
LJ         0.0819263         6.30983          5.5158
LJ           1.39831         3.27843         2.64651
LJ           1.70683        -1.09458       -0.924719
LJ           2.05472        -3.27827        -2.22332
LJ           1.95507          4.9931         4.85832
LJ           2.96762        -3.03664       -0.701174
LJ           3.69134          2.9229        -5.62953
LJ        -0.0786501       0.0459345        -3.71136
LJ          0.871774         1.93461         2.89862
LJ           5.35767         4.53259         1.41309
LJ          0.878482        -2.34562        -5.84487
LJ           6.23155        -5.48879         2.26598
LJ           4.42273        -1.27714        -4.59176
LJ          0.543813        -3.57629         1.07608
LJ             2.477         3.89886        -3.87371
LJ           4.54035        -5.70436         2.04189
LJ          0.235371        -3.29175         5.14164
LJ           5.58354       -0.970385       -0.584185
LJ          -3.92567        -3.64926         4.24919
LJ           -4.1083        -5.14428        -3.34469
LJ          -2.80264         -0.3452       -0.969927
LJ            1.1446        -3.57837        -5.48456
LJ          -4.59626        -6.05496         2.49522
LJ          -2.64791        0.544984       -0.472684
LJ           3.77826        -6.27479         4.82119
LJ          -3.26144         3.46858         2.97953
LJ          -3.38644         2.12495        0.742628
LJ          -0.22172         3.42441         6.22882
LJ          -5.89728        -6.31597         4.77626
LJ          -2.34215         1.10933        -3.61539
LJ          -6.10605        -3.00041         5.17394
LJ           5.95587          6.3193        -6.04548
LJ          -2.66624         5.93356         2.98112
LJ          -2.72707         2.84851       -0.456884
LJ           5.97813         5.99822         1.62305
LJ           5.96715         3.94021         2.29421
LJ          -6.27329       -0.798632         2.52814
LJ           3.20069         2.71192         3.38768
LJ          -2.00079        -5.23688         4.53137
LJ          -5.60031       -0.781488        -3.92288
LJ           1.35195         3.16778        0.250193
LJ          -5.65117        -4.64024        -2.58347
LJ          -5.53198        -2.19966        0.570991
LJ           3.08443         5.51688         -2.7624
LJ           2.16394        -2.14419         4.53376
LJ           5.97354        -1.78357        -3.44189
LJ          -5.04832         5.68894        -2.56257
LJ          -4.13152       0.0587911         3.19863
LJ          -5.99522         2.30417         5.80829
LJ            -4.018          -2.603        -5.76555
LJ          -4.46319         1.79727        -3.81175
LJ          -5.87321        -4.36395         5.64451
LJ         -0.292111         -4.5413         3.02481
LJ           5.63495        -4.45637         5.99543
