108
#Comment!
LJ          0.546229        -4.54932          4.9658
LJ            2.3995        -5.25615         4.39426
LJ           1.76241        -6.46088         4.68369
LJ           4.38076         4.76976         1.62942
LJ          0.903904      0.00558503        -1.36571
LJ           5.02304         1.13536        -3.51484
LJ          -3.34537         1.57541        -5.34045
LJ          -5.77019        -4.82632         0.15624
LJ          -3.90137        -4.14533         5.21389
LJ         -0.735888         5.69795          2.4517
LJ           4.03742         4.06472        -2.00729
LJ          -1.62085       -0.298215        -4.30182
LJ          -5.32033         4.74452         -2.6044
LJ             -4.54       -0.404644         3.92077
LJ           3.76945        -3.53879        -2.78844
LJ          -2.87173        -1.23738        -1.69979
LJ          -2.58153       -0.134756         6.24831
LJ          -5.17239        -6.22319        -6.42002
LJ            6.3858         3.85309        -6.07237
LJ          -2.23621         5.90583        -6.14796
LJ          -5.91578        -4.20612        -2.18877
LJ           2.34278        -1.75022          6.2822
LJ            -3.981         4.16192       -0.733876
LJ          -5.83807        -4.64253         4.43148
LJ           6.12867        -5.10656        -3.93042
LJ          -1.06093        -6.34989         2.95323
LJ          -5.34853        -4.87109         3.40018
LJ           4.71946         4.26206         3.96606
LJ          -4.36352          3.2516        -1.39055
LJ          -2.35333       -0.950775         3.37686
LJ           5.59087         4.75856       -0.474017
LJ          -2.11161         1.86796         3.31377
LJ           3.79625       -0.282967        -1.82489
LJ           2.79395         3.19939        -3.19576
LJ           1.93585         5.17843         -3.4256
LJ         -0.119313        -5.90084         1.02294
LJ           5.40685         5.16988        -5.98828
LJ          0.509324        -2.47833        -3.14354
LJ          -4.51057         3.93245        -6.45794
LJ           1.79631        -1.76147        -1.30642
LJ           5.81001        -5.50643       -0.408296
LJ          -1.36717         5.48584         3.75286
LJ          -4.28298          3.5558         5.26695
LJ           2.29681         3.57578           3.526
LJ          -2.12729        -2.10601         2.09607
LJ           5.91177         2.27967        -4.67048
LJ           2.40369       -0.487403        -3.90702
LJ           -5.5042       -0.792825         3.40675
LJ           4.73104        -6.13295         -1.5691
LJ         -0.614681        -3.17441         2.16965
LJ          -6.28211        -2.84119        -3.63522
LJ          -2.96521          4.6599         3.54784
LJ           2.89408        -2.58479        -6.15241
LJ          -2.19803         3.08824         5.53996
LJ          -6.17421         -6.1925         5.96159
LJ          -1.23917         5.62203         5.66377
LJ           6.11217        -5.07858         1.04219
LJ           2.15813       -0.484481        -5.49315
LJ            0.5271         3.33989        -2.39525
LJ            1.2011        -6.06264         -4.9596
LJ          -4.05334        -1.72913        -1.65584
LJ            2.5447        -3.40306        -5.46142
LJ          -3.84588        -0.51062        -2.26463
LJ          -6.30365        -2.82034          1.4096
LJ          -4.49753        -4.99546         4.15812
LJ           1.08784         2.47301         1.39229
LJ           3.38706         2.26592         3.88526
LJ         0.0651313         4.27394         1.01464
LJ           4.60225         2.05958         6.16462
LJ           2.45652         1.60449         2.07898
LJ           3.32847        0.885376         5.99207
LJ           3.78704         4.56961         6.01939
LJ           1.53195         2.18729        -2.99437
LJ          -1.42654        -5.59817        -5.74374
LJ           1.04513        -4.21892         2.27188
LJ           1.09339        -4.93529        -5.38974
LJ           2.17001         2.30947         4.96816
LJ           2.61908         6.44968         2.68483
LJ          -6.36259       -0.344095        -2.31071
LJ          -5.04639          4.4781        -4.21255
LJ           4.34241          -1.225       -0.435331
LJ          -4.65609         1.35486         3.96249
LJ         -0.034396         2.86427         1.87362
LJ          -5.99348        -1.40909        -2.48409
LJ          -4.58123         2.98538        0.465237
LJ          -1.66527        0.760293        -3.30684
LJ           6.37318        -5.97192         4.33792
LJ           3.00385        -4.28359        -4.12827
LJ           4.04589        -4.14074        0.852313
LJ          0.425361       -0.849268       -0.168843
LJ            0.5901         5.79668        -1.60472
LJ         -0.883981        -5.59304        -2.29069
LJ          -5.24547         -6.3697       0.0307214
LJ           4.63917         2.02202         3.30863
LJ           3.15732         1.72683         3.00107
LJ          -5.63471         3.05498        -1.97746
LJ          -6.24885         1.38458        -2.14344
LJ           4.71239          6.2893         2.08555
LJ          -6.02845        -1.65874         4.14053
LJ          -6.26459         3.14948         2.50897
LJ           1.70266        -2.94819       -0.106106
LJ            4.2522         2.13813         4.42498
LJ         -0.455653        -2.78804         3.51939
LJ          -3.38159        -1.57465         -2.8737
LJ           2.73499         5.99781        -6.42982
LJ          -5.51146         1.98367        -2.77923
LJ           2.52857        0.450657        -6.00243
LJ          -1.77993         -3.3966        -4.65807
