108
#Comment!
LJ          -2.89612        -1.86294         1.48503
LJ          -2.34714         2.92977        -4.60395
LJ           5.51906        -4.90907          5.0512
LJ           6.38441        -1.09876        0.411502
LJ          -6.28259        -6.11098       -0.819841
LJ          -5.74931          -4.471        -1.06243
LJ           1.36046        -1.21691        0.287646
LJ          -5.33268        -2.96605        -2.01499
LJ         -0.569016         4.41144         4.32729
LJ           2.32366          3.2859         2.08381
LJ          -3.59126       -0.888014       -0.785148
LJ           -5.3697        -2.44554         5.36856
LJ          -1.60014         3.09384         1.25823
LJ          -5.23723         2.53097        -4.44109
LJ          -1.66528         -2.7865        -6.27695
LJ          -2.05562        -4.54286        -5.58987
LJ          -2.79391        -1.04558         2.09231
LJ          -2.82414         3.78604        0.621546
LJ           -2.1571        0.856599         6.09325
LJ           5.30454        -1.37104         1.24764
LJ           4.51862        -2.69431         1.04444
LJ          -2.21872        -4.38291        -4.23995
LJ          -0.98963         2.13209         2.03605
LJ          -5.60602        -3.64149         6.31422
LJ           5.85881         2.63053         2.71141
LJ            1.2107         5.78247         2.01444
LJ          -1.95979          1.7948        -6.34054
LJ          -5.64584         4.78709         2.99488
LJ          -4.15063        0.665857         1.57825
LJ           4.71758         4.01057         -1.9056
LJ          -3.99991        -2.52676         4.88663
LJ          -4.46595         2.14796         4.39608
LJ           4.52248         -4.3954         1.10138
LJ          -4.46402        0.929507         3.59971
LJ          -2.00105         6.00542         -1.2326
LJ          -4.93763          5.3464      -0.0840297
LJ          -1.21212        -2.73313        0.176329
LJ          -2.45469         3.05255         3.00867
LJ          -3.73932         4.42522         0.80057
LJ           2.42837         4.28655         4.66137
LJ           2.07211         5.38388        -5.31051
LJ           0.53687        0.172769         2.30496
LJ           5.08245        -5.33266        -5.60253
LJ          -6.44748        -2.86493        -3.24006
LJ          -2.48989         4.36469         -1.5636
LJ          0.835509        -5.46144        -5.41621
LJ           2.79755        -1.93168       -0.235215
LJ           2.69754         6.09624        -4.67888
LJ            3.3314         3.37378       -0.520639
LJ          -1.97305       -0.398136        -1.22511
LJ           5.86671       -0.855928        -3.35497
LJ           3.39636          2.2745        -3.56144
LJ          -5.81169        -2.22148        -4.76132
LJ          0.788246        0.540171         6.30775
LJ           1.08096         6.17492        -5.30915
LJ           3.87537         2.42961        0.904331
LJ           2.69309       -0.904293        0.683071
LJ           3.22746        -2.34336        -4.45704
LJ           2.80331         5.52474         5.18755
LJ           3.61008        -2.84395        0.145634
LJ           2.36689         2.05067        -5.21743
LJ         -0.152218         1.76573        0.169042
LJ            1.0148          3.3267          1.8272
LJ           5.88292         4.32947         1.95949
LJ           2.47527        -3.08325        -5.01238
LJ           4.59811         5.97307         2.57703
LJ           3.91678         -3.8759        -4.82727
LJ           1.12963        -5.35491        0.273737
LJ           3.77001         4.12317        -4.27782
LJ           5.72004         6.43372        0.900729
LJ          0.106871        -1.86011          3.5665
LJ           5.16958        -2.16385        -2.24441
LJ          -4.62407        -3.18293         4.32661
LJ          -3.12042         5.60806        -2.03462
LJ          -3.12095        -2.21296        0.346451
LJ         -0.114102         -5.3093        -5.99964
LJ          -1.64614         4.81793         1.19512
LJ          -3.25949         1.26395        -2.22365
LJ        -0.0085654        -5.84868         4.93324
LJ          -4.43729         4.90744         2.45021
LJ          -3.22372         2.21612         0.57981
LJ           1.31737         4.46569         5.36614
LJ          -5.90563         5.50198         3.95375
LJ          -4.31391         1.82313        -4.62279
LJ          -5.63062        -3.10781         3.88184
LJ           5.66071        -5.04994        -4.48425
LJ          -1.40807         5.64429         2.28841
LJ          -3.71611         3.25515        0.269143
LJ           5.90621         5.39225          1.0469
LJ           5.43889          4.8574         2.95061
LJ           6.09324        -2.51649         2.50825
LJ           1.50535         3.91327         3.54173
LJ          -1.20299        -3.61152         5.72903
LJ          -6.01144         1.06691        -2.89515
LJ          -2.69637         2.26771        -1.06932
LJ           5.88052        -5.04686       -0.351163
LJ          -3.91811        -3.12483         2.60876
LJ           5.05117         5.85127        -4.11882
LJ           1.93462       -0.493161         5.64862
LJ           5.60569        -0.12633          -1.994
LJ           5.93635         5.19587        -1.46928
LJ          -1.99638        0.963288         3.09242
LJ           -5.9751       -0.295493        -6.19852
LJ          -2.75688        -3.42437         5.80989
LJ          -5.88376          1.7903         -3.7635
LJ          -4.48917         -4.5267         5.94044
LJ           1.05041        -3.04284         3.69243
LJ           5.34838        -3.81964        -6.25498
