108
#Comment!
LJ          -4.38697        -1.09969         5.85949
LJ          -1.90976         4.24976        -6.31523
LJ          -5.40771        -6.29888         5.43257
LJ            1.4871        -5.80761        -2.87209
LJ           1.56778         2.63105         4.62434
LJ          -4.60978        -3.99069         3.37816
LJ            5.8652        -4.19986        -1.88461
LJ           1.77719        -1.75974        -2.87725
LJ          -2.69682         3.95143         4.76112
LJ          -2.26473         -4.1681        -1.02186
LJ           2.32116       -0.506846         3.58786
LJ          0.147302         4.61829         -5.3256
LJ            2.2332        -5.62023         5.58167
LJ         -0.983626         2.77508         6.30563
LJ          -4.50022         6.38596       -0.130222
LJ          -6.18427        -5.32726        -1.04308
LJ          -1.78316        0.577342        -3.37545
LJ           2.94792        -6.22453         3.38007
LJ         -0.472774         3.50848        -4.95596
LJ           3.68136        -1.80998        -3.01392
LJ           4.22404        -2.69644        -4.21904
LJ          0.194805          5.1476        -3.01779
LJ           5.10456         6.36791        -0.36704
LJ          -3.00266        -2.40943        -1.17055
LJ           5.70958         3.98142        -3.99551
LJ           2.90872         5.88252         4.89925
LJ           5.95757        -1.19538        -5.96239
LJ           6.22906         4.32145        -6.12781
LJ          -2.27839       -0.301689        -2.16013
LJ           5.52821         4.19221         3.52914
LJ          -4.41214         4.69894        -6.38099
LJ          -5.57209         1.59748        -4.95732
LJ           1.50784         3.22949         0.76943
LJ          -1.53586        0.285484         -4.8628
LJ           1.38204         3.29289        -6.18442
LJ          0.921604         6.17897         -1.2519
LJ          -4.20174         1.91595        0.479617
LJ          -4.01507         4.90226         -1.6371
LJ          -3.51297        0.712221       -0.585672
LJ           -5.7961        -1.87834         1.03598
LJ           1.29547        -4.57732         2.12205
LJ          0.975788       -0.942088        -6.24619
LJ          -5.26846         3.84237        -2.67205
LJ          -1.45906         6.37194         1.19935
LJ          -4.77401        -2.93635        -2.60051
LJ          0.745035       -0.580556        0.944795
LJ           2.64925        -2.92879         -5.1042
LJ           1.67731        -4.58611        0.670926
LJ           1.97407        -4.91403        -1.98726
LJ          -5.26022         1.80576         5.90791
LJ           5.24094        -3.79843         1.32897
LJ            5.1049        0.259929        -6.31559
LJ          -1.48609       -0.677135         2.12655
LJ         0.0423092         2.72391       -0.730373
LJ           1.21594        -2.56965       -0.945493
LJ           0.99303        -5.80929          2.9845
LJ            2.2578        -3.99159        -5.33733
LJ           5.15723        0.712558        -1.88973
LJ         -0.598833        -2.88166        -3.20825
LJ          0.422679       -0.848562       -0.743752
LJ          -5.10907         6.17713        -3.05918
LJ          -6.24942         4.86151        -3.01465
LJ         -0.211985         5.36896        -1.20331
LJ          -5.12959         -2.7186        0.251207
LJ          -3.32843        -1.63614         4.21841
LJ           1.24636         1.41535        -3.12706
LJ        -0.0903936        -1.64562          -2.971
LJ           2.53344         -4.5217         -3.0912
LJ          -1.59287         4.63941        -3.23743
LJ          -1.31547         5.51095        -1.46327
LJ         -0.939671         2.62151        0.348727
LJ           4.32662        -6.21049        0.536578
LJ          -5.05704        -5.66811         1.78659
LJ          -5.29851        -2.80738        -5.66424
LJ           -5.2844         1.04168         3.07482
LJ          -6.03214         3.53442        0.532445
LJ           3.35009         2.00884         6.31057
LJ          -1.08201        -2.43864         5.56601
LJ           -5.7255        0.555029         5.01172
LJ           2.49317        -3.79136         2.69211
LJ          -2.40251         3.78885        0.417445
LJ           5.62253        -5.66772        0.223217
LJ           5.16329        -6.23201         2.78532
LJ           3.28374         4.30229        -6.40689
LJ           5.39046        -3.59079         3.26878
LJ           5.74915         1.43609        0.411123
LJ          -4.14412         1.26227          4.1345
LJ           4.53868         1.83594        0.627137
LJ            -6.401         2.34127        0.676705
LJ          -3.98857          5.7805         5.04721
LJ           3.57841        -4.78142         4.16032
LJ          0.417396         -2.3971        -3.37355
LJ           4.28786         -3.8566         1.71394
LJ             4.999         1.84392         1.91455
LJ           -3.1582          4.8973         1.35189
LJ           3.61721        -3.71833        0.320484
LJ            4.2732         3.60907        -1.03356
LJ          -4.34975         -6.1321         3.82959
LJ           -1.4302         3.64148         6.00803
LJ            1.3719         1.98524      -0.0593479
LJ           -1.9506         2.67481         2.04606
LJ          -2.23554          3.5528         1.57634
LJ           1.37951         3.28341        -3.66489
LJ          -1.98523        0.913277         -5.8806
LJ           3.84054         6.37892         4.20581
LJ           6.14559      -0.0912682         2.80154
LJ          -1.98245          1.0939         3.07405
LJ             5.792         -2.3819         5.96742
