108
#Comment!
LJ           -4.9925         2.54015         3.40108
LJ           2.30854         -2.2314         4.29441
LJ           -4.2767          2.0533      -0.0942517
LJ           5.18777       -0.864373        0.242787
LJ         -0.608461        -5.60225         4.53881
LJ           5.49401        -3.28677        -5.58905
LJ          -2.12725         -5.2815         5.45504
LJ         -0.482846         3.25343        -5.62034
LJ          -3.91138        0.621729         3.74061
LJ           3.13129        -2.94535       -0.689509
LJ          -5.78023        0.887938       -0.258495
LJ          -2.41726         4.19147       -0.669261
LJ          -2.10243        -3.93398         6.16834
LJ          -5.39006         -5.5907         5.08967
LJ          -4.01963         4.94819         3.72437
LJ           1.18999         5.08835       -0.776648
LJ          -5.68554         -3.4512         2.98815
LJ           1.79909         2.59057         1.47015
LJ           2.52725        -1.13195         2.91562
LJ          -2.40218        -2.31039         6.35797
LJ           1.48642        -1.83511        -1.92189
LJ          -4.63349         2.57105        -6.32204
LJ           1.06459        -3.11188         6.27528
LJ          -2.13214         2.19357         4.81694
LJ          -4.38212        -3.42806         4.00623
LJ           1.80867        0.437018         3.73189
LJ          -4.06861        -5.31975         1.16075
LJ          -2.11627        -5.84855        -5.91123
LJ          -6.34438         1.87504        -2.46688
LJ           -1.7363        -2.78942        -1.14202
LJ          0.282077          3.9404        0.203664
LJ          -4.90634         2.92055       -0.655756
LJ           1.18136        -3.24265        -4.27332
LJ           3.34404        -2.15177        -3.22909
LJ           3.15275         -4.4362         2.67344
LJ          -3.26824         3.06413        -2.41813
LJ          -4.01987        -3.58915         1.32425
LJ          -4.52039        -5.01192        0.337739
LJ          -5.21225         6.16875         3.73628
LJ         -0.299671        -3.81524        -1.70742
LJ           1.87051        -6.28167         2.80602
LJ          0.680986         3.96121         2.17192
LJ          -6.45082        -4.05888         3.73635
LJ            4.0111         4.10405         1.38428
LJ           5.96043         5.16808        -3.40472
LJ           -1.5197        -1.53477        -1.44301
LJ           5.45477            -3.9         -1.4014
LJ          -2.11807        -1.60536         1.88411
LJ          -1.30975       -0.565203         -3.3897
LJ          -4.12595        -6.14136         3.87886
LJ           2.09803         2.89936        -1.91794
LJ           2.17097         -4.2805        0.399293
LJ          -1.11683        0.372409        -4.92761
LJ           -1.4928         6.14449         2.07634
LJ           5.79796        -3.26736        0.514416
LJ          0.865573         2.48279        0.975742
LJ          -1.46615         3.44843         -4.9141
LJ          -2.49327        -1.56362        -3.41095
LJ           5.18904        -1.37808        -4.11198
LJ           4.07684        -6.31378        -3.89132
LJ           1.37492        0.712459         1.87708
LJ         -0.205699         4.73135        -2.44653
LJ           4.07502         5.78536        -5.57641
LJ            5.4864         4.97687         5.82845
LJ           5.81122        -5.29565        -2.14721
LJ          -1.57731         3.70567         1.14723
LJ          -2.69192         2.87403        -3.77309
LJ         -0.634269         2.70175        -0.19221
LJ           4.17452        0.820507        0.876874
LJ           4.61489         2.45899        -2.17002
LJ           3.53188          3.2681        -1.98173
LJ           5.36538         -4.6505         6.23564
LJ          -1.88953         2.86929        0.573086
LJ          -6.25685         5.29297         6.09434
LJ           3.59905         5.56718        0.256317
LJ          -1.71977        -3.98533        -5.36042
LJ          -4.22241         5.91363        0.649328
LJ           1.56082        -4.29592       -0.764905
LJ         -0.912416        -4.01208        -4.12687
LJ           3.27223         1.21056        0.349663
LJ          -1.89977        -2.10445       -0.443716
LJ           5.54108        -5.69924         5.90499
LJ           6.23679        0.431846        -2.73795
LJ          -3.53886        0.467118        -5.91134
LJ          -3.60808        -1.52191        -4.40857
LJ          -4.40939        -3.44565        -3.08565
LJ           4.34548        -2.48074        -3.31021
LJ           2.51046         6.22948        -2.46916
LJ          0.489554         5.19805        -3.14353
LJ         -0.795685         4.53362         5.95947
LJ           5.00576         5.21613        -3.92099
LJ          0.291087        -1.25981         3.86268
LJ           2.47788        -3.50845         -1.0383
LJ           6.30825         2.14944          1.8012
LJ          -4.97486       0.0240858          3.5332
LJ         -0.193987         1.75728        -2.63783
LJ           4.49679         1.40604        -6.35627
LJ          0.314884         3.34484        -2.70083
LJ          -1.87899        -3.30993         1.47406
LJ          -4.76619         5.53347        -3.10037
LJ          -2.33389        0.783453        -5.23926
LJ          0.751424       -0.837922         5.07137
LJ          -4.76414        -5.91552        -2.79811
LJ           4.76302         4.94905        -1.67225
LJ          -1.04535        0.888718        -4.03678
LJ           1.31379         4.50087        -3.95279
LJ          -3.13954        -5.92574        -1.68588
LJ          -1.38444          2.1203        -6.08176
