108
#Comment!
LJ        -0.0756603        -2.42418         5.47709
LJ         -0.798363        -2.93611         4.56258
LJ           3.81526        -6.42998         5.46555
LJ           4.22423         3.95655         1.89952
LJ        -0.0280309        -1.32953        -3.72055
LJ          -6.11276         2.75102        -3.02308
LJ          -4.00845         2.39764        -3.55781
LJ          -5.53521        -6.14868        -0.99645
LJ          -2.09747        -4.99774         3.64777
LJ         -0.417723         4.39882         2.92349
LJ           2.17861         3.45378        -1.64086
LJ          -2.53349       -0.352865           5.317
LJ          -4.01829         4.74205        -2.39913
LJ          -3.35887         0.45236          5.9137
LJ           4.54181        -2.90222        -2.10876
LJ          -1.47534        0.766675        -2.43252
LJ          -2.34402        0.777234         5.91978
LJ          -5.49366         5.65757        -6.17079
LJ           6.32009         2.86508         5.60601
LJ          -2.18921        -3.58422        -5.23179
LJ           5.23056        -6.36555        -1.06732
LJ           4.63402        -1.04318        -4.49766
LJ          -4.90801         5.31459        -1.71252
LJ          -6.33105        -4.32514         3.21745
LJ           5.58738         6.37332        -2.87826
LJ          -0.14575        -6.00509         3.42417
LJ           5.50638        -5.25463         2.05665
LJ          -5.93204         5.24881         2.55455
LJ          -3.00013         5.40138        -3.72215
LJ          -4.24804       -0.718099         3.96577
LJ           4.94884         2.87294       -0.667028
LJ          -1.89167         1.79922         3.62652
LJ           4.23937        0.679501        -1.12506
LJ           1.94414         3.01048        -3.64353
LJ           2.41394         4.85743        -3.40556
LJ         -0.814181        -4.30151       -0.626133
LJ           2.49477         5.14093        -4.48261
LJ           1.94069        -3.94247        -1.95663
LJ          -4.31006         3.34206        -4.97268
LJ           2.36312        0.737883        -1.01004
LJ           6.21989        -5.26539        0.109127
LJ          0.371483         4.17656         4.76498
LJ         -0.605828         3.54395         5.75591
LJ           3.53531         2.27418         4.40464
LJ           -1.4622        -1.92541         2.63574
LJ           4.88081         1.62963           6.249
LJ           4.27403        0.510061        -5.45536
LJ          -3.36633        0.369027         2.67273
LJ          -6.13276         4.92431        -1.09778
LJ           1.00627        -5.01402         1.68915
LJ           6.02509        -3.93967        -5.54497
LJ          -1.78069         4.85569         3.05042
LJ           1.58389        -2.30935        -4.31136
LJ          -2.16387         2.08324        -5.12001
LJ          -6.00616         6.19666         -5.2452
LJ           -3.8651         4.67131         5.54619
LJ           6.10091         5.08341         1.13128
LJ           1.63775        -2.63471        -6.27831
LJ          0.626586         3.64645        -4.86498
LJ          0.708561        -5.66132         -4.8343
LJ          -5.70589       -0.947387        -4.14151
LJ           1.20176        -3.45088         -2.8502
LJ          -3.67964        -0.59806         -2.1704
LJ           5.67228       -0.510603         2.30308
LJ             5.651        -5.86273         2.92969
LJ           3.87309         3.66229        0.100842
LJ           3.21608         2.03644         5.45503
LJ          -1.26239         3.19663        0.247896
LJ           3.18329         1.06869        -5.37755
LJ           3.51373         2.24933         3.31199
LJ           2.54262        0.806936         5.44397
LJ           3.38519         4.26455         3.16748
LJ           0.91365          1.6081        -2.99518
LJ         -0.703769         6.15075        -3.86147
LJ          -1.59314         3.99894         1.00716
LJ           1.10141        -4.33632        -3.51124
LJ           2.55223         2.80769         3.82839
LJ           2.58647        -4.88667         3.78503
LJ           6.20954       0.0605175        -4.56304
LJ           6.12169         2.68573        -3.92539
LJ           1.86993       -0.211503        -2.69713
LJ          -5.21048         1.75965         4.88875
LJ            1.2887         4.47938         4.13713
LJ          -5.99353        -3.23621       -0.905098
LJ          -3.85398         1.70523        0.305572
LJ         -0.545021       -0.347971        -3.48103
LJ            6.3957        -4.14117         4.70499
LJ           2.67418        -2.33573        -4.19339
LJ           5.98461        -4.60365         1.11919
LJ          -1.23614         1.01034        0.106154
LJ           1.47172         6.38009       -0.858395
LJ         -0.514672         6.42559       -0.683711
LJ          -3.97995        -6.33809         -1.6411
LJ          -5.67691         2.14719         3.92117
LJ            4.5866         1.18862         2.14914
LJ           5.89869         4.35685       0.0110757
LJ          -6.42352         0.17228         -2.0658
LJ           3.88156        -5.83329        0.781167
LJ           4.26631        -1.30504         4.51931
LJ          -5.08869         3.66113        0.283884
LJ           3.04547        -2.37312        -1.04448
LJ           4.93917          4.6154         3.89729
LJ          -2.17626        -3.24593         2.75764
LJ          -3.32708        -1.91898        -2.67523
LJ           1.86431         5.22713         5.82182
LJ          -6.18753         4.06501       -0.676609
LJ           1.31734       -0.420307        -6.26253
LJ          -1.17327        -4.33112        -4.18987
