108
#Comment!
LJ          -2.43648        -2.26464         -6.4247
LJ          -2.99738         5.99355        -5.15374
LJ          -4.36898         3.86178        -3.93181
LJ           5.71077        0.693856      -0.0620721
LJ          0.731704        -3.31613         4.33737
LJ          -4.65428        -2.03928        -3.08547
LJ          -3.90802         5.67786         4.13014
LJ          -1.06071        -2.90113        -5.57423
LJ           6.33064         4.09599        -1.19576
LJ          -3.46198       0.0842313          4.5707
LJ          -4.49568         1.61826       -0.768426
LJ          -1.37501         3.34462         5.81623
LJ           5.18089        -4.91135        -4.24181
LJ          -5.80521         4.19204        0.337273
LJ           3.76927        -6.25202        -5.98193
LJ           2.27071         3.43941        -1.18414
LJ          -3.62227        -1.08474        -4.24398
LJ          -2.17309         3.21115       -0.174892
LJ           2.38426       -0.581575         3.69249
LJ          -2.38371        -5.48727         -5.3569
LJ          -5.25789         -3.4099         2.99611
LJ           -1.1067         5.94293         1.31159
LJ         -0.471394        -6.42507         5.47132
LJ         -0.731533         3.13929         -2.6324
LJ          -5.29134        -5.99654         2.19485
LJ            3.0836        -3.91202         1.58227
LJ          -5.43664         4.01419        -2.23735
LJ           6.44666         1.56614          6.3123
LJ           4.29143         -2.3733       -0.688912
LJ          -4.65148         5.79139        0.103907
LJ          -5.88818        -2.74988         6.19197
LJ          -1.83506         1.52664        -2.83766
LJ          -2.91184       -0.290189         5.89835
LJ           3.02322        -2.79587         1.40316
LJ          -5.35769          3.9867         1.41679
LJ          -1.83219          1.7306         4.18433
LJ          -6.05728       -0.294863         6.09624
LJ           5.84233        -1.01631        0.156805
LJ          -3.71402        -5.60711        -5.29323
LJ           3.91038        -1.04191        -3.19068
LJ         -0.898715         -5.4235         3.25542
LJ          -4.79069        -1.95961         3.19675
LJ           4.00307         4.49768        -1.42606
LJ          0.402253        -5.41446         3.14374
LJ           1.70474        -3.89712        -5.37918
LJ          0.679145        -1.50469          1.3717
LJ           3.90352        -3.06682         1.79357
LJ           6.19999        -5.46004         1.52162
LJ          -1.65507        -3.13734         -1.0204
LJ          -5.32364        -1.06201        -6.44758
LJ           4.50095        -1.14073        0.968971
LJ          0.488924         2.30006         2.86287
LJ           2.07734         3.80787         2.89375
LJ         -0.858166        -4.48717          1.2461
LJ          -1.69837         3.60326        -2.30708
LJ           3.09241        -1.55009       -0.828323
LJ          -4.57465        -6.03795         5.29187
LJ         -0.874217         4.55434          6.3004
LJ          -3.92608         -3.4069         5.97533
LJ          -0.10546        -5.57384        -5.58277
LJ            3.7294        -0.10113         3.83477
LJ          -2.96834        -1.89019        -3.51045
LJ         -0.591986        -3.03636         2.09518
LJ           1.02546        -6.46201        -5.42194
LJ           4.12334        -5.57213         -3.4637
LJ           5.29557         2.68742        -3.13295
LJ          -1.79166        0.316649         -5.5392
LJ           6.08309       -0.601236        -1.95774
LJ           2.46686         4.59577         5.66096
LJ          -5.80407         5.10619        -2.75051
LJ          -4.83134         2.01712        -3.86831
LJ         -0.597583        -1.35633        -2.75889
LJ           -2.8009        0.899116        -2.94983
LJ            2.4186         5.48532         2.38732
LJ          -3.21015         -5.7365        0.486047
LJ          -2.01344       -0.546989         3.69103
LJ          -5.19034        -0.13451         2.44344
LJ           1.42243         3.02448        -2.89892
LJ           1.55821         3.95691         5.27721
LJ           2.84512        -1.09798        0.189275
LJ           3.84765        0.566044         4.65335
LJ           3.58664        -3.91183        -4.47059
LJ          -4.26751         -5.0819         4.69169
LJ          -5.47745         4.29181         -5.7314
LJ           3.34151         3.36463        -4.31286
LJ           6.01946         2.24915        -3.93741
LJ         -0.188315         1.02399         4.38177
LJ          -4.00508         1.52254          1.7509
LJ          -1.99899        -6.17987        -3.96689
LJ         -0.344586         2.37963          3.6411
LJ         -0.296355         4.82221        -2.75665
LJ           1.23548        -3.53849         1.84866
LJ          -1.54815          1.0548         2.90207
LJ           3.41952        -1.49811         3.62921
LJ           6.12632        0.832491         1.32656
LJ           1.12974        -3.28597        -4.39597
LJ             5.281        -1.19641         4.51052
LJ         -0.308343       -0.896313        -5.65017
LJ          -1.56111         3.85332         2.72564
LJ          -1.85329         3.03201        -6.00752
LJ           1.40001        0.259716        -3.94079
LJ           1.51492        -3.27225        -2.45049
LJ         0.0662038        -3.72707        -2.02873
LJ         -0.823347        -4.25543        -1.65816
LJ          -1.95477         2.30737          5.6693
LJ          -4.98014        -4.66238         5.86614
LJ           3.84439         3.74326         2.44785
LJ          -0.26403         1.06914         5.60188
