108
#Comment!
LJ          -3.94265          2.8523        -3.97868
LJ            1.4634        0.510615         0.23329
LJ          -5.16439        -4.45301         3.71754
LJ           1.85544      -0.0142765       -0.703984
LJ           -4.1369         3.81016         0.30317
LJ          -1.59438        -3.60318        -1.28217
LJ           3.38796        -5.08155        -2.77336
LJ           -5.6236         1.53679         3.56858
LJ          0.634577        -3.58449         4.76234
LJ           1.77626        -4.21295         -4.8717
LJ          -2.54372          2.2279        -2.41538
LJ           1.86373         2.45064      -0.0792486
LJ           -1.5048         3.77326         1.19572
LJ          -3.06054        -2.97143        -4.02566
LJ           1.03447        -2.07214         5.21027
LJ          -2.11899         0.97357         5.44304
LJ          -4.75801      -0.0645014        -3.75689
LJ          -1.74407         3.15778        -2.27544
LJ          -5.43219         -2.2579         3.41865
LJ          -5.41783        0.734261        0.792595
LJ            4.5968        -4.14541         5.03198
LJ          0.799111        -5.30523        -3.31745
LJ          0.187038        -4.85942        -1.70374
LJ           3.66122       -0.637056        -4.38194
LJ          -5.15186         3.12296        0.250953
LJ          -1.05209        0.325005         4.12008
LJ          -4.09643        -0.43924        -5.91786
LJ          -2.34191        -3.22583         5.07893
LJ          -5.48206         2.33277        0.987319
LJ          -0.95197       -0.663425        -3.50561
LJ           0.58539        -0.70279         -3.7804
LJ          -4.68423       -0.301448         3.22971
LJ          -1.96322         1.72996        -1.03422
LJ          -4.95317         1.94193        -3.30565
LJ           1.00359        -4.85322         4.89156
LJ         -0.308431        -1.72734         6.40483
LJ         -0.137181        -0.39649        0.184144
LJ         -0.527824        0.581472         5.24219
LJ        -0.0383583         3.30632     -0.00155108
LJ           3.75391         -4.5607        -3.68835
LJ           4.32554          3.5221         1.77406
LJ          -4.69383        -3.41383         2.76093
LJ           3.63748        -1.91954       -0.726543
LJ           5.16326         2.00981         1.21065
LJ          -2.61555         4.89691        -6.25915
LJ          -4.42068         4.80259        0.143116
LJ           2.51655        -1.58464         6.05772
LJ            2.6271          1.3753         4.84599
LJ          -5.10856         3.55614        -3.69627
LJ         -0.293229         1.90256         5.53358
LJ           4.50475        -3.12038         6.40419
LJ          0.791923         -2.9986         1.14878
LJ          -4.56543        -2.66565       -0.951832
LJ           3.33982       -0.978376        -1.80262
LJ           -3.9201         -4.6897        0.391583
LJ          -5.30357         4.49389        -2.80863
LJ         -0.274075         -2.4793        -3.57022
LJ         -0.265575        -4.86891         4.72707
LJ          -1.41403       -0.341338         2.21168
LJ           0.25816         -2.9147        -1.97472
LJ          -5.99356         3.35032         3.53357
LJ            -1.903         1.40307         6.43403
LJ           3.74277        -0.78748        -6.27475
LJ           5.99559         5.44126        0.663397
LJ          -1.43512        -3.63961        -3.77267
LJ          -2.33319        -2.51204         1.47279
LJ          -6.17795         5.57641         -2.7685
LJ          -2.09525       -0.702483         4.40928
LJ          -1.49143         5.86606         1.25826
LJ           1.08574         6.13771         6.26482
LJ         -0.912899         6.09275        -3.50105
LJ           6.29206         1.17617           3.658
LJ          -1.55643        -4.13853         1.73114
LJ          -2.82328        -1.49946         6.21402
LJ          -3.59255         1.52347        -2.43978
LJ          -1.69727        -1.75384        -5.17242
LJ           5.20639        0.160151          4.9351
LJ          -1.30372         1.76323         5.26734
LJ          0.696998        -2.22165        -5.91586
LJ           2.77423         4.48399         1.59666
LJ          -3.52265       -0.699219         1.11982
LJ          -3.71799         1.82347        -4.44186
LJ          -3.52007         -4.2025         6.04674
LJ           2.08643         1.50787       -0.401286
LJ          -6.04844         6.19331          5.7986
LJ          -4.69297         2.90079        -4.94397
LJ           6.42465        -5.70482         4.85138
LJ          -5.24617         4.67556        -5.01751
LJ           4.41714         6.28022         2.70524
LJ          -4.77801         4.35385         1.63554
LJ          -3.77174         -1.2735         6.39426
LJ          -5.91973        -1.07492         4.79358
LJ          -3.78027         2.12732       -0.595675
LJ           4.59786        -3.40105        -5.17676
LJ           5.31124          4.0946         5.73132
LJ           3.87217        -3.96547         5.97249
LJ           3.99039        0.672789         -5.4095
LJ          -1.95135         4.00841       0.0904272
LJ           2.90526         5.79049         1.50585
LJ           3.58865         6.08205        -6.20761
LJ           0.16857        -6.43917         -6.2747
LJ           6.28169          -4.336         5.76687
LJ           2.61058         4.15216         5.86618
LJ          -2.72929       0.0729286       -0.618164
LJ          -0.95607         1.65455        -4.48962
LJ          -6.37959        -4.37666         4.50826
LJ        -0.0205403         4.36736         2.42404
LJ          -1.41957         5.03032         2.71868
