108
#Comment!
LJ          -2.82453        -1.67972         1.29831
LJ          -2.40077          2.8502        -4.46638
LJ           5.36207        -4.92456         5.28394
LJ           6.40761       -0.887565        0.373439
LJ          -6.06921        -6.34946       -0.879776
LJ          -5.51215        -4.59276       -0.983114
LJ           1.36181        -1.41192        0.304825
LJ          -5.32408        -2.59972        -1.79339
LJ         -0.425073         4.52332         4.32664
LJ           2.19107         3.56625         2.14444
LJ          -3.77887       -0.787168       -0.854427
LJ          -5.64054        -3.00961         5.33195
LJ          -1.77719         3.00853        0.995479
LJ          -4.94963         2.45697        -4.36785
LJ          -1.77339         -2.6774        -6.08957
LJ          -2.08984        -4.34209        -5.47713
LJ          -2.74519        -1.01811          2.3147
LJ          -2.72494         3.81252        0.478045
LJ          -2.33943        0.683979          5.9443
LJ            5.4128        -1.17458         1.36809
LJ           4.26007        -2.80975        0.967754
LJ          -2.12081        -4.33766        -4.35599
LJ         -0.785585         2.36919         1.94169
LJ          -5.59763        -3.60791        -6.36191
LJ            5.9857         2.45854         2.59745
LJ           1.15263         6.02477         2.09405
LJ          -1.96887         1.70896         -6.2739
LJ          -5.53194         4.93727         3.08665
LJ          -4.26168        0.635639         1.72795
LJ           4.23733          4.0349        -1.93584
LJ          -3.84742        -2.58947         5.01424
LJ          -4.39131         2.14403         4.20943
LJ            4.8413        -4.26898        0.972745
LJ          -4.49198         1.07386         3.86753
LJ          -2.17444         6.21624        -1.46876
LJ          -4.88864         5.07275         0.06647
LJ          -1.02603        -2.74772        0.230622
LJ          -2.36754         2.96719         3.16182
LJ          -3.76654         4.22564        0.795847
LJ           2.05529         4.48179         4.94396
LJ           2.15323          5.2417        -5.65253
LJ          0.324875       0.0391739         2.32895
LJ           5.05749        -5.20134        -5.69428
LJ            6.3234        -3.24559        -3.09137
LJ          -2.40274               4        -1.35784
LJ          0.740396        -5.78725        -5.13914
LJ           2.86881        -1.96839       -0.419008
LJ           2.74709         5.96903        -4.79217
LJ           3.47868         3.18602       -0.179549
LJ          -1.87777       -0.881198        -1.43177
LJ           5.66359        -1.20044          -3.216
LJ           3.38131         2.51689         -3.4549
LJ           -5.5473        -2.16813        -4.67874
LJ          0.857225        0.478735        -6.33998
LJ          0.921916         6.24036         -5.6242
LJ           3.53957         2.70567        0.777622
LJ           2.62129       -0.893646        0.393287
LJ           3.03979        -2.47509        -4.07359
LJ           2.75059         5.57574         5.11992
LJ           3.64421        -2.77606        0.177331
LJ           2.58278         2.31081        -5.16448
LJ         -0.138539         1.49052       -0.450829
LJ          0.711585         3.07621         1.92016
LJ           5.79076          4.2962         1.82069
LJ           2.20082        -3.00912        -5.15765
LJ           4.86256         6.22333         2.59218
LJ           4.00284        -3.47027          -4.807
LJ           1.03986        -5.07624        0.402048
LJ           3.57911         3.96571        -4.31484
LJ            5.5011           -6.37         1.03516
LJ          0.170575        -2.18631         3.77766
LJ           5.28138        -1.89094        -2.25653
LJ          -4.60913        -3.22086          4.4101
LJ          -3.26054         5.94714        -2.23522
LJ           -3.0484        -1.91939        0.176606
LJ         0.0727006        -4.97303        -5.94265
LJ          -2.14409          5.1476         1.36092
LJ          -3.16109         1.14609        -1.95348
LJ          0.603014        -5.98579         4.91389
LJ          -4.25278         4.61959         2.55907
LJ          -3.01925         2.32325        0.650321
LJ           1.15184         4.30743         5.46596
LJ          -5.92791         5.71284         4.13462
LJ           -3.9557         1.63653        -4.47056
LJ          -5.53996        -3.08158         4.08652
LJ           5.60982        -5.29409        -4.88049
LJ          -1.57119          5.7079         2.44567
LJ          -3.54468         3.23106       0.0909256
LJ           5.94603         5.54143         1.09679
LJ           5.51203         4.70933         2.92112
LJ           6.19226        -2.25762          2.5293
LJ           1.82908         3.73669         3.22297
LJ          -1.82685        -3.75254         5.62276
LJ          -5.92399        0.854538        -3.13436
LJ          -2.28573         2.70074       -0.920041
LJ           6.05752        -4.98071       -0.701264
LJ          -4.17445        -2.98159         2.28214
LJ           4.74269         5.80215        -3.89907
LJ           1.97484       -0.757273         5.46888
LJ           5.66908       -0.337547        -2.18736
LJ            6.2472         5.26908        -1.62099
LJ          -2.33746        0.841216         3.11469
LJ          -5.98108        0.119582        -6.34389
LJ          -2.69616        -3.53712         5.78888
LJ          -5.67964         1.72155        -3.69833
LJ          -4.39203        -4.30966         5.85502
LJ          0.792323        -3.18395         3.62575
LJ           5.38882        -3.87564        -6.34473
