108
#Comment!
LJ            2.8865        0.505122         1.14419
LJ           2.36823        0.474698      -0.0687129
LJ          -2.98435       -0.427189        -1.44559
LJ          -6.37106        -4.43197       -0.859901
LJ          -1.81652        -5.40905         2.17473
LJ           4.40173        -2.91235        -1.83562
LJ          -3.48434       -0.697007        -4.08563
LJ          -5.79019        -5.19895        -2.26993
LJ           3.38907         2.13466        -5.15315
LJ             6.183         3.99553       -0.256152
LJ          -2.04787         1.32803         5.16357
LJ          -5.42546        -5.46694         4.20125
LJ           0.11044         3.71343         1.41889
LJ           4.23465        -3.24117         2.06333
LJ         -0.261539        -2.59561        -2.55914
LJ          -1.07652        -5.91236         3.55835
LJ          -4.66951        -2.84193        -4.45547
LJ          -2.52666         2.97714         2.30337
LJ           6.15608        0.270581        -1.51758
LJ          -1.75131        0.539333        -3.80527
LJ          -6.14233        -3.33288        -5.19922
LJ           4.85852         -6.0653        -3.44996
LJ           5.28076         2.92031        -4.72232
LJ          -4.39053         1.47237       -0.344244
LJ           2.21468        -5.40034        -3.21301
LJ          0.266232         3.19488         -1.6672
LJ          -4.79305         1.55582         3.62213
LJ          -2.41007         3.55247         5.83143
LJ          -4.66029        -6.39678         3.44147
LJ           2.94057         5.20469         1.50414
LJ           -3.5975         1.53059        -5.38873
LJ          -5.11375         3.49846         5.63129
LJ          -1.65307        -3.49303        -4.67532
LJ           4.62236        0.361374        0.778821
LJ           4.90124       -0.709145        -3.97898
LJ           5.96364         3.66062         4.33836
LJ           1.27429         3.86543        -1.83876
LJ         -0.232545         3.14813        -2.61334
LJ          -5.61296        -3.07529       -0.433251
LJ          -5.05858         3.53393        -1.98132
LJ           4.74243        0.543204         4.59914
LJ           3.91647         2.21369        0.541031
LJ          -3.42957       -0.257658        -5.72032
LJ           1.60685        -4.00309         6.43735
LJ           1.87813        0.426297         3.35728
LJ          -4.68754          2.4594        -3.75865
LJ           4.16713        -2.33432        -5.60003
LJ           4.89554         2.54756         1.11044
LJ          -3.32406         4.95569         4.17861
LJ          -3.33589         1.70912         5.61632
LJ           -4.4219     -0.00833374          -3.741
LJ          -1.00912          3.6137         0.26247
LJ           5.38549         1.56167        -5.20542
LJ          -3.99702         4.94607       -0.734051
LJ           5.97485        0.355772        -3.06583
LJ          0.802509        -2.27018         1.25341
LJ           2.15527         -5.7128       -0.883073
LJ           5.54865       0.0480116         1.09895
LJ           3.80289        -1.16706        -5.36635
LJ           4.73946         3.26821         1.66649
LJ          0.577505        -1.16392         1.78174
LJ          -2.77435         4.51959         -1.1098
LJ          -3.83351          4.1427        -3.92351
LJ           4.68513        -1.30639        -5.74178
LJ           3.81212         4.78429        -1.89426
LJ          -1.98495        -4.59102         6.16999
LJ         -0.344441         5.60491          1.2894
LJ         -0.108262         1.22876        -0.58054
LJ          -4.36701         5.79677          2.1156
LJ          -1.96693        -6.34682        -3.92829
LJ           0.11964         1.84512        -4.42453
LJ          0.784303        -5.42626       0.0165719
LJ          -5.72084        -6.11814        -4.26628
LJ           4.21601        -4.48347        -3.56658
LJ          -2.68482         3.53399         1.17753
LJ           -5.4396         1.22097        -1.20374
LJ         -0.758363       -0.867102         1.44721
LJ            2.6703        -4.49889        -1.23432
LJ          -2.57298        -4.00347         3.61744
LJ            5.7094         2.19521        -2.33503
LJ          -4.25259        -3.09751         4.74092
LJ          -4.90586        -5.27432         5.46001
LJ           1.48972        -2.35341         3.66169
LJ          0.352142        -0.83298         3.84572
LJ           2.71211         1.50666        -6.13626
LJ          -2.77655         1.62617        -2.81551
LJ           6.00617        -1.88855         2.96318
LJ          0.523403        -1.95363         3.66126
LJ           2.23083         6.14861       -0.420448
LJ           3.49739        -5.09061        0.941546
LJ          -5.33229        -4.32319        -3.22807
LJ          -3.26466        -2.15384        -1.85621
LJ          -4.01555         1.94382        -1.93529
LJ          -5.25943         1.17294         2.77524
LJ          -0.47504        0.348004        -4.56514
LJ           2.26397        0.812903        -4.16303
LJ           5.67177         4.01175         0.88884
LJ           1.38932         1.50435         3.93089
LJ         -0.375065        -1.22615       -0.138135
LJ           6.02423        -3.54079        -0.92253
LJ          -5.66723        -1.36607        -3.52359
LJ           1.52141        -4.68017        -4.28452
LJ           2.24168        -5.02548        -2.02844
LJ          -1.35181       -0.866711         2.62364
LJ          -4.55588         1.21684        -2.63862
LJ          -3.31349       0.0722131         1.95309
LJ           -6.3431         2.46406        -5.91829
LJ          -5.49969        0.199746        -3.38946
