108
#Comment!
LJ           1.23767        -5.30375         4.76885
LJ           6.24331         4.27076         4.52408
LJ         -0.674371         4.10207         4.36051
LJ           4.71497         6.44882         2.25175
LJ           1.39207        0.937436        0.703275
LJ           3.60441        -1.98147        -6.14217
LJ          -2.21015       -0.522801         5.82735
LJ          -4.50923        -3.99443        0.463232
LJ           6.42989        -3.85993        -6.40689
LJ         -0.725925         6.20836         1.49917
LJ           6.33467         4.75582        -2.68926
LJ          -1.19515         1.09023       0.0591643
LJ           -5.4553         5.58228        -4.40365
LJ          -5.57223       -0.498308         2.86333
LJ           2.85398        -3.70215        -1.82325
LJ          -1.54536        -1.30621        -3.51139
LJ          -2.88573        -1.38389        -5.95293
LJ           -6.4268        -5.30438         6.40147
LJ           6.42533         5.86161        -4.83965
LJ          -2.37484         1.18836         4.98632
LJ          -3.96021       -0.871961        -3.34902
LJ          -1.07488        -2.61198         3.19471
LJ          -2.03798         2.45057        0.184703
LJ          -4.30474        -3.84958         5.18178
LJ          -6.06129        -3.09307        -5.21048
LJ          -2.82739        -4.15464         2.69287
LJ          -2.07419        -4.44292         5.80586
LJ           1.68949         2.81791        -6.33091
LJ          -3.80624         2.33001        0.890442
LJ          0.488022       -0.907208          3.3973
LJ           5.09642        -4.77868         1.18137
LJ          -2.45051         2.01099         2.94852
LJ           2.99766         -2.2264        -2.47044
LJ             4.372         4.12702        -2.46725
LJ           2.59846        -6.29179         -3.2459
LJ          0.309302         4.16731         1.98853
LJ          -3.56448         4.42521         5.47187
LJ          -1.31692       -0.462032        -4.82112
LJ          -5.26995         5.27927         3.39942
LJ           1.20137        -5.14173        -1.44878
LJ           6.09202         -5.7323        -2.97394
LJ          -1.17729          6.3435         2.74367
LJ           3.85636         3.94424         4.96575
LJ          -2.39561         5.74421         2.85241
LJ          -2.11761        -2.11287         1.71443
LJ          -5.67571          2.9832        -1.86123
LJ         -0.279025        -1.42463         -2.2062
LJ           5.59572        -0.66234         3.29155
LJ           1.54859            -4.5        -2.48405
LJ          -3.12575        -1.94807         2.98166
LJ          -4.74461        -1.63891        -1.01826
LJ          -6.18431         4.21185          3.7202
LJ           5.18527        -3.04437         4.64719
LJ          -2.38179         4.66114          2.3424
LJ          -4.83745         6.16823         4.78138
LJ           2.06638        -5.89355         5.82122
LJ           3.87868         -4.0845         1.09599
LJ           3.01557         2.02808        -4.21448
LJ         -0.343953          1.3982        0.704652
LJ         -0.593914         4.77933         6.11763
LJ          -5.97381        -3.30359        0.241256
LJ           4.69624           -3.74         3.64394
LJ          -3.67495       -0.956069        -1.13712
LJ          -3.33187        -3.18999         2.75056
LJ           -2.0474        -3.31018         5.64403
LJ          0.154149        0.794417         2.94419
LJ          0.579455         3.74007          4.1594
LJ           1.56327         5.81475         2.67117
LJ           5.98123         1.53647        -4.30243
LJ           2.29811          1.7033          3.1141
LJ           5.74271         1.72939         6.16702
LJ           4.53438          5.1253         -3.2938
LJ           1.64837         2.76783        -2.64294
LJ          -1.66687        -5.87229         4.61208
LJ           4.30177         2.12355         3.91124
LJ          0.830533         4.55104         6.45918
LJ           2.32428         1.70112         5.28765
LJ           2.67677         4.32123         1.40727
LJ          -5.81044       -0.499389        0.935026
LJ          -2.97632        -6.11296        -4.01345
LJ           6.08039        -2.99209        0.836959
LJ           -3.8654        0.494308         2.69661
LJ          -3.56345         1.56711       -0.862455
LJ           6.17714        0.263783        -4.02202
LJ          -6.01127         5.44783         1.74771
LJ          -2.76618         1.01497        -3.18807
LJ           6.34811         5.11447         3.69263
LJ           5.29012        -3.52979        -5.12471
LJ          0.696134        -2.01391        0.990638
LJ           2.83485        -3.54285       -0.864058
LJ          0.400633         4.67452        -2.55608
LJ          -2.31856        -4.02173        -4.49696
LJ           6.37898        -5.93418         2.88057
LJ           6.14699        0.650754        0.784929
LJ          0.785481         2.19798         2.56351
LJ          -3.78682        0.802652        -3.81933
LJ           4.87343         1.13587        -1.88189
LJ           4.01225         4.00616         3.44936
LJ          -2.30307        -3.44665         4.60154
LJ            5.0499         2.50581         4.78836
LJ          0.259547        -3.12367        0.716737
LJ           3.59449        0.212943          1.1095
LJ           1.43714        -2.05133         3.92333
LJ          -2.62482        -1.70326        -2.36102
LJ           4.01855        -5.91413        -5.81205
LJ           5.79984        -1.97966          6.4189
LJ           3.83955         1.78075        -5.03565
LJ          -2.90045       -0.199218        -5.13044
