108
#Comment!
LJ           5.61293       0.0568727       -0.641463
LJ           3.79566       -0.642583         1.74795
LJ          -4.38744         2.16636        0.854279
LJ           6.18272        -3.41586       -0.715046
LJ         -0.798888        -5.77969         3.56648
LJ           4.32516         -3.0202         5.68976
LJ          -2.42638        -3.75074        -6.37294
LJ          -2.32776       -0.689205        -3.33807
LJ          -2.19528       -0.830129       -0.197661
LJ           5.61169        -1.36224        -1.38339
LJ          -5.09813        0.676891        -1.42032
LJ          -3.46143         5.12518          1.5008
LJ          -1.01412        -4.98204         4.98307
LJ          -5.92744        -4.73802        -4.92436
LJ           5.68715        -6.34474         1.69684
LJ         -0.420095         5.84482       -0.205161
LJ          -4.91766        -2.30371         5.23896
LJ           1.45061         3.54838         2.12111
LJ           2.75663        -0.67744         2.33335
LJ          -1.77447        -0.92762        -6.13985
LJ         -0.630158       -0.337419        -5.78379
LJ          -5.41071       -0.016816        -5.21129
LJ           2.44211        -1.76043        -5.50268
LJ          -1.05859        0.825026         3.98188
LJ          -2.16264        -3.14773         5.64294
LJ          0.755288         2.18958         6.28382
LJ          -3.20266        -6.12796        0.861872
LJ          -1.03703         4.88899         5.08619
LJ          -6.33602         4.22582        -2.03959
LJ          -3.76174        -4.06668       -0.886527
LJ          -1.83313         3.55797        -2.21903
LJ          -5.90686            1.62         1.51745
LJ         -0.481196        -3.65611        -2.94598
LJ           3.34957           -2.23        -2.89849
LJ          -1.08249         -4.0261         4.51318
LJ          -4.78074         4.18033        -4.38919
LJ          -2.94141        -5.40217         4.64517
LJ          -4.98838        -5.55529        -1.94589
LJ          -5.08423         6.23027         1.24673
LJ          -1.23977         6.42084        -1.01238
LJ           3.71369         6.17375         2.27515
LJ           3.04725         6.18267         1.20818
LJ          -5.75743        -2.45967         4.54797
LJ           4.30249        -4.22551       -0.634009
LJ           4.13517        -3.38773        -4.70883
LJ          -2.54512        0.528321        -1.47435
LJ           5.94825        -4.54365        -3.13349
LJ          0.174116       -0.492303         1.75475
LJ          -4.81869        -2.50725        -4.89029
LJ          -4.03458         5.28656         5.38911
LJ           1.68815         2.15971        -2.79829
LJ           4.06258        -1.44147        0.110639
LJ          -2.76673        0.337024        -4.99771
LJ          -2.13459         5.36817         1.49332
LJ            3.5771        -5.96119         1.14255
LJ          0.281478         3.26657         1.90746
LJ         -0.231172         4.45988         -2.3246
LJ          -2.21881        -1.80783        -1.86465
LJ            3.8631        -1.43324        -2.75277
LJ           5.99895        -6.13914        -4.09789
LJ           1.04049         1.46162         1.82487
LJ         -0.428191         5.19684        -1.17947
LJ           6.29281         4.15419        -3.34396
LJ          -4.51243         3.41328        -5.08457
LJ          -6.34289        -6.39801         -2.1251
LJ           2.03509         5.34159        -1.62029
LJ          -3.71168         3.49847        -4.40353
LJ          -1.15084         1.63423         2.34741
LJ           4.40678        0.407207        0.839754
LJ           2.47992       -0.810156        -2.64837
LJ           1.40804         3.69066        -1.91329
LJ           2.74319         6.12439         3.71356
LJ          -3.09362         4.03178         3.14964
LJ          -2.93925         6.38097        -5.05396
LJ           1.21295          4.8803         1.00965
LJ          -2.46152         -5.8602        -2.24196
LJ          -3.17984         3.26371      -0.0696092
LJ           1.65047        -3.06246        -1.59223
LJ          -1.86991        -3.39911         -1.9725
LJ           4.19879         1.09338       -0.732223
LJ          -3.73597        -2.30989        -2.76979
LJ          -6.28627        -6.36549          4.6006
LJ           5.04182         3.58477       -0.310281
LJ          -2.66997        -1.60475          -5.822
LJ          -1.04231        -2.10888        -4.78726
LJ            -2.563        -4.49935        -3.66525
LJ           5.32668        -1.35853        -5.90674
LJ           1.73119        -4.58336        -5.33953
LJ           1.42545         3.80337        -3.20941
LJ         -0.201452         5.10619         -4.5015
LJ          -5.60661         5.18799        -4.07946
LJ         -0.927939        -1.61154         2.13513
LJ          -1.64506       -0.999706        -2.23177
LJ          -5.39624         3.01268         1.52787
LJ          -3.53121        0.357381         4.91978
LJ        -0.0603481         2.55292        -3.13211
LJ           4.83927         2.27391        -4.09328
LJ           1.70949          2.7389        -4.67018
LJ          -1.26032         -3.9356         1.65301
LJ          -3.00209        -6.26372         -3.1701
LJ           -4.2858       0.0413577        -4.58407
LJ           1.35341          1.5181          5.4912
LJ          -2.08795         4.69456        -2.55304
LJ          -5.97206         2.86762       -0.754368
LJ           -1.8181          1.6491        -3.23511
LJ           4.58535         4.66124        -1.54535
LJ          -6.34776        -5.75665         -3.4692
LJ          -1.55148        0.101213        -5.37887
