108
#Comment!
LJ           1.97363         3.88072         2.12006
LJ           1.62204          1.1722         2.22169
LJ          -5.12787       -0.759946        -3.74737
LJ           4.34444        -2.69502         1.66692
LJ          -2.11191         6.35619        0.641676
LJ          -6.06977        -3.73924         5.77737
LJ          -5.84793         1.32342        -4.37863
LJ           4.92231        -4.13819        -3.86013
LJ            5.1907         5.66899         3.85303
LJ           3.76052        -2.68766         3.55236
LJ          -1.48813         2.45976        0.354812
LJ          -3.07486        -2.70937         4.82889
LJ          0.882013       -0.754313       -0.788521
LJ            1.9225        -2.18218        -5.53227
LJ         -0.966982        -1.80032         6.12584
LJ          -3.85985        -3.60641         6.08079
LJ          -2.44684        -4.80312         1.81646
LJ           -6.0549         2.62088         1.95673
LJ           3.74622        -3.83955        -4.98481
LJ         -0.833336        0.949047        -1.93002
LJ          -2.78432        -4.07808        -4.72981
LJ           2.28452         2.65181        -2.32618
LJ           -6.2309        -4.66428         4.39199
LJ          -5.13933         2.43743        -3.42299
LJ            4.1326         2.87495         3.49424
LJ         -0.806347         3.00985       -0.304845
LJ          -5.54926        -2.44452         5.26802
LJ          -4.63687         3.20293        -4.50002
LJ          -4.19653        -4.60053         6.28331
LJ          -1.35923         3.81384        0.396505
LJ          -2.25851         1.29063        -4.08232
LJ          -3.50782        -5.72897        -6.10099
LJ           1.32638        -2.27213         1.82804
LJ            4.2409       -0.148159        -2.04921
LJ           4.71018           1.848        -4.63717
LJ           5.02505           1.988         1.68275
LJ           5.53635       -0.285758         2.61847
LJ           3.37764       -0.464015        -2.55154
LJ            -1.916       -0.945727        0.648473
LJ           5.79015         4.53474        -2.69276
LJ           4.82506        -3.94178        -6.34154
LJ          -5.17786         1.50328          1.0869
LJ          -2.14306       -0.133866         -2.4093
LJ          -1.79835         2.83393         1.59233
LJ          0.183194        -1.67716        0.113854
LJ          -6.17549        0.456236        -5.38192
LJ           4.10721         6.04757         4.84296
LJ           -5.3412         2.87829        -1.96185
LJ           3.50126         4.24688        -5.26782
LJ          0.951956         2.67291         4.69461
LJ           3.40064        -2.09349        -5.61898
LJ           3.82269        -4.62891         2.04367
LJ           2.44271         4.62333        -3.96651
LJ            5.9112         5.44188        -5.68356
LJ           6.20254         3.25622        -5.23945
LJ           3.64278        -3.02906        -1.43732
LJ           4.39621        -5.39063       0.0404572
LJ           4.20245        0.855145         4.56933
LJ          -1.65713         2.60717        -5.58334
LJ           3.26707          4.2472         2.20995
LJ          -0.32494      -0.0904779        -2.20092
LJ          -2.76279          2.1118        -2.59461
LJ          -4.73551         5.55506        -1.15323
LJ           3.42904        -2.99072         5.32196
LJ          -1.01737         1.89998       -0.799703
LJ           2.01492       -0.114764          2.9949
LJ           4.12189         6.38336         6.45919
LJ           4.54654        -3.17489        -2.06603
LJ         -0.368888        -1.74888         4.91748
LJ           -1.8133         3.65727        -3.52154
LJ           2.51211          3.4958        -4.58784
LJ           1.33026        -5.85327       -0.258874
LJ           5.40667        -4.58546        -2.83823
LJ          -4.57539         -3.7763        -2.86057
LJ          -2.80963         -1.9835         1.63144
LJ          -2.38616        0.611935       -0.109658
LJ          -1.37162        -5.16643         0.11541
LJ           5.73812        -5.86351        0.168385
LJ          -4.12055        -2.66552        -4.85126
LJ          -5.94884         3.21849        -3.68364
LJ          -3.90139        -3.80129         0.80198
LJ          -4.68389        -3.48606        -5.07343
LJ          0.639841         1.05252         5.96749
LJ         0.0789028       0.0989742        -4.27139
LJ           4.59488         4.02219         5.07278
LJ          -2.57482         -6.2599         -3.2758
LJ           5.06728         -4.6022        0.931508
LJ            1.5964        0.274275         -4.8405
LJ           3.32399        -1.28442       -0.631618
LJ          -5.74845        -3.05781         4.63975
LJ          -3.97625       -0.829788        -3.24297
LJ          -4.56912        -1.51919        -4.03926
LJ          -6.21934         3.60709         -2.3258
LJ          -5.21081        -1.11891         4.97345
LJ          -2.05223        -3.12164        -2.58986
LJ           4.03041        -2.07213          5.7378
LJ           3.10309         5.43884         3.16459
LJ          -1.52602         3.20602          4.6558
LJ          -4.19653         2.14541       -0.352085
LJ           1.82664        -2.76573        0.359685
LJ          -3.86976        -5.05873        -3.16809
LJ        0.00629331         1.80556        -3.36863
LJ            4.0175        -4.92395         1.02605
LJ         -0.707338       -0.878736          4.2109
LJ          -5.15614         1.12083        -1.80145
LJ          0.240148         6.09913         3.71184
LJ           5.62568        -1.41979         5.11864
LJ           6.29195         1.97179        -4.61856
