108
#Comment!
LJ          -5.48556         6.16482        -6.41171
LJ          -3.43895        -4.26676        -5.94835
LJ          -6.10035         -4.6771        -5.68181
LJ          -2.87738        -6.13762        -4.82209
LJ         -0.992822        -4.97829         -5.7228
LJ           1.87415        -3.79555         6.06359
LJ          -3.27335        -4.94181        -3.45035
LJ         -0.156193        -5.96985        -4.59904
LJ           3.31347         6.43538         6.35736
LJ           3.23551        -4.44612        -5.16811
LJ           2.04551        -6.37577        -4.96285
LJ           4.04068         5.97408         -3.9902
LJ           5.26067         -1.8346        -4.97953
LJ          -3.71268        0.663332         6.44976
LJ           -6.3228         1.75242        -3.15401
LJ          -4.68216        -2.31406        -3.75238
LJ            -2.159       -0.918938        -6.44907
LJ          0.620663        -1.93734        -6.36558
LJ          -2.17323         1.65251        -4.76907
LJ           1.09406        -2.28158        -3.60719
LJ           3.18798        -2.32658         -6.3357
LJ           4.48465         1.64184        -5.60189
LJ           3.43719       -0.999046         -3.8013
LJ           4.92502        -2.55255        -3.40795
LJ          -6.27801         2.76861         6.10289
LJ          -4.71889         4.46845         6.06904
LJ          -5.61811         3.79319        -4.28558
LJ          -3.99714         3.07654        -4.16134
LJ          -2.35561         1.08433        -6.09407
LJ          -1.91441          3.9733        -5.94865
LJ          -3.30092         5.35142        -4.52153
LJ          -1.22114          3.1131        -4.07126
LJ           1.85085         1.41573        -3.95161
LJ           3.42874         3.14383         6.32338
LJ           1.74644         4.48813         -4.9682
LJ            3.4595          4.0876        -3.54486
LJ          -5.13913         5.43121        -1.50348
LJ          -5.17414        -4.78704         -2.7111
LJ           -5.5775        -5.79951       -0.470281
LJ          -4.57238        -5.99657        0.697042
LJ          -2.01779        -6.03363       -0.934279
LJ         0.0750492        -4.04499        -2.98816
LJ           -3.1564         -2.3967       -0.547884
LJ         -0.487984         -6.2578       -0.572856
LJ          0.666677         6.32919        -2.54155
LJ          -6.13833        -3.57745        -1.78232
LJ            2.4628        -5.06174       -0.312335
LJ            4.2786        -6.09919        -0.21589
LJ           5.60071        0.230547        -2.35582
LJ          -3.68293         1.22479        -2.78498
LJ           4.91553       -0.138405        -1.21381
LJ           -5.1945        -1.37471        -1.76043
LJ          -1.15787        -3.96488        -5.37239
LJ          0.818216         1.67775         -3.6051
LJ          -1.60382       -0.663081       -0.740386
LJ          0.228273        -3.66087        0.789964
LJ           2.37027        -4.26016        -2.32927
LJ            4.1925        0.771748        -2.97521
LJ          0.815435        -1.11472       -0.902929
LJ           3.55315        -1.41571       -0.323863
LJ           5.74397         3.75179         -1.2394
LJ          -3.62712         3.48665        -2.10689
LJ           5.33466         4.00519       -0.356844
LJ          -4.59602          1.1495        0.616466
LJ          -2.12051         1.84541       -0.718414
LJ         -0.502661         4.25321        -2.55074
LJ          -1.80444          3.0031      -0.0242021
LJ          0.689055         2.83485        -1.02517
LJ           1.15629         2.94457        -2.83967
LJ           3.07531         4.16497        -1.23445
LJ           1.35665         3.98132        0.665403
LJ           3.51787         2.68032        0.688366
LJ          -6.37976        -6.20055         1.97484
LJ          -4.61484        -4.23437         2.83524
LJ            -6.411        -3.81888         4.13438
LJ           -4.3199         5.76287         3.71837
LJ          -1.23675         6.18256         3.25738
LJ          0.178957        -5.50898         2.63254
LJ         -0.835064        -1.68799         4.11647
LJ         0.0722383        -5.78241         4.45729
LJ           1.23692         5.67958         1.97427
LJ           4.42201        -4.63534         1.87362
LJ           3.00933        -4.62407         4.13066
LJ           3.94981         6.02093         5.02884
LJ           6.07908        -2.76819          1.4145
LJ          -6.22627        -0.58449         1.86336
LJ          -5.98933        0.976964         4.24019
LJ          -5.28907        -1.54491          3.2199
LJ           -3.7775       -0.792001         1.63606
LJ         -0.863882         -2.5894         2.39287
LJ         -0.977773        0.190205         2.88699
LJ           1.66616        -2.17418         5.56283
LJ           2.75425        -2.79397         1.35279
LJ           3.58941        0.706574         2.20541
LJ           3.56278        0.797127         4.59387
LJ           4.91956        -2.01705         3.45496
LJ           5.91325         1.83245         1.30154
LJ          -4.80515         5.01064         2.28049
LJ          -6.40212          3.2864         4.83587
LJ          -2.89799         2.07309         3.25515
LJ           -1.3988        0.736589         1.96207
LJ         0.0706396         5.19293         2.45036
LJ          -1.56202         3.97155         4.90151
LJ         -0.399132         2.00634         5.75032
LJ           2.30977          1.4951         2.67441
LJ           4.56582         3.24269         2.11269
LJ           1.08143         3.47021         4.46783
LJ           4.70128           1.708          5.0152
