108
#Comment!
LJ           2.83148        0.541862         1.22233
LJ           2.40851        0.487601      -0.0484382
LJ          -2.94009       -0.480206        -1.55714
LJ          -6.40195        -4.42864       -0.871714
LJ           -1.8218        -5.43664         2.13119
LJ           4.49717        -2.91973        -2.00252
LJ          -3.53292       -0.621198        -4.04124
LJ          -5.85448        -5.20209        -2.28346
LJ            3.4283         2.22822        -5.22966
LJ           6.07398         4.08866       -0.143029
LJ          -2.03118         1.35997         5.04531
LJ          -5.39849        -5.39528         4.27799
LJ          0.140896         3.63606         1.32516
LJ           4.17536        -3.21339         2.18787
LJ         -0.364493        -2.53386        -2.62359
LJ          -1.13241        -5.86699         3.62761
LJ          -4.66039        -2.91764         -4.4031
LJ          -2.61334         2.97949         2.29147
LJ           6.21808        0.300962        -1.60867
LJ          -1.73906        0.556659        -3.75939
LJ          -5.97941        -3.34093        -5.12863
LJ           4.79919        -6.16676        -3.42163
LJ           5.31731         3.07185        -4.81366
LJ          -4.37534           1.493       -0.390459
LJ           2.25789        -5.51427        -3.36281
LJ          0.252804         3.22619        -1.56238
LJ          -4.82412         1.47049         3.70446
LJ          -2.46036         3.54185         5.89957
LJ          -4.66553         -6.3469         3.52382
LJ           2.82899         5.13556           1.541
LJ          -3.55935         1.52798        -5.35961
LJ          -5.07688          3.5978         5.68568
LJ          -1.59755         -3.4701        -4.81052
LJ           4.61848        0.379512        0.756648
LJ           4.91838        -0.62343        -3.89928
LJ           5.93591         3.64169         4.26547
LJ           1.39476         3.77223        -1.73529
LJ          -0.13967          3.0217        -2.60295
LJ          -5.47496        -2.95706       -0.316426
LJ          -5.06646         3.53287        -2.00877
LJ           4.76027        0.442165         4.63961
LJ           3.96289         2.13232        0.548217
LJ          -3.38289       -0.243379        -5.66468
LJ           1.47649         -4.0842         6.32168
LJ           1.87076        0.403715         3.24987
LJ          -4.72112         2.42759        -3.82567
LJ           4.19532        -2.38636        -5.66803
LJ           4.98131         2.53093        0.987872
LJ           -3.4505         4.91689         4.25012
LJ          -3.28012         1.65425         5.51753
LJ          -4.57369      -0.0620444        -3.80589
LJ         -0.917778         3.74446        0.296702
LJ           5.30813         1.60326        -5.20225
LJ          -4.10579         4.96413       -0.898681
LJ           5.99604        0.416965        -3.05283
LJ          0.829715        -2.43697         1.14146
LJ           2.11303        -5.62091       -0.876928
LJ           5.46395       0.0817405         1.16167
LJ             3.696        -1.09773        -5.40403
LJ           4.69483         3.32985         1.62498
LJ          0.611239        -1.20803         1.67101
LJ          -2.78824         4.46595        -1.14019
LJ          -3.80848         4.15382        -3.87593
LJ           4.59072        -1.40837        -5.75794
LJ           3.70483         4.72295        -1.87716
LJ          -1.82002        -4.54341         6.08177
LJ         -0.244191         5.62585          1.4166
LJ       -0.00675233         1.16089       -0.634691
LJ          -4.27708         5.91777         2.16756
LJ             -2.02        -6.46029        -3.89688
LJ          0.172361         1.88653        -4.43172
LJ          0.776152        -5.37775       0.0242864
LJ          -5.76954         -6.0642        -4.15958
LJ           4.34444        -4.45438        -3.54719
LJ          -2.69562         3.39841         1.18518
LJ          -5.55166         1.12606        -1.30836
LJ         -0.767553       -0.941102         1.48448
LJ           2.80143        -4.49856        -1.17594
LJ          -2.60999         -3.9708         3.72015
LJ           5.73546         2.22401        -2.37533
LJ          -4.25707        -3.10455         4.64359
LJ          -4.89978        -5.23577         5.49125
LJ           1.42283         -2.2244         3.73369
LJ           0.37734       -0.842243         3.95474
LJ           2.78426         1.58164        -6.12465
LJ           -2.8162         1.47228        -2.77702
LJ           5.99358        -1.95936         2.90915
LJ          0.486167        -1.88193         3.66867
LJ           2.28376         6.23914       -0.367955
LJ            3.5811        -5.06171         1.03754
LJ           -5.3286        -4.26361        -3.19158
LJ           -3.3081        -2.16044        -1.92872
LJ          -4.08187         2.01574         -1.9067
LJ          -5.25776         1.11773         2.78428
LJ         -0.479428         0.26375        -4.52485
LJ           2.31686        0.762378        -4.21611
LJ           5.68888         4.02837          0.9707
LJ           1.33152         1.58463         3.89925
LJ         -0.477735        -1.12181       -0.174942
LJ           5.86473        -3.46803       -0.950357
LJ           -5.6235        -1.44633        -3.53178
LJ           1.53139        -4.55551        -4.20117
LJ           2.27788        -5.03108         -1.9861
LJ          -1.26967       -0.919869         2.68117
LJ          -4.55385         1.20056        -2.67773
LJ          -3.23842      -0.0911814         1.99641
LJ           -6.3478         2.36655        -5.97106
LJ          -5.53535        0.252717        -3.35816
