108
#Comment!
LJ           2.16535         2.37097         1.87775
LJ           2.23264        0.874819         1.36801
LJ          -3.84574        -0.55715        -3.59511
LJ           5.35554        -3.46114      -0.0454827
LJ          -1.98567        -6.14939         1.20404
LJ          -5.85249        -3.58475        -5.99815
LJ          -4.66148         0.26491          -3.846
LJ            5.4319        -4.30382        -2.68639
LJ           5.09704         4.65773        -6.46057
LJ           4.36582        -5.42552         2.22692
LJ          -1.71119         2.11038         2.12796
LJ          -4.72106        -3.64623         5.61015
LJ          0.579005         1.22906       -0.247978
LJ           2.72593        -2.52114         5.31777
LJ          -1.49025          -1.755        -4.95403
LJ          -2.60155        -4.62886         5.21657
LJ          -3.27359        -4.21458       -0.801078
LJ           -4.7063         2.84578         2.15263
LJ           4.80624        -1.98036        -3.77501
LJ          -1.39769        0.721592        -2.74307
LJ           -3.8853        -3.86666        -5.04909
LJ            3.2842          4.2837        -2.71614
LJ           6.19673        -6.33234         5.75264
LJ          -4.24301         2.80328        -2.51487
LJ           3.31025         4.72598         5.88491
LJ          0.249571         4.94615       -0.345772
LJ          -5.66551       -0.658171         5.11493
LJ          -3.80253         3.24675        -5.33024
LJ          -4.73572        -5.02059         5.70589
LJ         0.0336062         3.70008          2.0333
LJ           -2.7144         1.30024        -4.64647
LJ          -4.17652         6.00151         6.46181
LJ        -0.0609409        -2.91179         4.50803
LJ           4.06524        0.205504       -0.874917
LJ           5.46455         1.38494        -2.91729
LJ           5.34291         2.85819         2.55792
LJ           3.96825         1.36841        0.852958
LJ           2.14046        0.478488        -2.29255
LJ          -2.14005       -0.155547         2.38504
LJ          -5.36571          3.2713        -2.64764
LJ           5.15853        -2.14071         5.72202
LJ           6.18762         1.53406        0.872914
LJ          -2.31904        0.204065        -3.70114
LJ          -0.71676         5.55887         3.38911
LJ          0.946383       -0.776465         1.24929
LJ          -5.50756         1.32037        -5.09897
LJ           4.20667        -5.07409         5.73755
LJ          -5.64435         1.75088        -1.36372
LJ           6.31671         4.03709        -6.26287
LJ          -1.71871        0.516811          3.1679
LJ           5.09841        -1.47194         -4.8539
LJ           1.87534         -6.4025         1.44106
LJ           3.48678          3.3028        -4.73706
LJ           6.30991         4.98419        -5.10652
LJ            5.7962          2.6432        -4.69187
LJ           1.82815         -3.2638       -0.788335
LJ           2.60782        -5.21637       -0.587871
LJ           4.71252        0.518689         3.26498
LJ            0.3129         1.03337        -5.64542
LJ           3.82447         4.30596          1.6764
LJ          0.672685        -1.52067        -1.11571
LJ          -3.25189         3.00503        -1.84682
LJ          -4.21922         4.01689        -2.16863
LJ           3.86144        -2.58391         6.16323
LJ          0.895758         3.02145        -1.30698
LJ           1.03816        -2.04747         4.03141
LJ           2.28992          6.0582         4.53738
LJ           2.68144         -1.0685        -1.71226
LJ          -1.99771        -3.84673         3.75297
LJ          -2.35398         4.40079        -3.50471
LJ           1.48077         2.85564         -4.5273
LJ          0.515352         5.95555       -0.258774
LJ           6.27068        -5.42126        -3.13959
LJ          -5.29784        -3.79679        -2.73615
LJ          -3.01249        0.138639         1.22488
LJ          -4.73089         1.25346        -1.21406
LJ          -1.02456        -3.37868         0.92988
LJ           4.78345        -5.15961       -0.127512
LJ          -3.87091        -3.19054         6.23919
LJ          -6.21684         2.51818        -3.22727
LJ          -4.12239        -3.47042         2.29672
LJ           -4.4878        -4.19288        -6.34142
LJ           1.05686       0.0542715         4.95606
LJ          0.371992       -0.144259        -5.89433
LJ           4.02488         2.91748         6.06914
LJ          -3.78054         -2.9693        -2.51104
LJ           5.60789        -3.81086         1.58101
LJ          0.705483       -0.777742         6.06016
LJ            3.1278        -3.31261      -0.0479691
LJ           5.69407        -4.25314         3.38637
LJ          -4.72228        -2.59663        -2.69751
LJ          -4.19208        -1.91523        -3.69429
LJ           -5.7201         2.77984        -1.35227
LJ          -5.16959       -0.251558         3.73223
LJ          -1.19175          -1.744        -3.24721
LJ           3.45584        -0.73326        -5.96942
LJ           4.49727         4.59847         2.65439
LJ         -0.142811         3.20527         3.38088
LJ          -3.05017         1.52101       -0.999757
LJ           2.43814        -2.07394        -1.38982
LJ          -4.43536        -3.69735        -3.76059
LJ            1.4723        -1.41363        -2.35557
LJ           3.69515        -4.92164      -0.0992265
LJ         -0.721245        -1.04812         3.50469
LJ          -5.37951         2.24921        -2.72639
LJ          -1.15408        -4.19991         3.03703
LJ           6.36171       -0.116456          5.7087
LJ          -6.36692         1.41327        -3.75532
