108
#Comment!
LJ          -5.90184         5.89633         6.31393
LJ          -3.80468        -3.86629         6.43635
LJ          -6.11873        -4.52992        -5.47981
LJ          -3.53443        -6.16046        -4.99989
LJ          -1.46364        -5.03899        -6.10842
LJ           1.14654        -3.71333         6.35948
LJ           -2.8798        -4.85159        -3.56014
LJ         -0.113864        -6.09621        -4.68808
LJ           2.44936        -6.35286         6.31811
LJ           3.79487        -4.67474        -5.39867
LJ            2.1661        -5.72803        -4.56413
LJ           4.38944         6.05056         -3.8685
LJ           5.59493        -1.82185        -5.35004
LJ          -4.08746        0.468782         6.42637
LJ           6.41713         1.24505         -3.4739
LJ          -4.57487        -1.93596        -4.04707
LJ          -2.37195        -1.20153         6.21224
LJ          0.534132        -1.45408         -6.0628
LJ          -2.06604        0.997047        -4.54757
LJ          0.979376        -2.30702        -3.58633
LJ           3.28833        -2.34707         6.43315
LJ           4.92138         1.14109        -5.97061
LJ           3.32351       -0.399114        -4.40682
LJ           4.19964        -2.61627        -3.66545
LJ           -5.9764         2.92876         6.38697
LJ          -4.13318         4.38081         6.20363
LJ          -5.56437         4.25658        -4.12791
LJ           -3.9032         2.87903        -4.16166
LJ          -2.11421         1.36074        -6.43904
LJ          -1.47936         4.36525        -6.03769
LJ          -2.93866         5.09555         -4.1228
LJ         -0.632012         3.21125        -4.06474
LJ           1.92327         1.91658        -4.99258
LJ           3.97769         3.48712         6.18114
LJ           2.00334         4.60423        -4.90035
LJ           3.95975         3.57325        -3.79932
LJ          -5.47109         5.85435        -1.72571
LJ          -5.25813        -4.29872         -2.8163
LJ          -5.57784         -5.0961       -0.480119
LJ          -4.48582         6.45509        0.606701
LJ          -2.38901          -6.203        -1.22427
LJ        -0.0498399        -4.52095        -2.66263
LJ          -2.90699        -3.16481       -0.265017
LJ         -0.369896        -6.40407      -0.0807794
LJ           1.38576         6.08193         -2.3533
LJ           5.99032        -3.89999        -2.00982
LJ           2.44102        -5.29595        0.127944
LJ           4.58711        -6.23767       -0.327318
LJ           5.83945       -0.692019        -2.46474
LJ          -3.98542         1.10947        -2.25955
LJ           5.51954      -0.0239542       -0.733778
LJ          -4.89393        -1.63599        -1.14899
LJ          -1.61087        -2.98184        -4.22206
LJ          0.791174         1.14047        -3.55294
LJ          -1.88465       -0.488957        -0.88007
LJ          0.216641        -3.56115         0.35015
LJ           2.36256        -4.20361        -1.96582
LJ           4.07779        0.589156        -2.73211
LJ           1.19634       -0.897504       -0.664604
LJ           3.88959         -1.5017       -0.283515
LJ            5.9132         3.17986        -1.60619
LJ          -3.97626         3.60565        -1.75449
LJ            5.8211         4.02749        0.182312
LJ          -4.54133         1.55795        0.739508
LJ          -1.99043         2.19566        -1.23772
LJ         -0.543462         4.53861        -2.12712
LJ          -1.94865         3.60088        0.303985
LJ           0.54273         2.44021       -0.549451
LJ           1.48238         2.96867        -2.55999
LJ            3.5321         4.11174        -1.30189
LJ           1.63815         4.12595        0.453753
LJ           3.68215         2.22058        0.391231
LJ            6.3875        -6.23534         1.95274
LJ           -4.5396        -4.37452         2.36696
LJ           6.39955        -4.36823         4.22631
LJ          -4.15914         6.11259         3.87821
LJ          -1.67257        -6.23517          2.8549
LJ          0.259518        -5.05653         2.54302
LJ          -1.41969          -2.441         3.97736
LJ         -0.215347        -5.99453          4.6068
LJ           1.70008         5.82971         2.34668
LJ           4.25788        -4.50129         2.03179
LJ           2.76617        -4.43369         4.29641
LJ           4.03501         6.24936         5.02243
LJ           6.12485        -2.63908         1.22901
LJ          -5.77302       -0.494943         1.96331
LJ          -6.27731         0.77988         4.16275
LJ          -4.97367        -2.01279          3.4951
LJ          -3.36076        -1.24929         1.68176
LJ         -0.495816        -2.08252         2.09753
LJ          -1.19839        0.349579         3.27019
LJ           1.38362        -2.04907          4.8634
LJ           2.54706        -2.58992         1.51144
LJ           3.77201        0.295061         2.11489
LJ           2.92788        0.398186         4.92653
LJ           4.95722        -2.13821         3.88473
LJ           5.92036          1.7845         1.53957
LJ           -4.7861         4.67959         2.36399
LJ           6.16658         3.71927         4.32165
LJ          -3.38266         1.97014         3.70302
LJ          -1.63627         1.02047         1.46234
LJ         0.0372342         4.70187         2.44418
LJ          -1.77671         4.00223         4.47674
LJ         -0.137006         2.10871         5.27366
LJ            1.8601         1.16719         2.79486
LJ           4.26869         3.53244         2.07298
LJ           1.18676         4.02547         4.59889
LJ           4.26361         1.78481         4.55815
