108
#Comment!
LJ           5.10608       -0.251127        -1.04222
LJ           3.83841       -0.302013         1.33567
LJ          -4.53645         2.21759         1.02658
LJ           6.38292        -3.81035       -0.820492
LJ         -0.834979        -5.76448         3.46295
LJ           4.15223        -2.97393         5.45477
LJ           -2.4342         -3.4823        -6.22166
LJ          -2.58021        -1.29426        -2.97291
LJ          -1.94533        -1.04996       -0.811599
LJ           5.90996        -1.08103         -1.5017
LJ          -4.85477        0.664616        -1.79969
LJ          -3.80026         5.18715         1.76326
LJ         -0.937252        -5.29829         4.86246
LJ          -6.02528        -4.63112        -4.47411
LJ           5.26402        -6.01937          1.3594
LJ         -0.352402         5.68034        0.244559
LJ           -4.8967        -2.13523          5.5256
LJ           1.26505         3.68719         2.16294
LJ           2.98428       -0.685774         2.23456
LJ          -1.76241       -0.668502        -5.94957
LJ         -0.540079       -0.367932         6.40758
LJ          -5.46122       -0.414849        -5.01132
LJ           2.65026        -1.55991        -5.32836
LJ         -0.945778        0.410794         4.45983
LJ          -1.70358        -3.12651         5.89318
LJ          0.621005         2.32777        -6.29226
LJ          -3.29073          6.4368        0.780756
LJ         -0.949644         4.65289         4.73659
LJ          -6.18198         4.47146         -1.4648
LJ          -4.18688        -4.29554       -0.684382
LJ          -2.08948         3.42345        -2.58772
LJ          -5.96918         1.49864         1.88905
LJ         -0.391428        -3.59013        -2.72902
LJ           2.74283        -2.06999        -2.54312
LJ          -1.73362        -3.87314         4.73843
LJ          -5.06883         4.38456        -4.61865
LJ          -2.75987        -5.67444         5.13641
LJ          -5.09672        -5.65681        -2.33069
LJ          -5.10394         6.16239        0.917832
LJ          -1.59368         6.22634        -1.19145
LJ           3.82654         5.77427         2.47385
LJ           3.01496         5.88252         1.11493
LJ          -5.62704        -2.21604         4.68433
LJ           4.32781        -3.51983       -0.896306
LJ           4.05484        -3.26102        -5.30363
LJ           -2.7008        0.791355        -1.48583
LJ           5.70774        -4.32389        -3.30972
LJ          0.500936       -0.338978         1.75091
LJ           -5.8348        -2.83173        -5.39175
LJ          -4.03196         5.06117         5.60792
LJ           1.72154         1.79852         -2.7987
LJ           4.35739       -0.996596       0.0602115
LJ          -3.00189        0.354428        -4.98136
LJ          -2.11323         5.30951         1.44717
LJ           3.76258        -5.46904        0.782082
LJ          0.290187         3.37636         2.07794
LJ       -0.00477596         4.80797        -1.94964
LJ          -2.33637        -1.55674        -1.64145
LJ           3.87168          -1.109        -2.49879
LJ           5.91896        -6.36153        -4.57659
LJ          0.978756         1.59877         1.81971
LJ          -0.56825         5.20743        -1.20751
LJ          -6.41567          4.0595        -3.48192
LJ          -4.43581         3.02444        -5.16813
LJ          -6.32361        -6.36678        -2.13935
LJ           2.62825         5.57281        -1.99041
LJ          -3.59232         3.64675        -4.18072
LJ          -1.16872         1.66474         2.14228
LJ           4.43011         0.32028        0.805587
LJ           2.19999        -1.34938        -2.90408
LJ           1.07298         3.80989        -2.06409
LJ           2.38004          5.7921         3.31394
LJ          -3.26341         4.22411         3.50389
LJ          -2.42377        -6.37226        -4.77136
LJ          0.894186         4.79427          1.2236
LJ          -2.82818        -6.27436        -1.81347
LJ          -2.97582         2.88332       -0.139652
LJ           1.66245        -2.89064        -1.70577
LJ          -1.90768        -3.49009        -1.57705
LJ            4.3685         1.07596       -0.678596
LJ          -3.83519        -2.41356        -3.16579
LJ          -6.12699        -6.45007         4.41078
LJ           4.83775         4.05532       0.0247349
LJ          -2.37718        -1.84506        -5.81149
LJ         -0.695289        -1.89783        -5.05182
LJ          -2.50049        -4.88268        -3.69511
LJ           5.45566        -1.16036        -6.26039
LJ           1.61659        -4.26674        -5.76789
LJ           1.49335         3.76161        -3.19378
LJ        -0.0417621         5.10347        -4.06806
LJ          -5.33258         5.21321        -4.03284
LJ          -1.09433        -1.64136         1.86323
LJ          -1.77059       -0.622657        -2.11084
LJ          -5.16456         2.95962         1.38412
LJ          -3.30346        0.408529         5.12323
LJ           0.14629         2.61479        -3.12965
LJ            4.8919         2.40607        -3.75274
LJ           1.79883         2.60237        -4.94858
LJ         -0.960597        -3.81275         1.74487
LJ          -2.36625         -6.1599        -3.20027
LJ          -4.62372      -0.0568161        -4.54611
LJ           1.41789         1.99147         5.58388
LJ          -1.67985         4.56385        -2.52033
LJ          -5.60084         2.58784       -0.655894
LJ          -2.04703         1.61318        -3.21391
LJ           5.13134         4.70636         -1.1657
LJ          -6.11608        -5.93615          -3.288
LJ          -2.01893       0.0273026        -5.21109
