108
#Comment!
LJ          -5.49673        -0.36006         1.92195
LJ           5.66745        -1.66657         2.84853
LJ          -3.76223        -2.48792        -6.13159
LJ         0.0762467          4.5696        -5.57592
LJ          -2.85985         6.16773         3.56022
LJ          0.780001        -5.52002        -3.78758
LJ           6.30703         4.88203         2.20417
LJ          -5.79423         4.08059         4.21382
LJ           3.34206       -0.934212         4.24046
LJ          -3.57986        -5.41211        -5.93959
LJ          0.329149        -5.77463        -5.06243
LJ            -4.298        -1.43558        -4.31155
LJ          -3.63604         4.94501         2.79991
LJ           1.59575         4.75978        -3.77228
LJ          0.627145         5.99039         0.17706
LJ          -2.00662         4.14671         2.97337
LJ           1.41023        -2.62594         3.57261
LJ           1.43959       -0.372591        -1.16192
LJ          -6.36459        -4.16281         3.68794
LJ          -3.66784         4.82093        0.364949
LJ          0.413451        -3.45529        -4.54789
LJ           6.24905         -3.3948         6.18779
LJ           6.09678         2.98353         2.50937
LJ          -6.38593         6.30782         2.99401
LJ          -5.88906        -5.21727         4.52512
LJ           5.85082         6.23929        -4.60313
LJ           4.66349        -1.02373        -4.29951
LJ           4.19733      -0.0611355         1.13382
LJ           -4.7484         3.17893        -2.20667
LJ          -1.15443         6.36004         2.11637
LJ           1.32976        0.369387        -3.57579
LJ         -0.625229       0.0698103         1.73872
LJ           1.74783         4.70338        0.378416
LJ           0.50861       -0.482851         3.19132
LJ          -4.43802        -2.33183        -2.75173
LJ          0.997627         2.20853        -4.64894
LJ          -4.25794         2.38997         3.13262
LJ           3.07962       -0.819434       -0.886486
LJ           4.65786         6.10116       -0.650121
LJ          -3.11616       -0.753881        -1.06865
LJ           4.99763        -1.16924        -1.20388
LJ           2.10469        -6.42444      0.00743755
LJ        -0.0156924         1.40824          3.5591
LJ          -6.42464        -2.89889         3.46523
LJ           1.93484         3.54655         4.12058
LJ          0.935114         4.04075        -4.44199
LJ          -3.05731         -4.4819       -0.884215
LJ            1.0928        -0.20074         1.08262
LJ         -0.252749         5.91787        -2.22706
LJ          -1.54953        0.678595         1.77208
LJ          0.292236        -4.71901        -5.21158
LJ          -2.82875        -0.33909        -5.95671
LJ           4.55341        0.541196       -0.874394
LJ           2.74002        -4.58088        -1.63927
LJ           3.50586         4.64071         5.78358
LJ           -4.3721         2.80652          5.7084
LJ           5.80944         4.63488        -3.17463
LJ           1.28453        0.383508         0.10678
LJ           3.70681         -2.8445        0.825442
LJ          -1.23704        -5.16073        -4.57752
LJ          0.529669        -1.51727          2.2166
LJ          -2.85305         6.40483         4.74489
LJ            3.4564        -2.63821       -0.518113
LJ          -5.71364         3.13608        -3.49506
LJ           4.69906         -1.6741        -5.69551
LJ          -4.76343        0.908501         4.89063
LJ          -2.56045       -0.980074         5.01877
LJ          -5.49981        -2.40934        -2.49624
LJ          0.482919         6.16517         6.25345
LJ           1.64928        -4.34186         4.05934
LJ          -3.90817         2.10501       -0.841516
LJ           6.00471         3.83825        -3.71337
LJ          0.609372        -5.84815        -1.95856
LJ         -0.267089        0.361192        -5.16258
LJ            6.2242        -2.49359        -1.32513
LJ          -2.57482         4.75826        0.330593
LJ           4.40848        -4.17976         5.16481
LJ         -0.401164        -5.66417        -3.83296
LJ          0.290873        -1.04745        -1.96464
LJ          -3.66577         5.51568         4.85856
LJ           1.54413        -4.10915         5.87289
LJ           -5.9587        0.312474         4.96153
LJ           2.53109        -4.35304        -3.92119
LJ           4.59927        0.828974         4.53109
LJ           5.80179         3.63239         4.10564
LJ          -4.10616        -3.44927        -4.36425
LJ           4.70667         4.69929       -0.113065
LJ          0.246831         -5.5448         0.20568
LJ           2.50659         3.29723          3.3518
LJ           2.89853         3.53479         5.17461
LJ          -2.72491       -0.635187        -3.26999
LJ          -4.76217          4.3065        -1.15239
LJ          -4.65219         5.85874        -2.88258
LJ          -1.42346        -1.90102        -5.04826
LJ           4.43969         5.75489         1.74899
LJ          0.997726        -5.21459        -4.67428
LJ           1.89595        -5.19225        -1.20547
LJ          -3.39837         2.58336         3.89188
LJ           3.76028         4.51734        -1.85065
LJ          -5.86399        -1.82931         4.49983
LJ           2.07318         5.09381        -4.59959
LJ            4.8051         1.45666         2.24292
LJ           5.32176         4.59822         3.94068
LJ           0.84613        -1.32905        -2.89935
LJ         -0.818747         3.72781          1.9023
LJ          -5.98261        -4.69158        -1.15065
LJ           3.18085        -5.43033        -1.13446
LJ           1.80951        -4.90342        -6.42847
