108
#Comment!
LJ          -3.20848         2.53522        -3.40753
LJ          0.544343         1.00826       -0.393861
LJ          -5.86567        -4.80213         3.65008
LJ           3.14299         1.53097        0.163752
LJ          -4.01038         3.96651        0.207979
LJ          -2.35434        -5.12385       -0.881945
LJ           3.22415        -4.49856        -2.04382
LJ          -5.79563         1.39418          2.7945
LJ          0.701647        -4.36995         4.75718
LJ           1.64168        -5.00571         -4.3322
LJ          -2.99932         1.56983        -2.11444
LJ           2.99918         2.49645        0.799149
LJ          -1.76693         3.87921        0.663056
LJ          -1.84363        -2.23354        -4.05366
LJ         -0.207611        -1.54751         6.10161
LJ          -2.30213      -0.0257206         5.70662
LJ          -4.32832        0.504961        -4.66447
LJ          -2.10884         3.17546        -1.02679
LJ           -4.8117        -1.81894         3.37898
LJ           -5.2687        0.301509         1.44183
LJ           4.51381        -4.17439         4.38976
LJ        -0.0268901        -4.05496        -2.66977
LJ         -0.846295        -5.99987       -0.793079
LJ           5.09399        -1.55714        -4.15955
LJ          -5.07727         2.72371        0.402677
LJ         -0.778033        -0.95219         3.67552
LJ          -3.59542       -0.282307         -5.8725
LJ          -2.81801        -3.96804         4.82581
LJ          -6.08531          2.6758         1.46688
LJ          -1.14181        0.516219        -3.29332
LJ          0.282524       -0.928824        -4.39113
LJ          -5.16852       -0.155657          3.4593
LJ           -2.4626         1.02954           -1.08
LJ          -4.91869         1.30332        -4.36806
LJ         -0.615541        -4.65627         6.04438
LJ          -1.22067       -0.712261         5.41884
LJ          0.452663        -0.78726       -0.391712
LJ          -1.01755         1.33934         5.98451
LJ         -0.801868         3.16572        0.256966
LJ           2.70817        -5.05141        -4.29498
LJ           4.22788          3.7774         2.73814
LJ          -4.09282        -2.60473         2.87854
LJ            3.7182        -1.85513        -1.88988
LJ           4.87802         2.56961         0.59268
LJ          -2.67218         4.82727        -5.06249
LJ          -3.49333         5.34531       -0.578872
LJ           2.68826         -1.4108        -5.89674
LJ           2.64165         2.08918         5.28951
LJ          -5.55799         3.50173        -3.23405
LJ         -0.493392         3.16989          6.3482
LJ           4.59233        -2.80939        -6.22246
LJ           1.42379        -4.20559        0.427763
LJ          -4.25106         -2.0548        -1.37332
LJ           2.41225       -0.984034        -1.63216
LJ           -3.1879        -5.15835         1.26386
LJ          -4.33404         4.49866        -4.26708
LJ         -0.817969        -2.14848        -3.46296
LJ          0.125631          -4.672         3.26156
LJ         -0.687463         0.76498         2.63811
LJ          0.583941        -3.39803        -2.15801
LJ           6.44164         3.20082         4.34494
LJ          -1.20618         1.23408         -5.9478
LJ           3.06659        -0.35338          5.8897
LJ           6.02777         4.70771          1.0746
LJ         -0.613838         -3.5178         -1.8045
LJ          -3.23861        -3.07642          1.4611
LJ           6.32985         4.12356        -3.22567
LJ         -0.886556        -1.95759         4.86261
LJ         -0.726148         5.80022       0.0353522
LJ           1.85289        -6.31927         5.51351
LJ          -0.22683        -6.18062         -4.2598
LJ           6.03817        0.739057         3.12974
LJ          -1.93474        -4.02769         2.28109
LJ           -2.5754        -1.86933         6.02059
LJ          -3.54572         1.40519           -3.32
LJ          -1.22742        -2.28567         -4.8267
LJ           5.36788        -1.15769         4.69941
LJ          -1.57847         1.51328         4.19171
LJ           1.06123        -2.57149         5.80008
LJ           1.59526         4.27093         1.87745
LJ          -3.41953       -0.110217        0.402827
LJ          -3.48881         1.72581        -4.29856
LJ          -4.27557        -4.69183         6.00383
LJ           1.46571          1.4147        -1.27994
LJ          -5.98557        -5.90323         6.13179
LJ          -5.26782          3.4974        -5.55304
LJ          -5.74579        -6.18529         4.42132
LJ          -4.24055         3.10682        -4.10742
LJ           4.88399         6.44302         2.74512
LJ          -3.99609         4.68585        0.975586
LJ          -4.52106        -1.02916         5.58813
LJ          -6.08331       -0.186224         3.96713
LJ          -3.28131         3.30118        0.643557
LJ             5.237        -3.22019        -5.17466
LJ           5.15954         3.80865         4.17548
LJ           4.93732        -4.16318         -5.9637
LJ           4.20428       -0.217251        -4.16136
LJ         -0.846741         4.21755       -0.514976
LJ           2.72803        -6.12039         2.05814
LJ           4.13528        -5.90665        -6.01473
LJ         -0.545652        -6.45612         -5.2273
LJ           6.42203        -3.26835         5.22722
LJ          0.329526          4.0995         5.71915
LJ           -3.4344       -0.293822       -0.901157
LJ          -1.41289         1.52697        -4.95876
LJ          -6.28387        -4.44665         4.54039
LJ         -0.844812         4.62407         1.94884
LJ         -0.046168         5.63693         3.57258
