108
#Comment!
LJ           3.85249      -0.0560185       -0.630891
LJ           2.34287        0.163655       0.0980552
LJ          -3.91397        0.552731        0.490855
LJ          -4.62444        -5.98771        -0.81829
LJ          -1.12235         -5.7027         3.19469
LJ           2.55619        -2.84463         1.39078
LJ          -2.87139        -1.76318        -4.85379
LJ          -4.63086        -4.80761        -2.43126
LJ           2.21351        0.163016        -3.72087
LJ           -5.4064          1.7442        -1.81847
LJ          -2.64064        0.817798        -5.30939
LJ          -5.53061         5.86295         2.87396
LJ         -0.582502          5.2046         3.11268
LJ           5.34251        -3.77271       -0.382987
LJ           1.77549        -3.80179        -1.18206
LJ         -0.343839         6.29872         2.10766
LJ          -4.85551        -1.30657         -5.4534
LJ         -0.917948         3.17583         2.22596
LJ           4.95692       -0.251079        0.241419
LJ          -1.80401        0.273115        -4.78021
LJ           3.55473        -2.99092         -6.3072
LJ           5.94189        -4.00378        -3.99276
LJ           4.57276        0.102616        -3.79215
LJ          -3.28482        0.793782           1.728
LJ           1.25397        -3.96768        -4.79742
LJ          0.681676         3.19783        -3.62605
LJ          -4.15917         3.16178         2.27552
LJ          -1.46947         3.72726         4.49814
LJ          -4.80719          5.6675         1.86639
LJ           5.08703        -6.38187        0.764591
LJ          -4.42208        0.992072        -5.48748
LJ          -5.89368         1.61546          4.5797
LJ          -2.72749         -3.9729        -2.07629
LJ           3.91202        -0.25801        0.508714
LJ           6.00064        -2.39149        -5.53123
LJ          -6.33984         3.95596         5.76659
LJ          -0.86352         5.11769        -3.81648
LJ          -2.47183          5.4278        -2.89544
LJ          -3.54166        -4.14942        -1.43984
LJ          -4.24624         3.80988         -1.7565
LJ           4.39649         2.49748         3.81489
LJ           3.41277         3.60865        0.690642
LJ          -4.33622       -0.439843         6.32844
LJ           3.48646        -2.68186        -4.16194
LJ           2.76216       -0.965831         4.59285
LJ          -3.92146         2.80494        -2.26374
LJ           4.62283        -2.79635        -4.81308
LJ           3.35179         1.01066         1.48462
LJ         -0.632288         6.39673         3.51356
LJ          -4.02536         3.12418        -5.95053
LJ          -1.41129        0.610851        -2.88084
LJ          -3.79893         1.70678        -0.25843
LJ           -6.2232         1.18939        -4.91942
LJ          -2.69914         4.93654        0.689282
LJ           5.11137       -0.964533        -2.62359
LJ          0.376526        0.127469         2.51615
LJ            2.2912          5.7937        -1.16731
LJ          -5.43217       -0.694128      0.00871073
LJ           3.06463       -0.329295        -3.94887
LJ            5.1458          4.5529         4.17957
LJ          0.299473         1.09681         1.74179
LJ          -3.23486         5.91328       -0.729556
LJ            -4.359         3.77646        -4.77006
LJ          -5.17095        0.186329        -5.74711
LJ           5.87582         5.97426        -2.21267
LJ          -5.18823         -5.5254        -5.05351
LJ          -1.97343         4.98398        -1.06756
LJ          -1.09094          1.9394        0.433721
LJ          -6.05159         3.62444         1.34487
LJ         -0.958262        -4.11692        -4.52227
LJ         -0.353793         2.36121        -3.64272
LJ           1.15842         6.45785        0.332341
LJ          -4.77228         5.82237        -6.29026
LJ            1.7094          -5.205        -3.87472
LJ          -1.32254         4.77624         2.42665
LJ          -4.44244         3.37552       -0.826544
LJ          -1.39467        0.216762        0.607514
LJ           1.25968        -3.18925       -0.457125
LJ          -2.17065        -4.10834         1.62284
LJ           5.25711         1.58331        -1.56589
LJ          -4.16419        -2.97918        -6.29422
LJ          -5.15731        -6.10373         4.46905
LJ           2.90436        -4.81913         2.30918
LJ         -0.185541        -1.57677         5.31131
LJ           1.49417        0.189889         -6.0562
LJ           -2.2769         4.49445        -3.42618
LJ           6.24344       -0.517088         3.99645
LJ          0.931062        -2.68487         3.36484
LJ           1.48472         5.18478        -1.51434
LJ           1.78377        -5.80135        -1.07942
LJ          -5.43824        -5.71399        -3.19634
LJ          -2.43453        -1.95284       -0.448385
LJ          -2.91911         1.09159         -2.0836
LJ          -5.12677         2.29203         2.09516
LJ          -1.28556        0.670914        -5.81766
LJ           1.51914         1.80887        -3.40368
LJ           5.36894         3.49599        -0.86168
LJ           1.71932         1.72853         5.37357
LJ            1.4774        -2.82878         1.36933
LJ           3.26372        -4.72665        -1.82819
LJ          -5.91213       -0.585235        -3.62407
LJ           1.47321         5.88793        -5.58677
LJ           1.01707         6.31101        -1.38269
LJ          -2.35384        0.215232        0.996992
LJ          -4.63701         1.36262        -2.26923
LJ          -4.99192         3.38679         1.55223
LJ          -6.34441         4.23161        -4.83918
LJ          -4.20398       -0.277451        -3.94305
