108
#Comment!
LJ           1.78778        -5.41384         5.23334
LJ          -5.97998         2.49887         6.35733
LJ          -1.58805         2.51384         5.48449
LJ           4.73422        -5.36257         2.99695
LJ          0.877933         1.02003        0.646903
LJ            2.8735        -3.66733          5.3172
LJ          -1.78274        -1.98722         5.05011
LJ          -3.70663        -3.70298        0.501187
LJ           5.16046         -3.8225        -6.36158
LJ          -0.37974         6.39167         1.13565
LJ          -5.47306         5.11145        -3.16046
LJ          -1.91146      -0.0256752         1.67508
LJ          -5.44537         5.99974        -5.53596
LJ           -4.8816        0.709255         4.12008
LJ           2.41282        -4.37493        -2.37852
LJ          -1.26978        -1.20652        -4.63444
LJ          -2.85536        -1.54273        -5.64097
LJ           5.96462        -5.53863         6.45806
LJ          -6.20587        -6.44869        -5.00276
LJ          -2.40725        -1.53833          4.0488
LJ          -3.47363       -0.142874        -3.16681
LJ          -2.76809        -2.89335         1.05868
LJ          -1.67077         2.40837        0.593695
LJ           -2.9731        -2.85852          5.3365
LJ          -5.96595        -2.19947        -6.26031
LJ          -2.42714        -5.30188         2.75191
LJ         -0.243277        -3.45038         -5.9859
LJ         0.0501551          2.5608        -4.87946
LJ          -3.04674         1.73616         1.80143
LJ           1.01499        -1.87259         3.75041
LJ           4.68159        -4.00134         2.50247
LJ           -2.7072         2.06448         2.68847
LJ           2.59387          -2.737        -3.05301
LJ           5.06932         3.64516       -0.940222
LJ           2.95583        -5.46111        -3.10958
LJ          0.526003         2.41044        0.780583
LJ          -1.78621           3.978         4.77785
LJ          -2.80638        0.611835        -5.67805
LJ           -6.1746         5.21708         2.07173
LJ          0.830414         6.04537        -1.27106
LJ           5.92147        -5.27126        -3.53287
LJ           -1.4117         6.36385         2.35967
LJ           1.32551         4.44915         4.77275
LJ          -4.40067        -5.77413         2.32783
LJ         -0.757954        -1.14664         2.13838
LJ          -4.93194         3.31418       -0.296109
LJ          -1.56605        -2.04369        -1.08934
LJ           4.94285        -0.56092         2.93614
LJ         -0.111341        -3.87804        -3.10771
LJ          -4.33716       -0.676547          2.6292
LJ          -4.23709        -1.43167        0.548377
LJ          -5.72946         2.95275         2.19931
LJ           6.08684        -3.73332         3.12146
LJ          -2.30169         5.92086        0.753105
LJ          -4.07993         5.46864         4.41406
LJ           3.55147        -4.91195         5.51653
LJ           1.65377        -3.33336         1.08025
LJ           3.68677         3.32226        -3.68799
LJ          0.439297        0.739227         2.67693
LJ          -0.86308         3.34306         5.51507
LJ          -6.16817        -4.02909       -0.444071
LJ           6.09798        -3.55024         1.96144
LJ          -2.76893        -1.01955       -0.984116
LJ          -4.52111        -2.79154         4.62845
LJ          -1.04367        -3.02861         6.18005
LJ          0.182944         1.84934         4.07943
LJ          -1.37018         4.45938         3.84931
LJ           2.11037        -6.31548         3.78917
LJ          -6.22422         1.78673        -2.87634
LJ           2.49167          2.5309         5.44602
LJ          -5.79104         1.27046        -5.15149
LJ           5.29547        -6.43386         -2.4388
LJ           1.71668         3.12937        -2.47299
LJ          -1.75742         -6.0544         3.13504
LJ           6.29676         3.97765         2.88235
LJ          0.229829         2.47888         5.90225
LJ           2.34472         1.07316         5.02814
LJ           2.59707         3.19339        0.799579
LJ          -5.62476       -0.431106         2.71611
LJ          -1.93798        -4.83327        -3.85333
LJ           4.80801        -4.62602       -0.144599
LJ          -3.46194      -0.0286177          2.0325
LJ          -5.56874         1.27533        -2.25903
LJ           5.72195        0.485471        -4.78658
LJ           5.83902        -5.73708         2.45278
LJ          -3.23272         1.64858        -3.15635
LJ           6.12364         5.51086         2.97973
LJ           6.41684        -2.53658         -5.0489
LJ           -1.3344        -1.73115        0.503987
LJ            3.8483        -4.88524        0.515993
LJ          0.347698         4.02684        -3.08407
LJ          -3.09423        -3.16073        -5.72983
LJ           6.07892        -5.78456          4.6579
LJ          -5.87968       -0.309964       -0.494267
LJ         -0.210845         2.64247         1.90547
LJ          -2.18054        0.216892        -4.16938
LJ           3.71236        0.790548         -1.7609
LJ           2.21055         4.30014         3.90037
LJ         -0.175574        -4.61392           5.323
LJ           5.54878         3.25189         6.37486
LJ          -0.20057        -2.28924         1.25638
LJ            3.1849       -0.795551       -0.640376
LJ           3.12066        -2.22771         4.86052
LJ          -2.20802         -1.3595        -2.42356
LJ           4.75229        -5.35678        -5.49739
LJ           4.96196        -4.16043         4.17328
LJ           4.32615         2.54198        -4.20518
LJ          -3.02084         1.45899        -6.43438
