108
#Comment!
LJ          -4.55398         1.29945         5.01937
LJ          -1.18274         3.62784        -4.40663
LJ          -4.58646         5.75688         4.65596
LJ           3.15866        -5.32325        -1.75001
LJ           2.10525         1.21661         3.37064
LJ          -2.34764         -4.0846          2.3342
LJ           4.86594        -2.73675       -0.947385
LJ           2.79526        0.791115        -3.25193
LJ          -2.03586         2.94451         3.38726
LJ          -4.26513        -3.89204        0.774215
LJ           2.14291        -2.64727         1.93105
LJ         -0.919369          4.5513         6.14146
LJ          0.146319        -6.30422         4.56188
LJ          0.361442         3.20061         -6.3516
LJ          -3.77162         -5.3023         1.08581
LJ          -5.10016        -6.20497        -2.50979
LJ           -2.0414        0.217189         -2.1649
LJ           4.24207         5.26176         2.54365
LJ          0.145824         3.24462        -4.65596
LJ           4.89733        -1.84043         -2.8786
LJ           4.30016        -3.03393        -2.98153
LJ          -1.46817         5.92195        -2.91419
LJ          -6.42588         4.51069        0.184733
LJ          -3.37835        -2.69443       0.0467534
LJ           5.68626         4.79701        -5.02667
LJ           2.50575          5.0799         3.69496
LJ           4.37119         -3.4868         5.77297
LJ           4.61734         4.70247         5.26002
LJ          -1.81008       -0.243828        -1.27443
LJ           3.48196         4.54033         1.87804
LJ          -4.35687         3.61908          6.0847
LJ           6.30989         1.37102        -5.12282
LJ          0.407567         4.15115         2.15013
LJ          -3.35171       -0.572076        -3.64229
LJ           1.83956         3.70958         5.60247
LJ            1.9608         -5.9824        -1.01857
LJ          -4.54426        0.222571        0.771645
LJ          -3.59142         4.49767       -0.659002
LJ          -2.13313        -1.10538       -0.542698
LJ          -5.77386       -0.564816        0.548656
LJ           2.22164        -4.17169         4.22912
LJ           1.34376       -0.155399         5.62112
LJ          -5.87359         4.61224        -2.88316
LJ          -1.68341         5.81702         3.31359
LJ           6.31864         -1.2978          -2.289
LJ           3.11845        0.526695         2.19565
LJ           2.64448        -2.26252          5.9397
LJ           1.49394         -4.0413        0.408376
LJ           1.26927           -2.05        -2.53518
LJ           6.14374         1.66479           4.321
LJ           6.04602        -4.96158         3.77133
LJ           4.35486       -0.389327        -5.98403
LJ          -2.59797         1.00945          1.2868
LJ          0.471191         1.83448        0.569813
LJ           2.12274        -3.11051        -1.37264
LJ         -0.267538         -4.9873         3.70803
LJ           2.42552        -3.36522        -6.36535
LJ           5.18003      -0.0234813       -0.310895
LJ          0.564515          -5.137        -4.88335
LJ         -0.950078       -0.983083       -0.733746
LJ          -3.69238        -5.08711        -3.58234
LJ           4.49475         5.23384        -2.02452
LJ           -2.3744         5.23625         -1.7395
LJ          -5.82388        -3.95579        0.802908
LJ          -3.71652        -2.81771         6.05457
LJ           2.03495        0.828108         -1.5642
LJ          0.622372       -0.234787        -3.11172
LJ           2.25523        -2.14273        -2.20708
LJ          -2.56663         5.27636         -2.7367
LJ          -2.65157        -6.37141        -1.82054
LJ         -0.884852         2.91455        -1.81215
LJ           5.00919        -6.45355         -0.4282
LJ          -4.58049        -5.41948          1.6503
LJ          -5.31958        -2.13119         -4.0268
LJ          -4.81095         2.79578         2.84497
LJ          -6.02305         4.20305        -1.31471
LJ           4.78074         1.08835        -5.34968
LJ          -1.55643       -0.737998         -6.3108
LJ           -2.3155       -0.595641         4.73397
LJ           2.89668         -3.3026         2.16974
LJ          -3.41953         3.02632        0.355243
LJ           5.37573        -5.75986         0.70379
LJ           5.80117         6.13637         2.34197
LJ           2.82026         3.58193        -5.82438
LJ            5.6011        -3.55079         3.26522
LJ           5.02573          1.9844        -1.00612
LJ          -3.02819         2.01659          2.6361
LJ           4.86583         1.91372        0.786233
LJ          -6.20371         2.01235        0.987204
LJ          -5.61905         4.94106         5.37906
LJ           4.41566        -4.46408         4.07733
LJ          0.404719        -3.58075         -3.7591
LJ           4.18797         -3.7309          3.2322
LJ           5.16176         2.90806         1.71537
LJ         -0.890455         6.23772       -0.173788
LJ           3.46609        -5.34599       -0.380358
LJ           2.85126         4.99689        -2.47745
LJ          -4.19761        -6.01225         4.92573
LJ          0.505308         4.33146         5.74967
LJ           2.80264         2.46125       -0.826203
LJ          -1.70795         1.89822         1.73468
LJ          -4.72089         3.61857         1.61849
LJ           3.21159         2.86923        -2.06829
LJ          -2.74976        0.155013        -6.34638
LJ           3.74926         5.10698         5.18341
LJ           6.19402         -1.3353         3.28974
LJ          -3.92868        0.265707         3.42435
LJ           5.97828        -3.82586         6.29981
