108
#Comment!
LJ           2.43844         -5.3164         5.68384
LJ          -5.61073         1.03208        -4.99426
LJ          -1.97137         1.57104         6.38947
LJ           2.23006        -5.56402         2.02996
LJ          0.500231        0.321404        0.906273
LJ           2.47586        -4.83617         4.12367
LJ          -1.60494        -3.14524         4.35878
LJ          -3.85035         -4.5536        0.288642
LJ           4.03988        -3.46042          6.3121
LJ         -0.319527        -6.45562        0.908296
LJ          -4.58645         5.42363        -3.56821
LJ          -2.52037        -1.36112         3.03187
LJ          -4.97366         6.04594         6.18106
LJ          -4.29574         1.64243         5.06546
LJ           1.81457        -5.27613        -2.55861
LJ          -1.20638        -1.03811        -5.53979
LJ          -2.77125        -1.79495        -5.44887
LJ           5.57602        -6.39995        -6.01919
LJ          -6.28961        -6.20855        -5.76909
LJ          -2.35248        -3.96268         3.52065
LJ          -3.39033       -0.418558        -2.98949
LJ          -3.14496        -1.77435       -0.514889
LJ          -1.71846          2.6603        0.802746
LJ          -1.52629        -2.12927         6.04582
LJ          -5.87921        -1.49484         5.87668
LJ          -2.89905         -5.3531         2.18531
LJ          0.847373         -2.4473        -5.52737
LJ          -1.29297         2.42545        -3.78755
LJ          -2.65863        0.794124         1.74787
LJ           1.12093         -2.4192         3.85969
LJ           4.42819        -3.57272         3.94272
LJ          -2.62986         2.41603         3.23976
LJ           2.29911        -2.79903        -3.67814
LJ           5.64422         3.26592        0.288723
LJ           3.44864        -4.80154        -3.09235
LJ          0.676862         1.86452       -0.590331
LJ           -1.7898         3.45215         4.53548
LJ          -4.06033         1.70397         6.12384
LJ           6.23839         4.88597         1.42762
LJ          0.533015         4.63974        -1.14385
LJ           5.44104        -4.39487        -3.07732
LJ          -1.19165         5.83671        0.990279
LJ          -1.00169         4.90306         4.93616
LJ           -5.7902        -4.84384         1.95851
LJ         0.0759952       -0.490854         2.79574
LJ          -4.34283         3.55439        0.995025
LJ          -2.30181        -2.95336        -0.65819
LJ           4.43351       -0.482762         2.64398
LJ         -0.962392           -2.81        -3.25503
LJ          -5.21284        0.792299         2.21452
LJ           -3.9392        -1.39184         1.87193
LJ          -5.47685         2.12758         1.03475
LJ           6.38472        -3.97343         1.60721
LJ          -2.14456        -5.89758       -0.408238
LJ          -3.45771          4.8962         4.08994
LJ           4.51137        -3.83824         5.18885
LJ         -0.149778        -2.71772         1.02281
LJ           4.28678          4.2578        -3.29133
LJ          0.963028       0.0402859         3.58745
LJ         -0.414772         1.85137           6.289
LJ          -6.31134        -4.67423        -1.03126
LJ          -5.89495        -3.56861        0.803168
LJ          -1.69751        -1.30372       -0.954737
LJ          -5.79266          -2.531         5.65203
LJ         0.0732343        -3.01538        -6.13877
LJ          0.187704         2.77682         5.58604
LJ          -2.36655         5.45583         2.02198
LJ           2.56103        -6.08743         4.66132
LJ            6.1142          3.3395        -2.80899
LJ            2.6122         3.09463        -5.59317
LJ          -4.79143        0.901131        -3.87628
LJ           6.03829        -5.19036        -1.86231
LJ           1.67682         3.49082        -2.40484
LJ          -1.43222         6.32875         3.45872
LJ           -4.6164         5.22094         1.74694
LJ         -0.260348        0.279359         5.70326
LJ           2.35678        0.728755         4.80685
LJ           2.49721         2.26014        0.305781
LJ          -5.17256       -0.319795         4.08885
LJ          -1.56753        -4.34074        -4.07694
LJ           4.98096        -5.47209        -1.52073
LJ          -3.14543       -0.580024         1.71241
LJ          -6.03316       -0.210102        -2.33572
LJ            5.4731        0.632755        -5.43462
LJ           5.92067         -4.8567         2.58912
LJ          -3.32026         2.72636        -3.14352
LJ           6.01774         5.73402         2.23482
LJ          -5.76094        -1.54723        -4.81334
LJ          -2.66265        -1.43412        0.598434
LJ           3.53071        -6.16104         2.06069
LJ          0.411648         3.41601        -3.47132
LJ           -3.5758        -2.23487         6.13822
LJ           5.82731        -5.55833         5.76101
LJ          -5.11563        -1.09596        -1.52751
LJ          -0.83178         3.26261         1.53217
LJ          -1.05573      -0.0971503        -3.74812
LJ           2.75903        0.471777        -1.64564
LJ          0.526694          4.9055         3.88551
LJ           1.50391        -5.47321         6.15584
LJ           6.30105         3.84042        -5.07609
LJ          -0.90196        -1.09221         1.75261
LJ           2.85809        -1.57169        -2.08765
LJ           4.81987        -2.80309         5.85901
LJ           -2.3888        -0.89327        -2.66308
LJ           5.56683        -4.91963        -5.45871
LJ           5.87109        -4.31233         4.36442
LJ           4.67995         3.26756        -3.47821
LJ          -3.00288         2.55056         5.04164
