108
#Comment!
LJ          0.459443        -4.28784         5.05564
LJ           2.06173         -5.0062         4.37952
LJ           1.99264        -6.45981         4.76214
LJ           4.35956         4.67498         1.65324
LJ          0.799311       -0.139973        -1.63933
LJ           5.14557         1.40253        -3.29848
LJ          -3.44029         1.71635        -5.19232
LJ          -5.80248        -4.98357       0.0458195
LJ          -3.69599        -4.23712         5.04473
LJ         -0.621497         5.49073         2.48775
LJ           3.83381         3.99995        -1.96028
LJ          -1.71059       -0.340678        -4.65675
LJ          -5.29151         4.66864        -2.49312
LJ          -4.40112        -0.30752          4.1783
LJ           3.85782        -3.46747        -2.71106
LJ          -2.66288        -1.00774        -1.73925
LJ          -2.55268     -0.00471453         6.19584
LJ          -5.11623        -6.36545        -6.39654
LJ           6.38115         3.74632         -6.2154
LJ           -2.2062         6.30406        -6.01869
LJ          -6.12426        -4.42454         -2.0827
LJ            2.6526        -1.66412        -6.41735
LJ          -4.17811          4.2721       -0.786758
LJ          -5.85289        -4.54963         4.23035
LJ           6.06647        -5.27162        -3.82427
LJ         -0.969894         -6.2721         3.02274
LJ          -5.60122         -4.8823         3.29366
LJ           4.95839         4.39271         3.75248
LJ          -4.36434         3.27965        -1.71251
LJ          -2.55932       -0.916201         3.42734
LJ           5.57108         4.45989       -0.654878
LJ          -2.08621         1.85981         3.34712
LJ            3.8616       -0.127905          -1.767
LJ            2.6565         3.10445        -3.23025
LJ           1.87912         5.05515        -3.43787
LJ         -0.205602        -5.71934        0.824294
LJ           5.08489         5.16981        -5.81959
LJ           0.65986        -2.64263        -2.99568
LJ          -4.46993         3.81842        -6.23025
LJ            1.8403        -1.47291        -1.25346
LJ           5.79367        -5.48523       -0.175914
LJ          -1.35319         5.29657         3.83229
LJ          -3.88256         3.55449         5.29637
LJ           2.71743         3.41423         3.57884
LJ          -2.05842        -2.06735         2.13503
LJ           5.80675         2.20565        -4.88985
LJ            2.6206       -0.410005        -4.06765
LJ          -5.28616        -0.68055         3.29994
LJ           4.99328        -6.27288        -1.49301
LJ         -0.429513        -3.37947         2.09759
LJ           -6.3511        -2.96301        -3.85116
LJ          -2.68335         4.71283         3.55963
LJ           2.65339        -2.63568        -5.94124
LJ            -2.178         2.96541         5.80608
LJ           -6.2463        -6.22658           6.163
LJ             -1.53         5.52198         5.65429
LJ           6.01671        -5.38271         1.03131
LJ           2.04645        -0.79368        -5.52847
LJ           0.62214         3.49345        -2.65614
LJ           1.37803        -5.77972        -4.86009
LJ          -4.36499        -1.70892        -1.88557
LJ           2.40454        -3.30406        -5.16234
LJ          -3.83579       -0.495824        -2.27874
LJ           -6.4094        -2.56297         1.50764
LJ          -4.80871        -5.11783         4.03476
LJ           1.39861         2.60715         1.23493
LJ           3.54636         2.14762         3.88354
LJ        -0.0856081         4.15729         0.91402
LJ           4.46304         2.08748          5.9431
LJ           2.50276         1.67897         2.17069
LJ           3.24393        0.855717         5.90627
LJ            3.7295         4.55275         5.70115
LJ           1.52401          2.1609        -3.01517
LJ          -1.40642        -5.58718        -5.53733
LJ          0.766952        -4.74227         2.13179
LJ           1.09369        -4.75696        -5.26288
LJ           2.19175         2.35574         4.87502
LJ           2.61687        -6.29968         2.79918
LJ          -6.41569       -0.298561         -2.5819
LJ          -5.24534         4.28016        -4.19419
LJ           4.08305        -1.16996       -0.682628
LJ           -4.7211         1.41379         4.06553
LJ         0.0652109         3.07146         2.11023
LJ           -5.9181        -1.60633        -2.32615
LJ          -4.49703         2.83685        0.451049
LJ          -1.54067        0.651295        -3.32955
LJ           6.36048        -5.82219         4.37421
LJ           2.80873        -4.38506        -4.20724
LJ           4.30596        -4.32395        0.826701
LJ          0.235866       -0.643285       -0.128228
LJ          0.608746         5.88961        -1.52947
LJ         -0.763385        -5.72465        -2.10717
LJ          -5.07897        -6.37862       -0.159665
LJ           4.50339         2.13698         3.47141
LJ           3.37554         1.65322         2.96762
LJ           -5.6335         3.34463        -1.87003
LJ          -6.26643         1.25211        -2.10989
LJ           4.75836         6.44684         1.90041
LJ            -6.328        -1.62496         4.18872
LJ          -6.13337         3.20629         2.26596
LJ           1.85223        -2.89273       -0.202633
LJ            4.3432         2.29658         4.81492
LJ         -0.646915        -2.85035         3.46717
LJ          -3.36167        -1.60768        -2.88125
LJ           2.63044         5.90349         6.44288
LJ           -5.3488         2.38364        -2.51256
LJ           2.36942        0.381971        -6.02067
LJ          -1.68438        -3.65362         -4.6217
