108
#Comment!
LJ          -2.08781        -2.68987        -5.70213
LJ          -3.39363         5.85258        -5.00803
LJ          -4.39037         3.96972        -4.17211
LJ            5.8122         0.75091       -0.126443
LJ          0.711983        -3.17581         4.16829
LJ          -4.37708        -1.58736        -3.13486
LJ          -4.14772         5.53586         4.02358
LJ           -1.2291        -2.49797        -5.31558
LJ          -5.99655         4.22574        -1.11413
LJ          -3.42776        0.504799         4.53467
LJ          -4.33092         1.60156       -0.913893
LJ          -1.13109         3.59465         5.57793
LJ           4.83562        -4.94664        -4.05869
LJ          -5.72656         3.80287        0.140552
LJ            4.1541        -6.00538        -5.85398
LJ           2.22351         3.39737        -1.22387
LJ          -3.33017       -0.957952        -4.59966
LJ          -2.44893         3.23804        -0.28033
LJ           2.58291       -0.453977         3.66923
LJ          -2.06218        -5.68504        -5.27581
LJ          -4.84814        -3.36411         3.03733
LJ         -0.880143         6.09142         1.87394
LJ         -0.437234         6.31671         5.60788
LJ           -0.2399         2.88684         -2.3408
LJ          -5.33139        -6.15231         2.08383
LJ           3.13576        -4.12412         1.61795
LJ          -5.01836         4.33567        -1.90092
LJ           6.16488         1.85683         6.21406
LJ            4.0297        -2.36098       -0.437886
LJ          -4.84827         5.58759        0.315029
LJ          -5.54839        -2.48263        -6.20177
LJ          -1.87001         1.29209         -2.7695
LJ          -2.37174       -0.121549         5.66753
LJ           2.82804        -2.96654         1.83734
LJ          -5.25582         3.92367         1.33468
LJ          -1.92573         1.53206          4.4709
LJ          -6.07355      -0.0612445         5.59513
LJ           5.62222       -0.724754        0.147492
LJ          -3.89508        -5.47167        -5.24432
LJ           3.91843       -0.774544        -3.10066
LJ          -1.39074        -5.46453         3.27398
LJ          -5.16533        -2.27689         3.26184
LJ           3.48499         4.51115        -1.67163
LJ           0.51701        -5.71914          3.1214
LJ           1.54192        -4.32522        -5.43821
LJ          0.757674        -1.54638         1.62824
LJ           4.19969        -2.97167         2.12502
LJ           5.89382        -5.68449          1.5149
LJ          -1.65599        -3.47789       -0.786822
LJ          -5.38887       -0.720481        -6.16416
LJ           4.46325        -1.67253         1.34522
LJ          0.494151         2.40186          2.7018
LJ           2.09201         3.64509          2.7929
LJ         -0.862771        -4.29339         1.06644
LJ          -1.47946         4.02674        -2.44974
LJ           3.33512        -2.03726        -1.07798
LJ          -4.76855        -6.22707         5.06012
LJ         -0.838976         4.77299         6.04669
LJ          -3.65667        -3.11582         5.80683
LJ         -0.320218        -5.55759        -5.72725
LJ           3.82464       -0.154403         3.94726
LJ          -3.15168        -1.42518        -3.60108
LJ         -0.776598        -2.88024         1.77791
LJ           0.81872         6.35151         -6.2713
LJ           4.22323        -5.81986        -3.90003
LJ           4.56503         2.36608        -3.07344
LJ          -1.76517        0.241017        -5.70893
LJ           6.44937        -1.05061        -2.00329
LJ           2.20973         4.82067         5.93608
LJ           -5.7526         4.59072        -2.72518
LJ          -4.54408         1.93973        -3.96757
LJ         -0.258161        -1.19742        -2.71796
LJ           -2.8107        0.906235        -3.10314
LJ           2.35441          5.9191         2.13684
LJ          -2.89654        -5.70604         0.44742
LJ          -1.94584       -0.228982         3.39219
LJ          -5.16555         0.21059         2.55608
LJ           1.49058         2.74413        -3.10218
LJ           1.83394         3.64961         5.14882
LJ           2.73772        -1.26858       0.0326137
LJ           4.28239        0.593287         4.85605
LJ           3.73647        -4.14516        -4.60499
LJ          -4.23585        -5.44464         4.58401
LJ          -5.63385         4.45532         -5.6898
LJ           2.97444         3.66046        -4.27125
LJ           6.19383         2.85834        -3.97332
LJ         -0.461013        0.876574         4.24144
LJ          -3.77782         1.56829         1.62262
LJ          -2.19332        -6.08184        -4.09442
LJ         -0.083106         2.44942         3.74669
LJ          -0.59731         4.74263        -2.61782
LJ           1.01159        -3.72158         1.87172
LJ          -1.95251        0.758051         3.09684
LJ           3.15818        -1.53639         3.90809
LJ           6.06444        0.910196         1.26323
LJ          0.727056        -3.43357        -4.60516
LJ           5.40727        -1.39603         4.60182
LJ         -0.189028        -1.10119        -5.91764
LJ          -1.53004         4.25641         2.95257
LJ          -2.01315         2.91249         6.46264
LJ           1.52999        0.148806        -3.82813
LJ           1.66393        -3.42844        -2.14692
LJ         -0.367894        -3.34774        -2.01551
LJ          -1.09125        -4.07159         -1.5691
LJ          -1.97906         2.56457         5.46634
LJ          -5.34666        -4.33642          5.7934
LJ           4.21804         3.48833         2.67585
LJ         -0.383813        0.906739         6.34468
