108
#Comment!
LJ          -4.45761       -0.466388         5.68444
LJ          -1.67126          4.1435        -5.83282
LJ          -5.27071         6.43813         5.23393
LJ           1.95732        -5.69876        -2.59599
LJ           1.71471         2.24353         4.28011
LJ          -3.98779        -4.01124         3.09448
LJ           5.59094        -3.79641        -1.62867
LJ           2.01041        -0.98075         -2.8902
LJ          -2.45312         3.48227         4.06924
LJ          -2.80875        -4.22869       -0.499318
LJ           2.28511        -1.10152         3.14371
LJ          -0.28578         4.45456        -5.54498
LJ           1.90169        -6.14163         5.03339
LJ         -0.607105         2.78688         6.39081
LJ          -4.28114        -6.08557        0.141796
LJ          -6.43508        -5.62018       -0.837517
LJ          -1.83704        0.541702        -3.07463
LJ           3.26671         6.28969         3.08555
LJ         -0.236383         3.56447         -4.9096
LJ            3.9996        -1.81285        -2.95486
LJ           4.27079        -2.79107        -3.90717
LJ         -0.272384         5.33035        -2.85802
LJ           5.48925         5.78489       -0.242307
LJ          -3.10511        -2.47164       -0.842255
LJ           5.79543         4.38107        -3.94771
LJ           2.43223         6.06808         4.75391
LJ           5.51915        -1.80858        -6.27882
LJ           5.79106         4.42282         6.37873
LJ          -2.14777       -0.338888        -1.88613
LJ           4.97935         4.28827         3.08567
LJ          -4.43724         4.49848         6.32864
LJ          -5.85555         1.53579        -4.99938
LJ           1.20888         3.49054         1.15661
LJ          -2.03717       0.0247955          -4.542
LJ           1.50367         3.39887         6.41856
LJ           1.19786          6.3781        -1.16824
LJ            -4.295         1.45459        0.560533
LJ          -3.90192          4.7922        -1.36983
LJ           -3.1593        0.223874       -0.547352
LJ           -5.7985        -1.50261        0.909439
LJ            1.5195        -4.47037         2.70287
LJ           1.07634       -0.725241         6.39004
LJ           -5.4153         4.04013        -2.72867
LJ          -1.50885         6.23152         1.79233
LJ          -5.27356        -2.48648        -2.51501
LJ           1.39425       -0.274697         1.28467
LJ           2.67636        -2.64062        -5.63285
LJ           1.61727        -4.43969        0.596037
LJ           1.57948        -4.15175         -2.2071
LJ          -5.68644         1.77994         5.48228
LJ            5.5407        -4.16465         1.93454
LJ           4.88404        0.203266        -6.19679
LJ          -1.72744       -0.136525         1.92259
LJ          0.213463         2.46402       -0.383468
LJ           1.48195        -2.68094        -1.05399
LJ          0.690486        -5.70246         3.29913
LJ           2.27172        -3.92772        -5.60859
LJ           5.15884        0.486772        -1.47287
LJ         -0.280589        -3.52542        -3.69471
LJ         0.0583919       -0.888779       -0.733574
LJ          -4.72025        -6.29176        -3.20541
LJ           5.97001          4.7974        -3.08209
LJ         -0.634142         5.30662        -1.46271
LJ          -5.31647        -3.07212        0.394799
LJ          -3.43313        -1.96475         4.71805
LJ           1.51746         1.17498         -2.7893
LJ          0.110569        -1.27036        -3.02586
LJ           2.56912        -3.86611        -2.86679
LJ          -1.91328         4.78418        -3.14014
LJ           -1.7867         5.88278        -1.54759
LJ          -1.00077         2.71601       -0.242503
LJ           4.81062        -6.18845        0.135643
LJ          -4.94377        -5.60293         1.78122
LJ          -5.30122        -2.62362        -5.21614
LJ          -5.19365         1.53525         2.98628
LJ          -6.11469         3.58158        0.143825
LJ           3.75353         1.63905        -6.29823
LJ          -1.20794        -1.97769         5.85317
LJ          -4.56067         0.56369         4.61835
LJ           2.71601        -3.63643         2.55596
LJ          -2.67077         3.55532        0.445402
LJ           5.84598        -5.71465       -0.153288
LJ           5.35028        -6.38857         2.66222
LJ           3.17844         4.11279        -6.23599
LJ           5.30458        -3.67387          3.4347
LJ           5.59632         1.56639      -0.0487918
LJ          -4.05416         1.18223         4.04996
LJ           4.56903         1.89216        0.760752
LJ          -6.26579         2.46394        0.717793
LJ          -4.36044         5.35409         5.26292
LJ           3.95453        -5.19739         4.18284
LJ          0.458839        -2.68029        -3.35187
LJ            4.1066        -3.77896         2.08104
LJ           5.01845         2.11668          1.8459
LJ          -2.54771         5.27902        0.927556
LJ           3.57759        -4.15922        0.122505
LJ           3.88157         3.99271        -1.42614
LJ          -4.25295        -6.04704         4.08605
LJ         -0.892193         3.88948         5.82313
LJ           1.79101         2.10503       -0.267589
LJ          -1.96436         2.55579         2.24975
LJ          -2.94901         3.59845         1.52583
LJ           1.88097         3.17206        -3.23515
LJ          -2.19948        0.721408        -6.03055
LJ           3.88446        -6.22608         4.40737
LJ           6.15647       -0.432769         2.93649
LJ           -2.4854        0.824643          3.1531
LJ           5.85008        -2.79504         6.04809
