108
#Comment!
LJ          -4.45861        -5.84668        -5.99053
LJ          -2.39966        -5.42279        -4.42895
LJ          -6.02535        -5.10957        -6.23453
LJ           -1.1426        -6.12131        -4.28441
LJ          0.689126         5.31498        -5.80435
LJ           3.84474        -3.87319         5.27932
LJ            -4.466        -5.25377        -3.12079
LJ         -0.154361        -5.73918        -3.40079
LJ           5.64701         5.96002         6.19095
LJ           1.69731        -3.80913        -4.54523
LJ            1.6796         4.66927        -6.00495
LJ           3.01524         5.68733        -4.28096
LJ            4.3291        -1.91084        -3.84266
LJ          -2.85504         1.21104         6.29074
LJ          -5.84024         3.11809        -2.28803
LJ          -5.00232        -3.33295        -2.89945
LJ          -1.66028      -0.0114951        -5.68342
LJ           1.22649        -3.26838         5.67039
LJ          -2.13613         2.74598          -5.106
LJ           1.39337        -2.28973        -3.63746
LJ           3.26575        -2.27827        -5.91488
LJ           3.26288         3.02408        -4.64664
LJ           3.79458        -2.60647        -2.16543
LJ          -6.02804        -2.30665        -2.80783
LJ           5.73484         2.18462        -6.01847
LJ           -6.3383         4.71429         5.70648
LJ          -5.59382         2.50793        -4.66743
LJ          -4.35662         3.60718        -4.14604
LJ          -2.71163        0.373743        -4.75086
LJ          -3.37351         3.50495        -6.31194
LJ          -4.11784         5.98357        -5.50779
LJ          -2.94374         2.72603        -3.98316
LJ            3.0216        0.582855        -2.23834
LJ           1.98053         2.18481        -6.17874
LJ           1.10593         4.31385        -5.17221
LJ           2.12462         5.55668         -2.9072
LJ          -4.28198         4.34519       -0.860653
LJ          -4.83442         -6.0333        -2.47598
LJ          -5.43776         5.16363       -0.362943
LJ          -4.93944         -4.7364         0.84056
LJ         -0.982163        -5.56901      -0.0786097
LJ          0.457687        -2.70282        -3.91015
LJ          -3.83236       -0.297457        -1.31397
LJ         -0.809093         -5.8804        -2.10694
LJ          -1.29347        -5.87959        -3.07134
LJ          -3.93444        -2.72157        -1.22846
LJ           2.55206        -4.43431         -1.5352
LJ           3.41234        -5.69309       0.0889861
LJ           4.61734         2.64132        -2.06939
LJ          -2.83051         1.61389        -4.25571
LJ           3.91701       -0.919065        -2.65346
LJ          -6.01707       -0.717519        -3.43474
LJ         -0.496929        -3.78725         4.72646
LJ          -1.42408         2.82587        -2.90792
LJ         -0.796702        -1.15891       -0.393931
LJ           0.25027        -3.92985         2.00562
LJ           2.37366        -4.41167        -3.30876
LJ           4.67613         1.22756        -3.40919
LJ         -0.276379        -1.68412         -1.5162
LJ           2.65615        -1.17342       -0.445565
LJ           6.19536         4.93466        -1.80733
LJ          -2.67023         3.16787        -3.06236
LJ           3.05736         4.29725       -0.241777
LJ           -4.7115      -0.0405539        0.353677
LJ          -2.56433        0.769312        0.742623
LJ         -0.324414         3.26123        -3.70464
LJ          -1.32217         1.49409       -0.966457
LJ           1.10721         3.91583        -2.48206
LJ          0.655322         3.49075        -3.28624
LJ           1.83895         4.28549        -1.06095
LJ          0.586039         3.64345         1.24751
LJ            3.1194         3.92733         1.54688
LJ          -5.88173        -6.12745         2.01773
LJ          -4.86202        -3.83694         4.11673
LJ          -6.06824        -2.33382         3.85173
LJ          -4.84217         4.82216         2.95501
LJ           0.13081         4.85375         4.18759
LJ        -0.0850966         -5.5463         3.41811
LJ          0.728242        0.370875          4.3454
LJ          0.811561        -5.26064         3.87797
LJ       -0.00244621         5.21544        0.941866
LJ           4.86676        -4.99203         1.43394
LJ           3.66534        -5.13536         3.70011
LJ           3.71293          5.5118         5.34829
LJ           5.93757        -3.08945         1.95275
LJ           5.56383        -0.89038         1.72508
LJ          -5.22604         1.58184         4.48467
LJ          -6.24736       -0.243356         2.33442
LJ          -4.97114        0.516141            1.46
LJ          -1.84709        -3.96178         3.20764
LJ          0.383185        -1.16811         3.12098
LJ           1.72003        -2.68949        -5.37599
LJ           3.32749        -3.34949        0.910026
LJ           3.70501         1.16836          2.2244
LJ           5.46286         2.00869         3.79961
LJ           4.87343        -1.68573         2.24573
LJ            5.8474         1.99899        0.702314
LJ          -4.81626         5.94832         2.36957
LJ          -5.06041         2.61707         4.97767
LJ          -1.54748         2.28298         2.01848
LJ          -1.53033         0.93237         2.17595
LJ         0.0634861          5.3285         2.25615
LJ         -0.982592         3.87349         6.08903
LJ          -1.14566         1.74655        -5.87106
LJ           2.96425           3.092         2.56465
LJ           5.35238         2.38702         2.12659
LJ           0.78855         1.95766         4.11423
LJ            5.4563         0.99764         5.78981
