108
#Comment!
LJ           3.44181         3.40258          2.2122
LJ          -2.11833         1.39801         3.84058
LJ          -0.12209       -0.545151        -1.28033
LJ          0.179346        0.305215         6.37623
LJ          -2.17051         4.67032        -1.22752
LJ          -4.78422        -6.12336         3.39589
LJ          -1.69503        -4.14451        -2.61646
LJ           2.68753        -6.15979         1.73435
LJ         -0.748525         5.48457         5.77766
LJ           2.92135        -3.46952        -5.84903
LJ           4.10237         5.66227         5.48039
LJ           4.81191          2.4781        0.748519
LJ        -0.0301972         3.07568        -5.17265
LJ           1.35857       -0.972974         5.11786
LJ           2.22543        -5.11093        -1.05602
LJ           -5.0412        -4.06495        -2.80528
LJ          -0.87289        -2.88947        -1.30601
LJ          -6.42615         1.06188         3.98332
LJ           1.51991        0.822649        -1.97303
LJ           1.67232         1.22591         1.68099
LJ          -2.25229        -3.95714         2.18386
LJ          -2.38166        -1.96944         4.74764
LJ          -4.68123        -1.29425         1.87462
LJ          0.792491         4.43775      -0.0494639
LJ             3.213        -3.54256       -0.997713
LJ          -3.56875          2.3297        -4.67019
LJ          -5.35519         4.63847        -5.42141
LJ          -4.69673          3.9651         4.00644
LJ           3.61657         0.92133        -2.91867
LJ          -4.65008       -0.215188        -1.63581
LJ           3.73097        -2.90052         6.04324
LJ           6.26651         3.62965         2.50088
LJ           5.36043         2.83831         5.58594
LJ         -0.409121        -2.11658        -3.05127
LJ           5.22214          1.4042        -5.08295
LJ           1.69495        -1.36286        -3.44008
LJ           6.26359         4.28912        -1.99024
LJ           5.38037        -4.10257         4.03583
LJ         -0.785353        -4.85646         1.86968
LJ          -5.69585         -3.2833         5.22434
LJ          0.606471        0.984966       -0.435719
LJ         -0.450851         0.44006         4.59721
LJ          -1.20556       -0.857457          4.5484
LJ           2.75599         4.88627         3.70466
LJ           6.37067        -4.61031         5.72738
LJ           4.75275        -3.34791         2.88284
LJ           2.22219         5.13959         1.71691
LJ            -2.015        -5.49965         -6.1795
LJ           4.60607         1.05466        -1.00753
LJ          -1.40803         1.88598         6.23796
LJ          -4.41429         5.92092         4.25476
LJ           2.21534         3.59246        0.962958
LJ          0.748581        -5.22472       -0.951929
LJ           5.24095        -3.10002        -2.47341
LJ          -4.74688          5.2039         3.37616
LJ          -2.78311        -1.43595        -2.85389
LJ          -3.52058         4.39934         1.70647
LJ           6.18938         4.45555       -0.621978
LJ            3.7507        -5.67075         5.14015
LJ          -3.71333         -3.6309         2.67198
LJ           1.64254         -1.0048         2.64113
LJ          -5.10085        -2.77899         2.13337
LJ           6.37539        -3.56192         4.29132
LJ          -4.94824         2.04208         2.36169
LJ           1.42365         1.41548        -4.65212
LJ           2.57015        -5.11677         4.02334
LJ           5.64862         5.14196        -2.23537
LJ           -6.1084         1.60808         5.60288
LJ           3.73937        -1.64455        -2.28052
LJ         -0.992522         4.51909        0.586251
LJ           5.06785         5.05317        0.105954
LJ           5.61614          1.9052        -1.02997
LJ           2.23398        -6.41022         0.18031
LJ          -4.20804        -5.66973         6.31563
LJ         -0.785156          1.8532         3.71166
LJ          -3.86656        0.357268         6.14689
LJ          -2.58229         2.00491        -4.16072
LJ           -4.7453         5.34999         1.99406
LJ           4.32664        -3.37429        0.619024
LJ          -5.21148          6.0475         5.03054
LJ           1.29998        -5.61326        -0.16088
LJ          -5.25042        -5.75019         2.55284
LJ          -3.71327         3.80394        -3.32006
LJ          -1.75617         3.42926          5.3853
LJ           2.76153         5.05744        0.486828
LJ          0.123351         2.92013          4.4107
LJ           3.20153         2.30436         1.04872
LJ         -0.956078         6.11348        -1.68465
LJ           4.12871         6.08598        -2.52006
LJ          -3.23483         4.55758         6.44814
LJ          -4.73559         3.30707         5.74347
LJ           3.27098       -0.451134         2.27473
LJ          -4.65899         5.09242         5.83202
LJ           2.16709         -1.0395         4.49672
LJ          -6.14373          2.2355        -1.61732
LJ           5.99256         2.90182         3.34328
LJ          -1.49035        -6.45142         6.24854
LJ           4.99003         4.52693         6.09666
LJ          -3.44933       -0.965207         2.46781
LJ           5.84402         -5.5511         4.41244
LJ            3.0758        -1.07061       -0.260928
LJ          -5.59698         5.82388        -1.76908
LJ            3.6512         2.13854         3.68717
LJ          0.139172       -0.333925         3.06121
LJ          -3.83461        -2.40311         3.42272
LJ          -6.04642        -2.12766        -4.48101
LJ           4.15828        -6.21439         2.45103
LJ            -4.284        -3.75559        -6.12926
