108
#Comment!
LJ           2.84416         0.53344         1.20482
LJ           2.39912        0.484622      -0.0534879
LJ          -2.95021       -0.468001        -1.53154
LJ          -6.39507        -4.42925        -0.86895
LJ          -1.82064        -5.43029         2.14105
LJ           4.47526          -2.918        -1.96429
LJ          -3.52141       -0.638855        -4.05143
LJ          -5.83983        -5.20164         -2.2802
LJ           3.41949         2.20702        -5.21183
LJ           6.09914         4.06735       -0.169389
LJ          -2.03468         1.35256         5.07228
LJ          -5.40499        -5.41155          4.2602
LJ          0.134076         3.65375         1.34679
LJ           4.18894        -3.21975         2.15934
LJ         -0.340896        -2.54801        -2.60882
LJ          -1.11955        -5.87743         3.61184
LJ          -4.66233        -2.90026        -4.41508
LJ          -2.59343         2.97877         2.29463
LJ           6.20373        0.293845        -1.58758
LJ          -1.74199        0.552683        -3.76983
LJ          -6.01687        -3.33912        -5.14489
LJ           4.81281         -6.1436        -3.42812
LJ            5.3089         3.03739        -4.79261
LJ          -4.37864         1.48829       -0.379569
LJ            2.2481        -5.48845        -3.32868
LJ          0.255336         3.21876        -1.58665
LJ          -4.81762         1.48954         3.68438
LJ          -2.44881         3.54432         5.88397
LJ          -4.66422        -6.35845         3.50493
LJ           2.85456          5.1514         1.53257
LJ          -3.56809         1.52864        -5.36627
LJ          -5.08532         3.57505         5.67322
LJ          -1.61027        -3.47535        -4.77953
LJ           4.62491        0.373397        0.764045
LJ           4.91442       -0.643105        -3.91752
LJ           5.94225         3.64603         4.28217
LJ           1.36761         3.79384        -1.75905
LJ         -0.160862          3.0507        -2.60505
LJ          -5.50642        -2.98403       -0.343117
LJ          -5.06471         3.53318        -2.00247
LJ           4.75619         0.46532         4.63033
LJ           3.95187         2.15085        0.546331
LJ          -3.39357       -0.246703        -5.67757
LJ           1.50636        -4.06561         6.34818
LJ            1.8726        0.408638         3.27434
LJ          -4.71347         2.43496        -3.81043
LJ           4.18916        -2.37441        -5.65257
LJ           4.96017         2.54093         1.02098
LJ          -3.42151         4.92578         4.23374
LJ          -3.29322         1.66689         5.54025
LJ          -4.53926      -0.0495461        -3.79098
LJ         -0.938828          3.7145        0.288702
LJ            5.3258         1.59344          -5.203
LJ          -4.08117         4.96013       -0.860867
LJ           5.99093        0.403009        -3.05594
LJ          0.823581        -2.39917         1.16693
LJ           2.12254        -5.64219       -0.878081
LJ           5.47791       0.0758886         1.14497
LJ           3.72798        -1.11526        -5.39848
LJ           4.70662         3.30944          1.6299
LJ          0.603773        -1.19759         1.69658
LJ          -2.78475         4.47814        -1.13331
LJ          -3.81419         4.15132        -3.88685
LJ           4.60452        -1.38342        -5.75111
LJ           3.72942           4.737        -1.88108
LJ          -1.85782        -4.55433         6.10198
LJ         -0.267168         5.62109         1.38746
LJ        -0.0300186         1.17643       -0.622277
LJ          -4.29765         5.88995         2.15548
LJ          -2.00784        -6.43428        -3.90408
LJ          0.160322         1.87714        -4.43008
LJ          0.777875        -5.38882        0.022604
LJ          -5.75837         -6.0766        -4.18407
LJ             4.315        -4.46097        -3.55166
LJ          -2.69322         3.42966         1.18302
LJ          -5.52613         1.14783        -1.28435
LJ         -0.765615       -0.924054         1.47558
LJ           2.77116        -4.49872        -1.19008
LJ           -2.6015        -3.97828         3.69661
LJ           5.72945         2.21747        -2.36609
LJ          -4.25606        -3.10291          4.6659
LJ          -4.90102        -5.24455         5.48448
LJ           1.43434        -2.25255         3.71703
LJ          0.371539       -0.840254         3.92977
LJ            2.7675         1.56425        -6.12765
LJ          -2.80694         1.50757        -2.78588
LJ           5.99648        -1.94313         2.92154
LJ          0.498558         -1.8997         3.66722
LJ           2.27169           6.218       -0.379825
LJ           3.56192        -5.06834         1.01556
LJ          -5.32932        -4.27705        -3.20013
LJ          -3.29815        -2.15901        -1.91212
LJ          -4.06649          1.9996        -1.91301
LJ          -5.25754         1.13089         2.78342
LJ         -0.478263        0.282914        -4.53421
LJ           2.30472        0.773927        -4.20391
LJ           5.68509         4.02485        0.952189
LJ           1.34464         1.56652         3.90665
LJ         -0.454205        -1.14573       -0.166649
LJ           5.90131        -3.48493       -0.943975
LJ          -5.63359        -1.42811        -3.52988
LJ           1.52896        -4.58392        -4.22045
LJ           2.27003        -5.02901        -1.99519
LJ          -1.28872       -0.907679         2.66839
LJ          -4.55437         1.20415        -2.66888
LJ          -3.25563      -0.0537389         1.98647
LJ           -6.3466         2.38893        -5.95905
LJ          -5.52702        0.240529        -3.36551
