108
#Comment!
LJ          -3.69568         2.94857        -2.49382
LJ           2.95657       -0.278088         1.37442
LJ          -4.40025        -3.63769         3.88765
LJ           0.71086        -1.31122        -2.00512
LJ           -4.7628         2.75571        0.743901
LJ          -1.13887       -0.693386        -1.76368
LJ           3.74783        -5.99572        -4.23952
LJ          -5.29915         1.90321         4.86053
LJ          0.633746        -2.17067          4.6723
LJ           2.11961        -2.79543        -5.77942
LJ          -2.56006         2.70363        -3.32596
LJ         -0.244994         2.53954        -1.63621
LJ          -1.25228         3.80999         2.42368
LJ           -5.0352        -4.26651        -4.01502
LJ           3.04295        -2.95824         3.07877
LJ          -3.32926         1.73912         4.14981
LJ          -5.50704       -0.936891        -2.12494
LJ         -0.715226         5.10412        -4.92357
LJ           6.40085        -3.08045         3.56838
LJ          -5.62849         1.85675        -0.33598
LJ            4.8214        -4.55083         5.81174
LJ            2.4168         5.18535        -4.66079
LJ           1.85461        -2.61128        -3.47676
LJ           1.09833         1.17806        -4.96589
LJ           -5.6184         3.10922       0.0496626
LJ         -0.557894         2.28249          4.9468
LJ          -5.12293       -0.394337        -5.48553
LJ          -1.53619        -2.29792         5.12861
LJ            -4.213         2.30079       -0.267602
LJ         -0.318786        -2.69983        -4.04253
LJ          0.773077       -0.535051        -2.64272
LJ          -3.73875       -0.460711         2.73655
LJ          -1.24491         1.88457       -0.255468
LJ          -4.30018         3.20213        -1.65216
LJ           4.14097        -5.07648         3.17118
LJ          0.231011        -3.24542         -5.4609
LJ          -1.11678        0.403479         1.20142
LJ        -0.0346631        -2.61585          3.4647
LJ           1.01833         4.00299       -0.255463
LJ           5.47908        -3.79329        -2.51707
LJ           4.58809         2.78679        -0.18391
LJ          -5.79012         -4.9493         2.90141
LJ           3.75898        -2.27822         1.40948
LJ            5.6652         1.11397         2.34864
LJ          -2.51952         5.01954         4.51325
LJ          -6.30015         4.36359        0.631682
LJ           1.85513        -2.30865         4.37531
LJ           2.60641       0.0905729         4.06951
LJ          -4.31586         3.79164        -4.00834
LJ          0.266001         1.27282         4.59829
LJ           4.06285        -3.77159         6.01589
LJ         -0.490732        -0.88996         2.37071
LJ          -5.34998         -2.8045       -0.209198
LJ           4.69253       -0.692944        -2.14699
LJ          -4.99278        -4.78579        -1.14526
LJ           -5.5189         3.17932       -0.852196
LJ          0.801576        -3.42402        -3.46683
LJ         -0.832732        -4.39841        -5.91292
LJ          -3.22682        -1.86365          1.8479
LJ         -0.217326        -3.77039        -2.68347
LJ          -5.14409         2.80863         3.05897
LJ          -2.46116         2.16072         5.85543
LJ           5.11712        -1.21442        -4.95015
LJ           5.95628        -6.19799      -0.0611251
LJ          -2.97445        -3.36777        -5.97819
LJ         -0.246734        -1.97343         1.35855
LJ           5.96009        -3.91628        -1.63827
LJ          -2.73447         2.29707         2.47965
LJ          -2.92028         5.40483         3.60645
LJ            2.0388         4.35503         5.38752
LJ            -2.112         4.86372        -2.21773
LJ           -6.3461         1.83731         4.81459
LJ          -0.94237        -4.20441         0.71811
LJ          -1.75023        -1.81254        -6.22018
LJ          -2.67989         2.73438        -1.97928
LJ          -2.06676       -0.612336          -4.423
LJ           5.09934          2.5499         5.23578
LJ           -1.0148         2.68511        -5.88419
LJ          0.673532        -1.65391        -2.92574
LJ           5.13067         3.68798           1.555
LJ          -3.54517        -1.88469         2.94834
LJ          -4.84791         2.42123        -4.42157
LJ          -2.04836        -3.15872         4.84316
LJ           3.07711         1.04984         1.06512
LJ          -6.28286         4.96975         5.01656
LJ          -5.11964         1.78058        -5.51026
LJ           5.21171        -4.98179         4.59995
LJ           6.12532        -5.66119         5.77515
LJ           3.52281         5.95057         2.57154
LJ          -5.97176         4.04204         2.42312
LJ          -5.37659        -1.38899        -5.04328
LJ          -5.74117        -2.67721          6.2519
LJ          -5.26138       0.0398463        -2.01128
LJ           2.97579        -3.61686        -4.98439
LJ           5.48188         4.59702        -4.63041
LJ           3.00096        -3.54711         4.95903
LJ           3.64474         1.95623          5.2838
LJ          -3.46221         3.17285        0.409441
LJ            3.0278         5.35005        0.319109
LJ           3.60654         4.30238        -6.07665
LJ          -2.04543        -5.96575         -6.2434
LJ           6.10309        -5.65909        -5.54475
LJ          -6.10562         4.38553         6.35502
LJ          -1.59376        0.158939       -0.694514
LJ         -0.228005         1.93972        -3.40071
LJ          -6.39195        -4.89234         4.64712
LJ           1.17527         4.08175           3.357
LJ          -2.96282         4.61857         1.45334
