108
#Comment!
LJ           1.09524        -5.31894         4.66658
LJ           5.17559         5.22601         4.52719
LJ         0.0451072         5.04494          3.7829
LJ           4.62227         5.98386         1.95344
LJ             1.581         0.92334        0.782144
LJ           3.98236        -1.15331        -5.43046
LJ          -2.49336        0.183923         6.26023
LJ          -4.97921         -4.1024        0.439873
LJ          -5.81171        -3.82097          6.1976
LJ         -0.833023         6.09436         1.57244
LJ           5.74634          4.5878        -2.48058
LJ           -1.1669        0.686002        -1.04161
LJ          -5.41087         5.34654        -3.84774
LJ          -5.93257         -1.0968         2.20142
LJ           3.00191        -3.89365        -2.22266
LJ          -1.74235        -1.30914        -2.96289
LJ          -2.83616        -1.14471        -6.13189
LJ          -6.05699        -5.43631         6.32415
LJ           6.36154         5.27524        -5.15107
LJ          -2.33886         2.46449         5.49036
LJ          -4.42586        -1.88619        -3.14096
LJ         -0.260085        -2.36975         4.16056
LJ          -2.46337         3.08509      -0.0929424
LJ           -4.8369        -4.36815         5.25078
LJ          -6.24353        -3.63109        -4.83731
LJ           -2.4367        -4.67013         2.77346
LJ          -3.01392        -4.71212         5.06706
LJ           2.49094         2.97579         5.79108
LJ          -4.10583         2.59784        0.440582
LJ         -0.298272       -0.620102         3.11869
LJ           5.35102         -5.5094        0.879116
LJ          -2.34905         1.96484         3.04115
LJ           3.22305          -1.683        -2.30287
LJ           3.95359         4.01992        -2.82774
LJ           2.42002         6.24007        -3.30126
LJ          0.254324         5.02756         2.58016
LJ          -4.58095          4.6545         5.78507
LJ          -0.79013         -1.0033        -4.41069
LJ          -4.95455         4.96642         4.37862
LJ           1.33122        -4.24517        -1.48546
LJ           6.01822        -5.66583        -2.28857
LJ          -1.29702          6.2786          3.1101
LJ           5.12069         3.65515         4.98401
LJ          -1.24159         5.00735         3.04548
LJ          -2.62666        -2.49607         1.80791
LJ          -6.04384         2.81736        -2.64012
LJ          0.469173        -1.16684        -2.64708
LJ           5.96376       -0.712825         3.44646
LJ           2.52315        -4.79279        -2.19833
LJ          -2.39928        -1.92517         2.96132
LJ          -5.31894        -1.91903        -1.66148
LJ          -5.38152         4.22892         3.56058
LJ           4.60712        -2.85757         5.20901
LJ            -2.403         4.18724         3.20673
LJ          -5.23057         6.45927         4.90376
LJ           1.21006        -6.31586         5.84773
LJ           4.85805        -4.25763         1.07371
LJ           2.74554         1.34279        -4.52848
LJ         -0.186714         1.90075       -0.188342
LJ         -0.204518         5.25124        -6.24261
LJ          -5.22103        -3.08082        0.227199
LJ           4.08064        -3.71436         4.68433
LJ          -3.74583       -0.775605        -1.40548
LJ          -3.76382        -3.02165         1.70771
LJ          -2.52825        -3.66999         5.35064
LJ          0.219206        0.691253         2.70212
LJ           1.34138          3.4318         4.09347
LJ           1.26584          5.3859         2.12019
LJ           5.64105         1.70696        -4.94963
LJ            2.1253         1.32356         2.01635
LJ           5.02846         1.70632         5.76003
LJ           4.28908          4.8097        -4.11503
LJ           1.61401         2.60287        -2.74119
LJ          -1.59158        -5.81235         5.31586
LJ           3.42065        0.390382          3.5028
LJ          0.966201         5.54355        -6.21153
LJ            2.3025         2.07378         5.38316
LJ           2.69834         4.88368         1.72543
LJ          -5.95273       -0.452071       0.0637667
LJ          -3.48897         6.19495        -4.09848
LJ           6.33863        -1.89921         1.36755
LJ           -4.0856        0.728293         3.04167
LJ          -2.56043         1.76026       -0.143828
LJ           6.38546       -0.126249         -3.7142
LJ          -5.58587         4.73574         1.27254
LJ          -2.48141         1.02597        -3.23757
LJ           6.41264          5.6713         3.89943
LJ           4.66748        -3.69413        -4.72553
LJ           1.70974        -2.52914         1.03434
LJ           2.20008        -2.73201       -0.699165
LJ          0.443577         4.97805        -2.29415
LJ          -1.93055        -4.44585        -3.90094
LJ          -6.43232        -6.08605          1.9519
LJ           5.77608         1.03588         1.45498
LJ           1.34002         2.15764         2.75157
LJ          -4.39811          1.3107        -3.30294
LJ           5.44945         1.30785         -1.9463
LJ           4.18976         4.59033         3.18349
LJ          -3.36349        -2.87615         4.39757
LJ           5.49771         2.55224         4.65324
LJ          0.508572        -3.18477        0.502387
LJ           3.78963        0.718212         1.97643
LJ           1.05197         -2.2745         3.71096
LJ          -2.98973        -1.74139         -2.5012
LJ           3.67344        -6.17843        -5.97944
LJ           6.23686       -0.982204        -5.42352
LJ           3.54327         1.45657        -5.38095
LJ          -2.61721        -1.10994        -5.00532
