108
#Comment!
LJ          -2.18501         1.25075         3.74583
LJ           -5.2883          2.4877        -6.16375
LJ          -4.98844        -6.32158        -5.79668
LJ           5.23508          1.3837         1.11988
LJ          -1.66866        -2.97948         5.02619
LJ          -3.25694         1.72617        -4.70123
LJ          -6.05163         2.47772         1.20171
LJ          -3.13424        -4.89034        -3.38724
LJ          0.441103         4.91303         1.32555
LJ          -1.48612         3.20051         3.63525
LJ         -0.996378         2.16136        -1.84633
LJ          -2.34681         2.62516          1.8683
LJ         -0.976272         6.18923        -2.44742
LJ          -1.98822         1.35027         -3.4148
LJ          -6.21715        -2.56445        -1.31534
LJ           1.02991         3.00517        -3.09728
LJ         -0.926103         1.52213         4.86155
LJ          -5.72361         4.45271        -3.04481
LJ          -6.31268        0.259905         4.32413
LJ          -1.39826          2.6529        -3.74709
LJ           1.85837         1.11375         2.03887
LJ          -3.81179          -2.303        -3.96533
LJ          -2.70524        -6.35123        -4.29298
LJ            5.6993        -2.23832       0.0137612
LJ           5.97987         4.18647       -0.148687
LJ           1.54454        -5.36837         3.69953
LJ           1.74302        -6.02415        0.663204
LJ          0.254316         5.73263         4.36981
LJ          0.484886        -2.86149          5.5564
LJ           5.79893        0.774777         3.58239
LJ          0.547697         1.39661         1.30265
LJ           3.36054        0.877122         2.30562
LJ           4.69202         2.50857        0.847463
LJ           1.37691         4.97056        -5.57304
LJ           5.46901         5.06423        -1.83797
LJ          -1.92122        -1.57653         -4.1658
LJ          -3.90922         4.10965        -1.24722
LJ           3.70981          5.8371       -0.573728
LJ          -4.18012        -6.08935        -5.39635
LJ           3.63114         3.71816        -1.48409
LJ           6.37972        -5.81037         2.23279
LJ           3.45294         4.86237          5.0248
LJ           -6.2241         3.65301        -5.20842
LJ           4.67458         3.49616        -6.04071
LJ         -0.487911        -2.78019         4.46526
LJ           4.08707       -0.137155          4.0209
LJ           5.97383         4.37358         5.64703
LJ          0.839912         3.28791         1.64901
LJ          -2.88974         5.56146          -6.318
LJ           4.67035         4.34669        -1.17903
LJ            4.7797          6.4156         3.46805
LJ          -0.41251         4.13187         2.39476
LJ          0.885362        0.891057        0.251039
LJ          -2.36335        -1.54138        -2.10301
LJ          -5.21859         3.94525        -4.02253
LJ           5.25123         5.41359        -6.02946
LJ          -5.84207          5.2257         2.09194
LJ          0.753791         -5.8692          4.8517
LJ         -0.459842         1.67985         3.19296
LJ          -2.96985         6.22428        -5.50128
LJ           6.11255        -1.03671         6.16366
LJ          -0.40626         5.98911         1.71102
LJ          -3.57298       -0.764508        -2.37796
LJ           3.45866         2.89534         3.93639
LJ           2.46261         5.08397         2.90408
LJ           2.46416         3.59691         5.13239
LJ           1.39516        0.434866          5.4555
LJ          -1.68795         3.80859        -2.53174
LJ         -0.728638          1.7326        -3.89925
LJ           5.67021        0.740458        -4.89422
LJ        -0.0309186         1.72071        -5.99555
LJ           2.08544         2.47604        -0.30374
LJ          -1.28386        0.743753        -2.63419
LJ           1.33166        0.793383        -1.29566
LJ           4.73553        -1.79763         1.31928
LJ          0.460423        -4.30219         1.51418
LJ           4.64186         5.27882         3.04388
LJ           2.32887        -1.70875           6.273
LJ           5.48049        0.122689         5.17651
LJ            3.3571        -1.24438        -2.41429
LJ          -1.95812      -0.0291625         5.66836
LJ           5.70587         3.41881        -6.28704
LJ           5.20019         3.75016         3.30079
LJ          -6.26374         -5.6924        -2.38967
LJ          -1.96124        -3.53877        -1.84622
LJ            3.1264        -2.68798        -3.83597
LJ          -5.99119         -0.7115         4.83141
LJ          0.197722         2.18301        -1.86937
LJ          -4.38569        -4.18057         3.93301
LJ           6.31939         2.99511         2.08402
LJ           2.66892         5.95775        -1.58248
LJ          -1.39656        -6.22396         1.50463
LJ          -3.97277          4.6376        -5.26194
LJ          -1.14697         1.14137         5.98155
LJ           5.98045         1.74175      0.00139619
LJ          -5.13575         6.34571         3.88751
LJ           6.05556       -0.769643        0.962583
LJ           1.29912        -4.17269         2.28924
LJ           -0.9482       -0.845448         5.31111
LJ          -3.19755         4.69349        -3.79919
LJ           5.06527       -0.707283        -3.29114
LJ            4.4358        -5.13466         1.78495
LJ          -4.22096        -2.26141        0.323817
LJ          -3.57504        -2.07896        -2.24381
LJ         -0.407738         5.34739        -2.45433
LJ           5.55557        0.070568        0.341985
LJ          -1.76809        -1.52305         5.66265
LJ          -1.03954        -2.62534        -3.09327
