108
#Comment!
LJ          -5.48717       -0.346575         1.90676
LJ           5.65873        -1.64916          2.8584
LJ          -3.77049        -2.49356        -6.14955
LJ         0.0799977         4.54172        -5.60358
LJ          -2.87589         6.14567         3.57016
LJ          0.765737         -5.5282        -3.80055
LJ           6.28316          4.8969         2.21227
LJ          -5.78831         4.06891         4.23937
LJ           3.34902       -0.923122         4.23845
LJ           -3.6332        -5.36889        -5.96162
LJ           0.32504        -5.78886         -5.0582
LJ          -4.28708        -1.41551        -4.31142
LJ          -3.60997         4.92547         2.80096
LJ           1.60768         4.75774        -3.79652
LJ          0.630552         5.99151        0.176234
LJ          -2.00679         4.17004         2.95625
LJ           1.43206        -2.62476         3.54858
LJ           1.41931       -0.405544        -1.15501
LJ          -6.36261        -4.16307         3.67994
LJ           -3.6798         4.81359        0.364192
LJ          0.427077        -3.46861        -4.56481
LJ           6.23453        -3.36152         6.17149
LJ           6.07774         2.97134         2.52736
LJ          -6.36634         6.28914         3.02488
LJ           -5.8925        -5.18588         4.54047
LJ           5.82694         6.23445        -4.62771
LJ            4.6722        -1.02163        -4.30005
LJ           4.17806      -0.0705746         1.14175
LJ          -4.75883         3.17664        -2.22844
LJ          -1.16402         6.34512          2.1076
LJ           1.33093        0.395828        -3.56588
LJ         -0.608795       0.0544259         1.73377
LJ            1.7429         4.69377        0.390504
LJ          0.487169        -0.45162         3.19352
LJ          -4.42883        -2.32774         -2.7398
LJ          0.995639         2.23212        -4.65533
LJ          -4.26169         2.38828         3.12985
LJ           3.06848       -0.780351        -0.87437
LJ           4.64812         6.10177       -0.657962
LJ          -3.13159       -0.761358        -1.06927
LJ           5.00118        -1.15527        -1.22151
LJ           2.11613        -6.41857       0.0264748
LJ        -0.0523779         1.39549         3.55612
LJ          -6.42064        -2.87831         3.46767
LJ           1.92254         3.54882         4.12281
LJ          0.960651         4.03485        -4.40373
LJ          -3.03945        -4.47488       -0.865859
LJ           1.07737        -0.21404         1.09833
LJ         -0.250329         5.94384        -2.22305
LJ          -1.54514        0.681309         1.77441
LJ          0.302739        -4.70627        -5.22485
LJ          -2.82668         -0.3301        -5.97382
LJ            4.5594        0.532144       -0.860023
LJ           2.75739        -4.55713        -1.65296
LJ           3.52792         4.64399         5.80763
LJ          -4.37248         2.81629         5.72174
LJ           5.79905         4.62363        -3.18303
LJ           1.26621        0.378764       0.0910675
LJ           3.70627        -2.85649        0.838793
LJ            -1.231        -5.16837        -4.57831
LJ          0.558331        -1.49709         2.22195
LJ          -2.85686         6.37791         4.71955
LJ            3.4632        -2.63622       -0.526968
LJ          -5.72429         3.15412        -3.48506
LJ           4.71774        -1.68253         -5.6982
LJ          -4.79057        0.894017         4.86138
LJ          -2.51465       -0.971115         5.00027
LJ          -5.47672        -2.43864        -2.47995
LJ          0.512417         6.16108         6.24224
LJ           1.64585        -4.31365         4.07059
LJ          -3.90707         2.11533       -0.840208
LJ           6.00907          3.8611        -3.70261
LJ          0.587932        -5.85443        -1.96443
LJ         -0.265835        0.341151        -5.14942
LJ           6.23967        -2.53245        -1.33198
LJ          -2.56562         4.73725        0.313231
LJ            4.4144        -4.19534         5.16685
LJ         -0.407499        -5.69977        -3.82623
LJ          0.308453        -1.03362        -1.94536
LJ          -3.66705         5.50846         4.84914
LJ           1.53061        -4.10568         5.86264
LJ          -5.96974        0.318412         4.97447
LJ           2.50858         -4.3428         -3.9038
LJ           4.59751        0.821258         4.52727
LJ           5.80259         3.60927         4.11185
LJ           -4.1145        -3.42713        -4.37123
LJ           4.71098          4.7062      -0.0985972
LJ          0.274795        -5.52195        0.225915
LJ           2.49494         3.30971         3.34071
LJ           2.90999         3.53788         5.16664
LJ          -2.74802       -0.656299        -3.25691
LJ          -4.76622         4.32991        -1.17089
LJ          -4.65393         5.83101        -2.88445
LJ          -1.41167        -1.90817        -5.04362
LJ           4.46865         5.75482         1.75067
LJ            1.0076        -5.22289        -4.68575
LJ            1.9004        -5.21166        -1.18246
LJ          -3.38988          2.5803         3.86574
LJ            3.7568         4.51585        -1.85207
LJ          -5.87132        -1.80357         4.52542
LJ           2.09453         5.10019        -4.58925
LJ           4.81153          1.4823         2.21303
LJ           5.29907         4.56832         3.96262
LJ          0.850841        -1.34013        -2.89131
LJ         -0.813308         3.71988          1.8821
LJ          -5.99004        -4.70375         -1.1289
LJ           3.19535        -5.45856        -1.10937
LJ           1.77362        -4.89607        -6.44587
