108
#Comment!
LJ          -3.12115        -1.44143         5.07933
LJ          -2.23328        -6.45674        -5.43303
LJ          -4.35257         3.62603        -3.43805
LJ           5.53357        0.534262        0.189461
LJ          0.769093         -3.6049          4.6689
LJ           -5.1623        -2.92929        -3.01239
LJ          -3.43684         5.99128         4.36558
LJ         -0.728194        -3.69767        -6.10362
LJ           5.36145         3.67013        -1.47311
LJ          -3.49284       -0.747777         4.68685
LJ          -4.82864         1.65345        -0.47341
LJ          -1.87849         2.94224         -6.4173
LJ           5.80382        -4.86852        -4.57746
LJ          -5.93605         4.98204        0.778887
LJ           2.99109         6.17835        -6.23588
LJ           2.36456         3.52706        -1.12509
LJ          -4.15162         -1.4428        -3.44057
LJ          -1.61644         3.15762       0.0289817
LJ           2.21068       -0.864003         3.74283
LJ          -2.67154        -5.00981        -5.49607
LJ          -6.07045        -3.44016         2.92462
LJ          -1.56563         5.64727         0.18047
LJ         -0.538179        -6.05396         5.20548
LJ          -1.50925         3.60846        -3.34721
LJ          -5.26338         -5.6564         2.38401
LJ           2.66194         -3.5389         1.45754
LJ            -6.024         3.72467         -2.5067
LJ          -5.90703        0.956013         -6.4144
LJ           4.79605        -2.36235        -1.16201
LJ          -4.24599         6.21385       -0.301874
LJ           6.37583        -3.27109          5.1183
LJ          -1.79393         2.00166        -2.94544
LJ          -4.00887          -0.637          6.2725
LJ           2.91138        -2.36587        0.321487
LJ          -5.59523          4.1238         1.49587
LJ           -1.7374         2.06572         3.59316
LJ          -5.99163       -0.786855        -5.81602
LJ           6.22601        -1.56343        0.192331
LJ          -3.63535        -6.15628        -5.36099
LJ           3.89433        -1.58306        -3.36768
LJ         -0.620403        -5.49262         3.27653
LJ          -4.06011        -1.35946         3.04587
LJ           4.87188         4.62695       -0.843251
LJ          0.882565        -4.63095          3.1181
LJ           1.98748        -2.97805        -5.16072
LJ          0.524613        -1.43581        0.858581
LJ           4.07076        -3.23727         1.37924
LJ          -6.05052        -5.03235         1.56977
LJ          -1.60375        -2.50015        -1.53461
LJ          -5.22719        -1.73394         5.89468
LJ           4.59943      -0.0746637        0.163058
LJ          0.376204         2.26718         3.19164
LJ           1.94221         3.91646         3.16461
LJ         -0.835775        -4.84932         1.64235
LJ          -2.32756         2.78402         -1.9078
LJ           2.63744        -0.65814       -0.591308
LJ          -4.06757        -6.08198         5.47955
LJ          -1.02166         3.96375        -6.14121
LJ          -4.51726        -3.92536         6.31269
LJ          0.396985        -5.66588        -5.27419
LJ           3.39305       -0.295771           3.441
LJ          -2.70004        -2.74143        -3.38841
LJ         -0.199263         -3.3917         2.71307
LJ           1.36328        -6.17469        -3.73455
LJ           3.97293        -5.02337        -2.63128
LJ          -6.39699         2.96856        -3.70746
LJ          -1.83115        0.451289        -5.21189
LJ           5.34023        0.305943        -1.85341
LJ           2.84646         4.07609         5.06646
LJ          -5.90972         6.08012         -2.7886
LJ          -5.42213          2.2044        -3.66239
LJ          -1.28777        -1.68478        -2.84057
LJ          -2.74691        0.930384        -2.66039
LJ           2.70593         4.80533         2.81164
LJ          -3.86192        -5.82417        0.553161
LJ          -2.18617         -1.1416         4.31287
LJ          -5.22803       -0.844483         2.22534
LJ             1.286         3.59903        -2.47166
LJ           1.13648         4.64389         5.57056
LJ           3.09743       -0.710568        0.780843
LJ           2.98267        0.607504         4.37684
LJ            3.2779        -3.45783        -4.19552
LJ           -4.3733        -4.39047         5.06935
LJ          -5.15723         3.95943        -5.80649
LJ           4.08392         2.76585        -4.39205
LJ           5.63224         1.08204        -3.79207
LJ          0.503894         1.17699         3.37149
LJ          -4.46851         1.42413         2.01027
LJ          -1.64256        -6.36837        -3.79853
LJ         -0.614518         2.22538         3.43752
LJ          0.284558         4.93286        -3.03071
LJ           1.72243         -3.1651         1.79266
LJ         -0.744411         1.64721         2.57692
LJ           3.88201        -1.20422          3.1021
LJ           6.21424        0.651798         1.33566
LJ           1.99799        -3.05098         -4.0137
LJ           4.99888       -0.783609         4.31381
LJ         -0.574453       -0.471043        -5.10843
LJ          -1.61072         3.01754         2.28177
LJ          -1.46414         3.28974        -5.35074
LJ           1.13503        0.481789        -4.16878
LJ           1.15134        -3.00645        -3.07598
LJ           1.05233        -4.37533        -2.12687
LJ         -0.367951        -4.63786        -1.77015
LJ          -1.86011         1.78604         6.09647
LJ          -4.25084        -4.93141         6.12972
LJ           3.02979         4.27704         2.00897
LJ         -0.259907         1.47703         5.39363
