108
#Comment!
LJ          -2.88881         2.19231        -3.20062
LJ            0.1884         1.29318       -0.807186
LJ          -6.17244        -5.06447         3.52972
LJ            3.8522         2.05961        0.345401
LJ          -4.05821          3.9879      -0.0899061
LJ          -2.70643        -5.90712       -0.677354
LJ            3.1397        -4.20077        -1.70844
LJ          -5.98132         1.22209         2.42911
LJ          0.667367        -4.79769         4.72563
LJ           1.23116        -5.41007        -4.01425
LJ          -3.34518         1.15208        -2.11739
LJ           3.51719         2.74748         1.46294
LJ          -1.93579         4.00365        0.380583
LJ          -1.86736        -1.83238        -3.99337
LJ         -0.682298        -1.39385         6.44536
LJ            -2.442        -0.49617          5.9606
LJ          -3.82224        0.603653        -5.23202
LJ          -2.17548         3.61711       -0.478476
LJ          -4.64559        -1.38486         3.46911
LJ          -5.19699        0.104796         1.79929
LJ           4.48923        -4.18592         4.09392
LJ         -0.262867        -4.06938        -2.90251
LJ          -1.41247         6.36691       -0.324743
LJ            5.7851        -1.97129        -4.07105
LJ          -5.03351         2.55866         0.57966
LJ         -0.656299        -1.61027         3.50003
LJ          -3.37094       -0.175798        -5.84065
LJ          -3.06689        -4.33938         4.70871
LJ          -6.30959         2.86211         1.61599
LJ          -1.23584         1.11268        -3.20941
LJ         0.0941791        -1.06169        -4.68837
LJ           -4.9917      -0.0471915         3.27441
LJ          -2.83004        0.297784       -0.983223
LJ          -4.98674         1.25916        -4.79229
LJ          -1.37359        -4.55627        -6.31833
LJ          -1.79439       -0.165048         4.79622
LJ          0.770218       -0.943112       -0.686566
LJ           -1.1259         1.51198         5.68549
LJ          -1.20096         3.15084        0.304009
LJ           2.50894        -5.30013        -4.61876
LJ           4.17588         3.90919         3.23385
LJ          -3.64463        -2.37494         2.81679
LJ            3.7916        -1.88319        -2.42515
LJ           4.70869         2.84582         0.29342
LJ          -2.73446         4.77984        -4.45456
LJ          -3.04617         5.53794       -0.872315
LJ           2.70541        -1.38908        -5.41288
LJ           2.64879         2.44692         5.51333
LJ          -5.85751          3.4964        -2.88789
LJ         -0.556058         3.95257        -6.08348
LJ           4.69961        -2.83678        -5.94889
LJ           1.74048         -4.8133       0.0633305
LJ          -4.08454        -1.73029         -1.5807
LJ           1.90433       -0.922329        -1.59466
LJ          -2.80863        -5.37819         1.70675
LJ          -3.70062         4.32618        -5.02673
LJ         -0.712852         -2.0113        -3.22361
LJ           0.33404        -4.53489         2.57917
LJ         -0.330121         1.31011         2.89086
LJ           0.89376        -3.33449         -2.0219
LJ           6.12675         3.14907         4.73976
LJ         -0.961097        0.929557        -5.87929
LJ           2.79568      -0.0739042         5.51439
LJ           6.04613         4.32741         1.28532
LJ         -0.530542        -3.09156       -0.505632
LJ          -3.68795        -3.37671         1.49215
LJ           6.03492         3.42759         -3.4471
LJ          0.105111        -2.38823         4.73124
LJ         -0.329077         5.72205       -0.603668
LJ           2.31624        -6.10408         5.09344
LJ          0.264231        -5.74835        -4.43014
LJ           6.06495        0.547984         2.85238
LJ          -2.15353         -3.9605         2.54161
LJ          -2.77089        -2.11268         6.33508
LJ          -3.49455         1.27373        -3.23636
LJ         -0.705921        -2.55795        -4.90582
LJ           5.47479        -1.81843         4.57367
LJ          -1.74664         1.38821         3.67439
LJ           1.22557        -2.75165         5.23119
LJ           1.00459         4.16951         2.01786
LJ          -3.43656         0.16616        0.487052
LJ          -3.37779         1.81583        -4.64343
LJ          -4.65946        -4.93674         5.96892
LJ           1.05589         1.32693        -1.59129
LJ          -5.94796        -5.46149         6.22768
LJ          -5.51769         3.83226        -5.75313
LJ          -5.37328        -6.34311         4.24225
LJ          -3.73792         2.41512        -3.74316
LJ           5.11394        -6.40307         2.76305
LJ           -3.5858         4.98534        0.784295
LJ          -4.85614        -0.90726         5.19053
LJ           6.28591        0.243274         3.80392
LJ          -2.93005         3.83806         1.28786
LJ           5.49103        -3.05052        -5.31239
LJ           5.15625          3.6271         3.38033
LJ           5.47743        -4.15977        -5.47087
LJ           4.33604       -0.733581        -3.52466
LJ           -0.3232         4.22097       -0.727871
LJ           2.64291        -5.61858         2.33947
LJ           4.41444        -5.41738         -5.9161
LJ          -1.11633         6.39678        -4.87002
LJ          -6.43935        -2.80299         4.93192
LJ         -0.830691         4.07734         5.59992
LJ           -3.6972       -0.421924        -1.50014
LJ          -1.73383         1.64707        -4.39193
LJ          -6.29073        -4.40938         4.70224
LJ          -1.28869          4.7732           1.711
LJ          0.658201         5.90881         3.96071
