108
#Comment!
LJ         -0.237841        -2.08671         5.41826
LJ          -1.44143        -2.34159         4.76121
LJ           4.23222        -6.44209         5.64352
LJ           4.17057         3.79138         1.98736
LJ          -0.26102        -1.56287        -4.22248
LJ           -5.5335         2.80447        -3.53693
LJ          -4.05041         2.32771        -2.94574
LJ          -5.13759        -6.13992        -1.22046
LJ          -1.71042        -5.16846         3.30883
LJ         -0.591157         4.29095         3.01408
LJ           1.78223         3.32014        -1.58349
LJ          -2.80637       -0.127695         4.63948
LJ          -3.66403         4.86588        -2.33434
LJ           -3.2218        0.520059         6.31707
LJ           4.69031        -2.76388        -1.95914
LJ          -1.19201         1.16491        -2.64135
LJ          -2.11611        0.857616         5.80729
LJ          -5.73187         5.52779         -6.0087
LJ           6.30479          2.6329         5.33873
LJ          -2.14969        -2.89256        -4.99716
LJ           4.92748         6.05264       -0.774261
LJ            5.1121        -1.03972        -4.07768
LJ          -4.92813          5.5923         -2.0203
LJ           6.42469        -4.39421         2.97282
LJ           5.47579         6.07381        -2.61771
LJ          0.052859        -5.95434          3.5033
LJ            5.0613        -5.32257         1.87015
LJ          -5.30116         5.30258         2.74952
LJ          -2.70327         5.99004        -4.11908
LJ          -4.61527       -0.687351         4.14111
LJ           4.61722         2.80814        -0.13629
LJ          -1.84977         1.78247         3.69563
LJ           4.29301        0.838605       -0.968993
LJ            1.8012         3.08471        -3.75142
LJ           2.74356         4.91049        -3.30916
LJ         -0.949003        -3.98147       -0.966492
LJ           1.83268         5.14852        -4.23822
LJ           2.21884        -4.22416        -1.79298
LJ          -4.36973         3.46584         -4.8981
LJ           2.54859         1.22179        -1.02468
LJ           6.27006        -5.18739        0.196404
LJ          0.883075         3.90254         4.97184
LJ          0.212954         3.56781         5.84394
LJ           3.50225         1.97303         4.69986
LJ          -1.34146        -2.00032         2.79951
LJ            4.6163         1.48816          5.8233
LJ           4.77934         0.73442         -5.7181
LJ           -2.9356        0.652069         2.50942
LJ          -5.78595         4.68065        -1.48742
LJ           1.34084        -5.40713         1.59797
LJ           5.89427        -4.17246        -5.94655
LJ          -1.56809         4.84268         2.88591
LJ           1.48368        -1.86261          -3.996
LJ          -2.17664         1.88234        -4.66411
LJ          -5.79779         5.98911        -4.99481
LJ          -4.41677         4.45401         5.51768
LJ           6.21249         4.82459        0.890811
LJ           1.54745        -2.97244         6.46279
LJ          0.502338          3.5045          -5.387
LJ          0.346582        -5.78047        -4.88405
LJ          -5.99715       -0.691893        -4.69817
LJ          0.967005        -3.57613        -2.45707
LJ          -3.64089       -0.647163        -2.14643
LJ           5.46531      -0.0140126         2.49333
LJ           5.13781        -6.05753         2.78908
LJ           4.49959          3.8996       -0.167927
LJ           3.13716         1.99731         5.73227
LJ          -1.44076         2.88017      -0.0523159
LJ            2.7494        0.952112        -5.01578
LJ           3.77098         2.44831         3.66256
LJ           2.44063        0.924161         5.34955
LJ           3.38462         4.11866         2.55781
LJ          0.719236         1.43563        -2.97995
LJ         -0.476852         5.61443        -3.51221
LJ          -2.25623         3.08559        0.915469
LJ           1.00895        -4.69849        -2.82039
LJ           2.60173         2.90312         3.50305
LJ           2.57903        -4.55564         4.02616
LJ           6.17747        0.103094        -4.99466
LJ           5.79471         2.30171        -3.77755
LJ           1.30806       0.0938374        -3.11731
LJ          -5.34972         1.82792         5.13549
LJ           1.67362         4.72091         4.72707
LJ          -6.05855        -3.63512       -0.560855
LJ          -3.70756         1.44578        0.272056
LJ         -0.279669       -0.627937        -3.46934
LJ           6.38667        -3.73942         4.72608
LJ           2.76264        -1.59763        -4.08997
LJ           6.39358        -4.39364        0.940671
LJ          -1.58668         1.40981        0.156934
LJ           1.83711         6.42505       -0.673569
LJ          -0.61827          6.3274       -0.363473
LJ           -3.8007        -6.37947        -1.98538
LJ          -4.74848         2.04847          3.9783
LJ           4.80336         1.13846         1.99514
LJ              5.25         4.27873        0.198894
LJ           6.45718      -0.0869168        -2.07897
LJ           3.51034        -5.84764        0.597347
LJ           3.71375        -1.22716         4.59577
LJ          -4.88824         3.78686       -0.231744
LJ           3.33394        -2.25337        -1.26459
LJ           5.04258         5.17585         3.60711
LJ          -2.51441        -3.24569         2.55859
LJ          -3.32958        -1.96828        -2.61994
LJ           1.69137         5.07246         5.63536
LJ           6.39172          3.9257        0.127579
LJ           1.09667        -0.61929         -6.3316
LJ          -1.13005        -4.20494        -4.09051
