108
#Comment!
LJ          -1.93985         0.52428          4.7279
LJ          -5.33864         2.15737        -6.45441
LJ          -5.56007         -6.3435        -6.01829
LJ           5.06785         1.85632         1.38493
LJ          -1.68015        -2.77686         5.55925
LJ          -3.01404         1.59917        -5.09551
LJ           -5.2497         2.28344         1.00926
LJ          -3.23866        -5.22737         -3.0388
LJ          0.929851         5.52021         1.64523
LJ          -1.22345         3.19102         3.69603
LJ         -0.887975         2.46198        -1.84192
LJ          -3.03081         2.26085         1.64549
LJ          -1.45073         6.06357        -2.35784
LJ          -1.96856         1.17652        -3.92477
LJ           6.22886        -2.48212       -0.895025
LJ          0.866469         2.91721         -3.2431
LJ         -0.767974         1.55042         4.74352
LJ          -5.99987         4.67248        -3.54029
LJ          -6.17411        0.721754         4.34962
LJ          -1.52341         2.14495        -3.57533
LJ           2.49842         1.92161         1.62316
LJ          -4.11445        -1.63747        -3.41187
LJ          -3.17015        -6.33305        -4.08626
LJ           5.90293        -2.84394        0.104037
LJ           5.51702         4.23443        -0.52958
LJ           1.24876        -5.47161         3.92077
LJ           2.20661        -5.99792        0.815642
LJ         -0.589751         5.67398         4.14584
LJ         -0.130711          -2.951         6.00291
LJ           5.62846        0.269902         3.98967
LJ           1.12263         1.62801         1.37947
LJ           2.32647        0.997509         2.67548
LJ           4.50093         2.30751        0.395162
LJ           1.25967         4.47886        -5.12925
LJ           5.07965         5.09469        -2.17132
LJ          -1.81274        -1.81782        -3.69918
LJ          -3.19348         4.42079        -1.86549
LJ           3.55309         6.41143       -0.734367
LJ          -4.03319         6.34675        -5.38239
LJ            3.5976         4.14122        -1.36179
LJ           6.39805         -5.6307          1.8875
LJ           3.45431         4.37795         5.09422
LJ           5.71799         3.65506        -5.35816
LJ           4.31933         3.20207         6.14874
LJ         -0.596982        -2.67142         4.14973
LJ           4.53857       0.0669333         4.17846
LJ           5.88199         3.93045          5.3656
LJ          0.255927         2.90647         1.73405
LJ          -3.12035         5.07463        -5.73138
LJ           4.11859         4.77061       -0.514712
LJ           4.94071        -6.12643         3.99631
LJ         -0.633891         4.47105         2.24242
LJ          0.982135        0.575983       -0.496598
LJ          -2.60754       -0.990389        -2.26151
LJ           -5.2161         4.14872        -4.13509
LJ           5.51341          4.8784         6.42331
LJ          -5.87004         5.11347         1.79234
LJ          0.951124        -5.42804         4.88798
LJ         -0.482066         2.06686         3.85545
LJ           -2.6996        -6.43954        -5.22468
LJ           6.35706        -1.03135         6.11966
LJ         -0.185503        -6.33812        0.952006
LJ          -3.72877       -0.883622        -2.62293
LJ           3.80188         2.78995         3.97211
LJ           2.08007         5.48638         2.39814
LJ           2.55733         3.23756         6.40796
LJ           1.77592        0.640568         5.62506
LJ          -1.50533         2.87399        -2.53006
LJ         -0.594765         1.25453        -3.65456
LJ           5.42235         1.33049        -5.73442
LJ          0.329376         1.66243        -6.29488
LJ            2.1516         2.85561      0.00320641
LJ         -0.950747        0.905817        -2.72324
LJ           1.20138         1.57275        -1.54086
LJ           5.67831         -1.1754          1.4597
LJ          0.538665        -4.72994         1.31858
LJ           4.29594         4.84486         2.78376
LJ           2.38675        -2.12824         5.92754
LJ           5.81789       -0.105316         5.44106
LJ           3.62235       -0.628449        -2.59716
LJ          -1.82506        0.277912         5.70989
LJ          -6.33747         2.72604         6.44982
LJ           4.65251          3.6827         3.59975
LJ          -6.25024        -5.43616        -2.01416
LJ          -2.29961        -2.71983        -1.59017
LJ           2.57758        -2.42626        -3.78802
LJ           6.41587         -0.7612         5.06383
LJ          0.919477         2.13484        -2.53233
LJ          -4.49647        -4.04092         3.33006
LJ          -5.82149         2.88447         1.80349
LJ           2.87831         5.41808        -1.46018
LJ          -1.38427          6.4064          1.4529
LJ          -3.86777          4.8305         -4.5096
LJ           -1.6475         1.42822         5.73743
LJ           5.96437          1.5649         0.18958
LJ           -5.5947          6.0824         3.44857
LJ           6.10778       -0.895524        0.217189
LJ            1.5968         -4.3922          1.9128
LJ         -0.500391       -0.625926         5.26711
LJ          -3.34213         4.63164        -3.23784
LJ           4.92744        -1.03128        -3.03108
LJ           4.63365        -5.21356         1.94951
LJ           -4.1509        -2.54798        0.741981
LJ          -3.29214        -2.12038        -2.19905
LJ        -0.0751483         5.33212        -3.19832
LJ           5.58098        0.737141         1.51618
LJ           -1.0469        -1.97503         5.94554
LJ         -0.956246        -2.99705        -3.26965
