108
#Comment!
LJ           -2.2651         6.29687        -1.62934
LJ          -5.15066         4.37976        -4.63018
LJ          -4.85583         5.19853         -5.8039
LJ           6.12836        0.597533       -0.233858
LJ          0.138632        -2.80141         3.26691
LJ           -3.9406         1.43917        -2.66745
LJ          -5.49804         4.36312         2.80464
LJ          -0.41435        -1.22608        -3.35768
LJ           -2.8907         3.77653        0.872825
LJ          -2.41972         2.68879         3.55133
LJ          -3.02577         1.46994        -1.92895
LJ           0.14073          3.7553         3.63914
LJ            2.1632        -5.16185        -3.10542
LJ          -4.38001         2.26126       -0.924969
LJ           -5.7816        -4.67727        -4.42176
LJ           1.79082         3.29397        -1.97017
LJ          -1.64553        0.362498        -6.03974
LJ           -4.3789         3.34065        -1.34141
LJ           4.15389        -0.60106         4.19031
LJ         -0.453764         5.55106         -4.5382
LJ          -2.19573        -2.56125         3.50125
LJ          -1.13737        -5.04523         5.55039
LJ          -1.03419          6.1942        -5.57449
LJ           3.57314         1.48388       -0.365003
LJ          -5.69241         5.31798         1.13225
LJ           2.99892        -4.58204         2.41564
LJ            -1.054         -6.1318       -0.166399
LJ           4.07854         3.92034         5.43982
LJ           2.84254        -2.53135         2.32296
LJ          -6.02861         3.43596         1.70418
LJ           -2.9312       -0.190966        -2.24654
LJ          -3.60275        0.326976         -1.0526
LJ           1.02656         1.82455         3.48605
LJ           2.09865        -5.08534         4.50026
LJ          -5.28484         4.15215       -0.117786
LJ           -2.4804       -0.221699         6.23723
LJ          -6.30793         1.49111         2.02978
LJ           4.37211         2.15681       -0.111141
LJ          -4.84577        -4.77822        -4.81272
LJ           3.87784         1.21457         -2.4284
LJ          -5.00103        -5.99063         3.44153
LJ           5.19608        -4.97483         3.85962
LJ          -0.45208         4.14437        -3.33726
LJ           2.03601          5.3683        0.231776
LJ          0.245054        -5.40487        -6.06744
LJ           1.77946        -1.30492         3.12554
LJ           5.88392        -4.60746         5.34468
LJ           3.73304         5.56892         1.49852
LJ          -1.68667        -5.23594         2.25585
LJ          -5.96776         1.78332        -4.26086
LJ           4.11251        -4.18167         2.07164
LJ          0.716101          3.1811         3.08156
LJ           1.85964         2.28625         2.03904
LJ          -1.07724        -3.09719       -0.370247
LJ          -3.81574         3.86872        -3.09076
LJ           3.88112        -4.75353        -3.43584
LJ          -5.87387         5.69791         3.83358
LJ         -0.521255         5.86595         4.74031
LJ           -1.7013       -0.922097         4.58479
LJ          -2.07257        -6.02223         -6.1884
LJ           4.70003       -0.555257          5.1583
LJ          -2.16192         2.12216         6.20569
LJ          -2.21814        -1.83534       -0.723962
LJ           1.09155         4.13818         3.64419
LJ           5.01421         6.08737         5.50138
LJ          0.843575         1.32955        -1.27906
LJ         -0.943513       -0.137468         5.51737
LJ          -3.74152        -4.33883        -2.34502
LJ          0.472272         4.92975        -5.34182
LJ          -5.25763         0.87925        -2.41624
LJ          -2.43905         1.68181        -4.70824
LJ           1.57467        0.119408        -2.05823
LJ          -3.00729        0.145806        -3.42616
LJ           1.91429        -3.63557        0.427863
LJ          -0.48162        -5.35257        0.139263
LJ         -0.851691        -2.00409         2.40075
LJ          -5.95297         2.54167         3.26456
LJ           1.91819        0.796651        -4.65944
LJ           3.93338         1.64103         4.31018
LJ           2.42618        -3.07352        -1.31097
LJ          -5.72397         0.33467          5.7582
LJ           4.64318        -6.35543        -5.44066
LJ          -4.66742         4.75151         3.62381
LJ          -6.35316         5.65862        -4.65018
LJ           0.15741         5.73151        -3.74805
LJ           6.22849        -5.31277        -4.07277
LJ          -3.01151      -0.0648586         3.98351
LJ          -2.13395          1.9013        0.727931
LJ          -3.59842        -5.21253        -5.55023
LJ           1.87119         3.00633         3.23695
LJ           1.27108        -5.71534        -1.99163
LJ         -0.742301        -4.98637         1.96474
LJ          -4.39126         3.37559         3.93264
LJ           1.45557       -0.371309         5.37388
LJ            5.6272         1.28274         0.64943
LJ          -2.09016         -5.0282        -6.43026
LJ           5.89223        -1.30714          4.1499
LJ          0.530052        -2.60395         5.12427
LJ           -1.3179        -4.80305         3.98411
LJ           -2.7591         3.60332         6.22195
LJ           2.95427       -0.384411        -3.37008
LJ           2.89416        -4.45047       0.0731006
LJ          -3.47293         -1.5488        -1.72358
LJ           -2.6191        -2.16036        -2.01991
LJ          -1.55106         3.84576         1.89263
LJ            5.7126        -2.92754        -5.77412
LJ          -5.83996         1.52132         4.22129
LJ          -1.39279        -0.30094         -3.1286
