108
#Comment!
LJ           1.98424         3.61316         2.07792
LJ           1.72696         1.12059         2.07101
LJ          -4.95882       -0.725012        -3.78242
LJ           4.51845        -2.79875         1.36307
LJ          -2.09122         6.41769         0.73947
LJ          -5.89213         -3.7747          5.9164
LJ          -5.72895         1.16898          -4.358
LJ            5.0068        -4.15847        -3.64142
LJ           5.26745         5.49969         4.41928
LJ           3.86283        -3.15944         3.32847
LJ          -1.54534         2.35646        0.657225
LJ          -3.44538        -2.83854          5.0046
LJ          0.844329       -0.393117       -0.688194
LJ            2.4048        -2.17903        -5.78112
LJ          -1.06013        -1.79266         6.45208
LJ          -3.58413        -3.79857         5.93878
LJ          -2.59537        -4.70709         1.36928
LJ           -5.8192         2.67945         2.00685
LJ           3.92945        -3.52394        -4.78424
LJ         -0.979465        0.904851        -2.09413
LJ          -2.99466        -4.05667        -4.83538
LJ           2.45748         2.93239         -2.3839
LJ          -6.28692        -4.68341         4.54033
LJ           -4.8314         2.63209        -3.55279
LJ           3.98594         3.18203         3.89836
LJ         -0.589031         3.40247       -0.342237
LJ          -5.56704        -2.11447         5.19839
LJ          -4.55671         3.08385        -4.39274
LJ          -4.23765        -4.87497         6.32944
LJ          -1.15802         3.83004        0.788086
LJ          -2.34075          1.2949        -4.19007
LJ          -3.76579        -5.69242        -6.26264
LJ           1.08377        -2.39418         2.29137
LJ           4.16698       -0.101673        -1.87274
LJ           4.84765         1.76135        -4.35335
LJ           5.07778         2.14253         1.83393
LJ           5.26529     -0.00621028         2.31056
LJ           3.21372       -0.277646        -2.48269
LJ          -1.90662       -0.783455        0.941242
LJ           6.21169         4.21513        -2.57817
LJ           4.91697        -3.63895         6.44099
LJ          -5.44611         1.48854         1.03635
LJ          -2.14792      -0.0676615        -2.60127
LJ          -1.58296         3.32298         1.84742
LJ          0.305398        -1.53312         0.32266
LJ          -6.03375        0.605348        -5.30926
LJ           4.14685         6.39586         4.95636
LJ          -5.29323          2.7729        -1.78487
LJ           4.03808         4.12117        -5.35659
LJ          0.496411         2.29526         4.42841
LJ           3.29185        -2.04021        -5.54328
LJ           3.45588        -4.94645         1.98176
LJ           2.61673         4.36516        -4.11868
LJ           5.91249         5.34765        -5.72225
LJ           6.12918         3.03006        -5.10612
LJ           3.28946        -3.15134        -1.34088
LJ           4.03657        -5.41266        -0.16186
LJ           4.28948        0.796813         4.34691
LJ           -1.3169         2.34522        -5.59793
LJ           3.39098         4.24144         2.09428
LJ         -0.122612       -0.348212        -2.07303
LJ          -2.85409         2.22784        -2.41459
LJ          -4.64076         5.30047        -1.32426
LJ           3.48781        -2.97237         5.43099
LJ         -0.681476         2.07003       -0.900408
LJ           1.85572       -0.444018         3.17698
LJ           3.76332         6.30765         6.17646
LJ           4.26795        -2.79695        -2.04255
LJ         -0.650709        -2.13966         4.72516
LJ          -1.90356         3.79059        -3.52029
LJ           2.33067         3.41721        -4.56134
LJ            1.1803        -6.07594       -0.261883
LJ           5.56902        -4.74934        -2.89732
LJ           -4.6436        -3.74035          -2.778
LJ          -2.89445        -1.64463         1.56913
LJ          -2.80881        0.697335       -0.291133
LJ          -1.29066        -4.85132        0.247179
LJ            5.5963        -5.61586        0.238498
LJ          -4.20533        -2.50187        -4.92278
LJ          -6.03575         3.09767        -3.62842
LJ          -3.95552        -3.73404         1.06299
LJ          -4.58301        -3.59351         -5.2508
LJ          0.713264        0.883007         5.78641
LJ         0.0947769       0.0437185         -4.5413
LJ            4.4961           3.831         5.25419
LJ          -2.82751        -5.71485        -3.10866
LJ           5.12355        -4.64595        0.935159
LJ           1.48099       0.0911773        -5.19644
LJ           3.29491        -1.59916       -0.506675
LJ          -6.03436        -3.51646         4.49297
LJ          -4.05121        -1.14374        -3.06266
LJ          -4.43871        -1.80741        -4.26859
LJ          -6.14939          3.5235        -2.15122
LJ          -5.21112       -0.997688         4.78096
LJ          -1.90147        -2.88519        -2.70214
LJ           3.95317        -1.77797          5.9294
LJ           3.33564         5.32488         3.09399
LJ          -1.29352         3.21417         4.44198
LJ          -4.18389         2.15484       -0.590176
LJ           1.92422        -2.61857       0.0852114
LJ          -3.98837        -4.86421         -3.3353
LJ          0.243847         1.23877        -3.15587
LJ           4.06606        -4.84217        0.874471
LJ         -0.713908       -0.878587         4.07491
LJ          -5.20559          1.2386        -1.96631
LJ        0.00111859        -6.37614         3.59407
LJ            5.7539        -1.19584         5.21237
LJ           6.32043         2.02512        -4.57001
