108
#Comment!
LJ           2.18038        -5.46387         5.42402
LJ          -5.74754         1.55891        -5.57608
LJ          -1.93035         1.87921         6.07196
LJ           3.20475        -5.32923         2.58014
LJ          0.615877         0.68658        0.788681
LJ           2.58557        -4.64193         4.54476
LJ          -1.67273        -2.73967         4.56696
LJ          -3.72817        -4.16018          0.3878
LJ           4.45088        -3.56043         6.44849
LJ         -0.292742         6.45781        0.958682
LJ          -4.89646         5.31378        -3.42412
LJ          -2.26693       -0.905668           2.586
LJ          -5.10523         6.01118        -6.34407
LJ           -4.5098         1.31523         4.72616
LJ            2.0565        -4.99407        -2.52343
LJ           -1.2088        -1.10004        -5.22771
LJ          -2.80143        -1.67758        -5.48931
LJ           5.72797        -6.05025        -6.43244
LJ          -6.24838        -6.29109        -5.44142
LJ           -2.3658        -3.12084         3.70999
LJ          -3.33745       -0.370246        -3.01916
LJ          -3.16908        -2.29513       0.0102664
LJ          -1.54896         2.65338        0.854457
LJ          -2.01951        -2.37294           5.798
LJ          -5.91358        -1.75539         6.14535
LJ          -2.74854        -5.31906         2.37751
LJ          0.510625        -2.79466        -5.64973
LJ         -0.825937          2.4687        -4.17353
LJ          -2.78886         1.13605         1.76076
LJ           1.08561        -2.22895         3.82269
LJ            4.5165        -3.71964         3.46474
LJ          -2.66068         2.30131         3.05082
LJ           2.40235        -2.77379        -3.46085
LJ            5.4413          3.3986       -0.143219
LJ           3.24071        -5.00302        -3.06962
LJ          0.642828         1.93204      -0.0916786
LJ          -1.79424         3.63997          4.6215
LJ           -3.6365         1.28768        -6.36569
LJ           6.41749         4.97208         1.56753
LJ          0.637087         5.13423        -1.18781
LJ           5.61138        -4.68155        -3.25879
LJ          -1.29964         6.01656         1.49579
LJ         -0.201851         4.75169         4.89851
LJ          -5.41895        -5.03007         2.04896
LJ         -0.212727       -0.703528         2.59522
LJ          -4.54111          3.4755        0.533066
LJ          -1.99097        -2.59258       -0.633503
LJ           4.61163       -0.509806         2.74613
LJ         -0.910007        -3.46995        -3.37669
LJ          -4.91457        0.294454         2.34209
LJ          -4.00895        -1.35397         1.40529
LJ          -5.57179         2.40543         1.44667
LJ           6.38152        -4.15472         2.18995
LJ           -2.2084        -6.28479      -0.0132457
LJ          -3.67896         5.09791         4.20577
LJ           4.18201        -4.26262         5.28897
LJ          0.489704        -2.94104         1.04016
LJ           4.03849          3.9972          -3.405
LJ          0.796547        0.300962         3.27925
LJ         -0.506416         2.32961          6.0711
LJ          -6.24707        -4.43915       -0.820366
LJ          -6.25174        -3.58655         1.24538
LJ          -2.07943         -1.1429       -0.988702
LJ          -5.34277        -2.60694         5.28497
LJ         -0.353129        -3.02813          -6.385
LJ           0.20585         2.41478         5.09453
LJ          -2.02702          5.0876         2.66079
LJ           2.38615        -5.84748         4.47006
LJ           6.35229         2.76863        -2.80405
LJ           2.57138         2.89935        -6.25354
LJ          -5.12531         1.01968        -4.29734
LJ           5.72851        -5.66068         -2.0306
LJ           1.70904         3.35812        -2.41708
LJ          -1.52531        -6.40909         3.36065
LJ          -5.28537         4.76703         2.16746
LJ         -0.111943         1.14476         5.68681
LJ           2.35585        0.846916         4.88444
LJ           2.53705          2.5897        0.480611
LJ          -5.35686       -0.375947         3.63913
LJ          -1.45173        -4.23033        -3.82382
LJ           4.95943        -5.16978        -1.05783
LJ          -3.33323       -0.438221         1.79703
LJ            -5.903        0.345572        -2.33945
LJ           5.55095        0.576468        -5.20737
LJ           5.96316        -5.01349         2.47304
LJ          -3.28938         2.35146        -3.14678
LJ           6.01561         5.70417         2.56495
LJ          -6.02638        -1.89673        -4.87992
LJ          -2.15429        -1.62143        0.415876
LJ           3.65436          -5.729         1.48749
LJ          0.375422         3.64047        -3.34436
LJ          -3.44499        -2.59778        -6.42334
LJ           5.88669         -5.7107         5.56546
LJ          -5.38083       -0.829285        -1.15619
LJ         -0.766895         2.97049         1.53718
LJ          -1.44376        0.029457        -3.89178
LJ            3.0946        0.591728        -1.68767
LJ           1.14026         4.69093         3.87185
LJ           0.95351        -5.16332         5.84124
LJ           6.03458         3.63797         -5.5957
LJ         -0.658047        -1.54368         1.54673
LJ            2.9722        -1.30741        -1.57749
LJ           4.21284        -2.57078         5.50663
LJ           -2.4181        -1.01403        -2.62978
LJ           5.25723        -5.04726        -5.43614
LJ           5.42512        -4.40124         4.08034
LJ           4.58748         2.94679        -3.76064
LJ          -2.95184         2.20246         5.52505
