108
#Comment!
LJ          -3.04383        -1.68478         4.99761
LJ          -2.07425        -6.30589        -5.49415
LJ          -4.35644         3.56393        -3.31812
LJ           5.51885        0.497553        0.282282
LJ          0.777202        -3.67674         4.74457
LJ           -5.2798         -3.1388        -2.99726
LJ          -3.32808         6.07371         4.43022
LJ         -0.648238        -3.88993        -6.23078
LJ           5.28229         3.42943        -1.61555
LJ           -3.7262       -0.502158         4.45715
LJ          -4.90898         1.66196       -0.402037
LJ          -1.97131         2.87772        -6.21405
LJ           5.95176        -4.85842        -4.65686
LJ          -5.96453           5.166        0.888503
LJ           2.80337         6.05873        -6.29696
LJ           2.38358         3.54834        -1.11666
LJ          -4.27509        -1.53965        -3.24302
LJ          -1.48303         3.14486       0.0765016
LJ            2.2077       -0.919149         3.74943
LJ          -2.67527        -4.89225        -5.53328
LJ          -6.26507        -3.44792         2.90749
LJ          -1.67647         5.57621       -0.091401
LJ         -0.554122        -5.96383         5.14033
LJ          -1.68956         3.70811        -3.51824
LJ          -5.27564        -5.56086         2.41158
LJ           2.59536        -3.47622         1.38756
LJ          -5.96801         3.86184         -2.3164
LJ          -5.76872        0.803443        -6.36482
LJ           4.91639        -2.35676         -1.2734
LJ          -4.14003         6.33251        -0.38311
LJ           6.22005        -3.39478         4.86042
LJ          -1.80882         2.11759        -2.95638
LJ          -4.27049       -0.732267         6.34072
LJ             2.883        -2.27269       0.0765928
LJ          -5.65451          4.1639          1.5098
LJ          -1.86589         2.10895         3.47279
LJ          -5.96539       -0.911008        -5.58313
LJ           6.31145        -1.69015        0.201198
LJ          -3.65485        -6.32469         -5.3763
LJ              3.89        -1.71453        -3.40994
LJ         -0.634395        -5.52127         3.28613
LJ           -3.8934        -1.20693          3.0058
LJ           4.93181         4.79542       -0.631329
LJ           1.07501        -4.42041         3.10401
LJ           2.06091        -2.75934         -5.1025
LJ          0.489175        -1.42099        0.735871
LJ           4.12619        -3.25432         1.28056
LJ          -5.86779        -4.94202         1.59959
LJ          -1.58862        -2.34442        -1.66718
LJ          -5.20832         -1.8831          5.7629
LJ            4.6047        0.173886      -0.0393072
LJ          0.416783         2.50088         3.15075
LJ           1.82486         3.78227         3.28154
LJ         -0.827177        -4.93445         1.74614
LJ          -2.47964         2.57954         -1.8248
LJ            2.5379       -0.454144       -0.539575
LJ          -3.91078        -6.20764         5.45169
LJ          -1.07308         3.79922        -6.04029
LJ          -4.68381        -3.83681         6.41331
LJ          0.523591        -5.69211        -5.19429
LJ           3.27492       -0.342634         3.37014
LJ          -2.64004        -2.93755         -3.3594
LJ        -0.0995383        -3.48627         2.86046
LJ           1.43718        -6.10118        -3.33448
LJ           3.93745        -4.88967        -2.43345
LJ          -6.28856         2.81702        -4.10782
LJ          -1.83178        0.478017        -5.13402
LJ           5.16121         0.52435        -1.82576
LJ           2.92059         3.95127         4.92263
LJ          -5.93492         6.31004        -2.79692
LJ          -5.57282         2.26296        -3.60836
LJ          -1.45824        -1.77022        -2.85462
LJ           -2.7129         0.95921        -2.59413
LJ           2.84923         4.83985         2.91815
LJ          -4.02892        -5.86368        0.554787
LJ          -2.25511        -1.28228           4.478
LJ          -5.22754         -1.0212         2.18024
LJ           1.25404         3.74097        -2.36471
LJ           1.05108         4.80927         5.63989
LJ           3.16072       -0.616694        0.930208
LJ           2.78015        0.596264         4.29111
LJ           3.18304        -3.34245        -4.12976
LJ          -4.40146        -4.24004         5.21187
LJ          -5.07988         3.87908        -5.82319
LJ           4.26343         2.62143        -4.41051
LJ           5.54149        0.810199        -3.75191
LJ          0.657657        0.989463         3.12947
LJ          -4.58087         1.39938          2.0722
LJ          -1.56099        -6.41417        -3.76811
LJ         -0.554379         2.30691         3.51031
LJ          0.425113         4.95423        -3.09599
LJ            1.7876        -3.04843         1.80275
LJ         -0.572721         1.70071          2.3875
LJ            3.9948         -1.1258         2.98056
LJ            6.2215        0.603481         1.31005
LJ           2.20597        -2.99816        -3.89715
LJ           4.92205       -0.684188         4.26001
LJ         -0.647186       -0.361431        -4.97792
LJ          -1.61521          2.8019         2.18616
LJ          -1.37722         3.34282        -5.21734
LJ           1.07013        0.534545        -4.22416
LJ           1.07223        -2.95768        -3.24396
LJ           1.27141         -4.5244        -2.15384
LJ         -0.233381        -4.72042        -1.80444
LJ          -1.83686         1.65626         6.20079
LJ           -4.0764        -5.08478         6.19207
LJ           2.84376         4.36656          1.8498
LJ         -0.278529          1.5827         5.42424
