108
#Comment!
LJ           -2.4408        -0.84537       0.0599688
LJ           -2.2756         2.45186        -3.52027
LJ            5.2765        -5.02211         4.98437
LJ           6.28651        0.214932        0.558672
LJ          -4.82921         5.30986        -1.01305
LJ          -4.54971        -5.41732       -0.593281
LJ           1.94039        -2.27236        0.165362
LJ          -5.54452       -0.576138       -0.379994
LJ          0.520508         5.17473         4.41376
LJ           1.70854         5.13896         0.32309
LJ          -4.45769       -0.146179           -1.27
LJ           5.84706        -6.14315         4.95891
LJ          -2.04378         3.24873        0.281023
LJ          -3.43199         1.38803        -4.14887
LJ          -2.53239        -2.04815        -5.01597
LJ           -2.3288         -3.1945        -5.91555
LJ           -2.5317       -0.333673         3.86722
LJ          -2.45973          4.1557       -0.109244
LJ          -3.30181      -0.0393855         5.27009
LJ           6.36479      0.00844872         1.69751
LJ            4.2692         -3.5978         2.11662
LJ          -1.52346        -4.10099        -4.18921
LJ          -1.16126         3.79835         1.16286
LJ           -5.4569        -3.38573        -5.26621
LJ          -6.18738         1.48121          1.9165
LJ          0.802288         -5.4711         2.56945
LJ          -2.16631        0.926872        -6.07877
LJ          -4.87473          5.9939         3.83388
LJ           -4.9494        0.532598         2.57778
LJ           1.48509         4.08392        -2.23892
LJ          -2.35532        -2.17914         5.97805
LJ           -4.0845         2.31817         3.46608
LJ          -6.31994        -3.35792        0.245083
LJ          -4.73134         1.17592         5.31828
LJ          -3.08478         -5.5426        -2.77961
LJ          -4.46499          3.3106         1.16191
LJ         0.0708775         -2.8153        0.536323
LJ          -1.89405         2.44818         4.01419
LJ          -3.39138         3.50306       -0.182045
LJ           1.38976         5.93929         6.23592
LJ           2.69682         4.81021         5.78403
LJ         -0.935941         -0.7474         2.46851
LJ           3.59899        -4.06528        -5.51007
LJ           5.56983        -5.47946        -2.07255
LJ          -3.16582         3.93946        -1.01328
LJ         0.0231391         5.71584         -3.5662
LJ           2.90901        -1.56783        -2.01864
LJ           2.78564         4.89339        -5.95801
LJ           4.67034         3.22663       -0.943663
LJ          -1.36294        -3.72308        -2.61063
LJ           4.89059        -2.25963        -4.19604
LJ             3.381         4.10558        -2.53561
LJ          -4.01522        -1.87854         -4.2123
LJ           1.27343        0.101837        -4.70881
LJ        -0.0821998         6.36178         5.31176
LJ           1.13858         3.33371         2.89797
LJ           1.57634        -1.12864        -1.03834
LJ           1.94482        -3.36749        -2.00436
LJ           1.76976         4.88603         4.73936
LJ            2.8914        -3.06549       -0.794886
LJ           3.81203         2.92778        -5.74912
LJ        -0.0696421       -0.121757        -4.09329
LJ           0.96361         1.82473         3.02387
LJ           5.33592         4.57339         1.40536
LJ           0.74108        -2.13463           -5.94
LJ           6.36448        -5.36561         2.18781
LJ            4.4908        -1.03154        -4.54441
LJ          0.504433        -3.42527         1.18291
LJ           2.34162         3.97864        -3.79279
LJ           4.47036        -5.63989         2.18669
LJ          0.238049        -3.41246             5.3
LJ           5.62221       -0.868831       -0.364798
LJ          -3.83957        -3.66137         4.16716
LJ          -4.21257        -4.93882        -3.47302
LJ          -2.80231       -0.308194        -1.12878
LJ           1.25326        -3.55139        -5.41573
LJ          -4.87444        -5.86252         2.64248
LJ          -2.57232        0.602378       -0.240658
LJ           4.13621         -6.2479         4.81023
LJ          -3.05478         3.50754         2.93472
LJ          -3.40802         2.01582        0.730546
LJ         -0.379433         3.33125         6.31399
LJ           -5.7864         -6.2775         4.80971
LJ           -2.1477         1.08937        -3.51473
LJ          -6.15906        -3.02642         5.31984
LJ           5.99281         6.17411         -6.1882
LJ          -2.80689         5.95995         3.03497
LJ          -2.80606         2.71936        -0.64082
LJ           5.95955         6.05074         1.70284
LJ           6.00403         3.86951         2.17706
LJ          -6.18367       -0.681319         2.59153
LJ           3.34684         2.59365         3.41382
LJ          -2.01824        -5.40854         4.40452
LJ          -5.56543       -0.975788        -4.01346
LJ           1.83002         3.19207        0.353621
LJ           -5.5225        -4.60133        -2.80858
LJ          -5.69617        -2.10917        0.368925
LJ           2.88882         5.46989        -2.63118
LJ           2.18395        -2.30691         4.42554
LJ           5.99039         -1.9604        -3.60209
LJ          -4.86454         5.72572        -2.68232
LJ          -4.23779       -0.103452         3.29495
LJ           -5.9913         2.55534         5.71439
LJ          -4.08573        -2.46464        -5.55744
LJ           -4.3316         1.80778        -3.81424
LJ          -6.17118        -4.43722         5.66154
LJ         -0.407589        -4.71109         2.95389
LJ           5.67237        -4.54109         5.90581
