108
#Comment!
LJ             3.411        0.160981        0.161423
LJ           2.15076        0.338305      -0.0487754
LJ          -3.44082       0.0966434       -0.345289
LJ          -5.51931        -5.26471       -0.758186
LJ          -1.67792        -5.22217         2.71034
LJ           3.45959         -2.8562       -0.165977
LJ          -3.13066        -1.28863        -4.48524
LJ          -5.13691        -5.00903        -2.26915
LJ           2.89637         1.11614        -4.45929
LJ          -5.71818         3.05165         -1.2607
LJ           -2.3354         1.05986         6.38641
LJ          -5.51759         -6.2727         3.46504
LJ         -0.232082         4.50185         2.32017
LJ           4.82415        -3.51999        0.813872
LJ          0.767945        -3.21451        -1.91305
LJ         -0.592209        -6.30857         2.79285
LJ          -4.78181         -2.0776        -4.97235
LJ           -1.6889         3.04128         2.28607
LJ           5.55749     -0.00656501       -0.648637
LJ          -1.77763        0.389295        -4.32553
LJ           5.16652        -3.23494        -5.88517
LJ           5.41997        -5.00712        -3.73317
LJ           5.00184          1.2323        -3.95302
LJ          -3.98434         1.16664        0.656979
LJ            1.7371        -4.62756        -3.79346
LJ          0.531645         3.10538        -2.63472
LJ          -4.36753         2.49587         3.04189
LJ          -1.92002         3.64391         5.14656
LJ          -4.71339         6.08214         2.64998
LJ           4.05296         5.89712         1.12671
LJ          -3.98517         1.46769        -5.66134
LJ          -5.50075         2.50583         5.08799
LJ          -2.20746        -3.72913        -3.32841
LJ           4.29574        0.315517        0.883225
LJ           5.05216        -1.63234        -4.75505
LJ            6.2639         3.83666         5.07499
LJ         -0.118614         4.57147        -2.85697
LJ          -1.10857         4.39912        -2.80357
LJ          -4.78589        -3.64729        -1.00261
LJ          -4.97209           3.509        -1.70484
LJ           4.56319         1.55188         4.19503
LJ           3.60056         2.98452        0.580287
LJ          -3.89406       -0.373642        -6.21392
LJ           2.91334         -3.1953        -5.32303
LJ           2.28713       -0.163568         4.05964
LJ          -4.31421         2.73696          -3.012
LJ           4.18022        -2.48576         -5.1333
LJ           4.20059         1.46822          1.2507
LJ          -2.06642         5.34411         3.46063
LJ          -3.77118         2.27575        -6.37349
LJ          -2.97758        0.457911        -3.09981
LJ          -1.97125         2.34338      -0.0432401
LJ           6.10927         1.34579         -5.1221
LJ          -2.95858         4.82917        0.393914
LJ           5.82984       -0.277009        -3.17894
LJ          0.657451        -1.09602         2.00043
LJ           2.49377         6.42804        -1.04997
LJ          -6.32286       -0.356841        0.566511
LJ           3.62401       -0.864905        -4.55954
LJ           4.94705         3.93451         2.97304
LJ         0.0378148      -0.0509349         1.95635
LJ          -2.81161         5.08531       -0.641454
LJ          -4.10103         3.98496        -4.37716
LJ           6.29256       -0.527595        -5.79646
LJ           4.88029         5.39907        -2.06167
LJ          -3.63344        -5.06399        -5.87484
LJ          -1.34721         5.36846       0.0277499
LJ          -1.07423         1.89365      -0.0382026
LJ          -5.26241         4.65284         1.68634
LJ          -1.43918        -5.20652        -4.24216
LJ         -0.230732         1.87836        -4.12534
LJ          0.940788        -5.93287       -0.108063
LJ          -5.23582         6.28372        -5.31828
LJ           2.91216        -4.82299        -3.74345
LJ          -2.29317          4.6927          1.5682
LJ          -4.82731         2.27136       -0.830918
LJ         -0.657835        -0.21849          1.2623
LJ           1.80215        -3.72404       -0.621741
LJ          -2.22255        -4.30385         2.56761
LJ           5.46431         1.88572        -1.93619
LJ          -4.20571        -3.03662         5.71245
LJ          -5.01967        -5.68515           5.001
LJ           2.25745        -3.65407         2.95798
LJ         0.0752457        -1.07298         4.00979
LJ           2.06494          0.8144        -6.12756
LJ          -2.49891         3.12458        -3.14347
LJ           6.12927        -1.18081         3.49883
LJ          0.734134        -2.41342         3.52312
LJ           1.73047         5.42016       -0.983879
LJ           2.63924        -5.39184      -0.0529586
LJ          -5.42041        -5.04552        -3.38722
LJ          -2.83186        -2.05664         -1.1286
LJ          -3.22434         1.34019         -2.1559
LJ          -5.36974         1.62947         2.43007
LJ         -0.738917        0.728958        -5.11036
LJ           1.78284         1.34678        -3.68753
LJ           5.51087         3.76064     -0.00572963
LJ           1.61513         1.49882          4.6115
LJ          0.651829        -2.24693        0.313872
LJ           4.88407        -4.10064        -1.32367
LJ          -6.22634       -0.663591        -3.42976
LJ           1.47801        -5.92801        -5.00623
LJ           1.50799         -5.6346        -1.46474
LJ          -2.00383       -0.330194          1.8694
LJ          -4.69721         1.24376        -2.43501
LJ          -4.08551         1.71936         1.51688
LJ          -6.34232         3.39646        -5.36207
LJ          -4.87629       -0.153614        -3.68989
