108
#Comment!
LJ          -4.33509        -4.75805        -6.17782
LJ          -2.16866        -6.15415        -4.48488
LJ          -5.93361        -5.36642         6.41205
LJ          -0.38119        -5.98781        -3.82554
LJ            1.0045         4.60496        -6.28444
LJ           4.84986        -3.89873         4.87544
LJ          -5.12704         -5.4022        -2.93354
LJ             0.234         -5.6349        -3.01799
LJ          -6.08679         5.62784         6.01094
LJ          0.795367        -3.70792        -3.92689
LJ           1.98543         3.33599         6.15449
LJ           2.41482         5.49469        -4.36019
LJ           3.89162        -2.54068        -4.14368
LJ          -2.43591         1.47947         6.23569
LJ          -5.59776         3.84114        -1.84498
LJ          -5.24097        -3.76341        -2.42565
LJ          -1.54113        0.623623        -5.19347
LJ           1.63174        -3.94207         5.26313
LJ          -1.88114         2.73599        -5.03448
LJ           1.85184        -2.21236        -3.66833
LJ           3.51741        -2.26353        -5.64582
LJ           2.60764         3.74149        -4.17448
LJ           3.98699        -3.38874        -1.36408
LJ          -4.92707        -2.23186        -2.53013
LJ           5.54478         2.22563        -5.10648
LJ           5.72976         4.89848         5.54595
LJ          -5.50069         1.87852        -4.83308
LJ           -4.5346         3.79172        -4.14126
LJ          -2.70751        0.143545        -4.07405
LJ          -4.32245         3.71283         5.97542
LJ          -4.17544         5.71909        -5.61275
LJ          -3.88059         2.22812        -4.37902
LJ           2.71058         1.19736        -1.56708
LJ            1.2507         1.70243        -5.93662
LJ          0.789813         3.85205        -4.76887
LJ           1.46937         6.31376         -2.6506
LJ          -3.97291         3.87051       -0.484174
LJ          -4.61069         6.26121        -2.37847
LJ          -5.24648         4.06913       -0.366955
LJ          -5.15309         -4.1115        0.919633
LJ         -0.469309        -5.33267        0.330702
LJ          0.458231          -2.231        -4.49485
LJ          -4.18946        0.783901        -1.68819
LJ          -1.17578        -5.84978        -2.10044
LJ          -1.98263         -5.3732        -3.00589
LJ          -2.80601        -2.27666       -0.976085
LJ           2.61246        -4.10797        -2.21014
LJ           2.96562        -5.46178        0.249107
LJ           4.05743         3.82925        -2.00098
LJ          -2.53767         1.79546        -5.05186
LJ           4.29757        -1.79678         -2.2735
LJ          -6.45224       -0.439949        -4.28601
LJ         -0.169136        -3.61773         3.28216
LJ          -1.35747         3.11529        -2.43568
LJ         -0.300197        -1.49679       -0.400195
LJ          0.266008        -4.09793         2.64312
LJ            2.3232        -4.43571        -3.84414
LJ           4.93713         1.47938        -3.52683
LJ         -0.922456        -1.89232        -1.65075
LJ            2.2006        -1.05013       -0.519122
LJ          -6.45904         5.52148         -2.1193
LJ          -3.36288         3.56563        -3.24492
LJ           1.78874         4.44817       -0.137416
LJ          -4.76804       -0.634252        0.277066
LJ          -2.76489        0.200247         1.50058
LJ         -0.404481         2.60114        -4.25426
LJ          -1.07878        0.740703        -1.42177
LJ            1.5297         4.66797        -2.93868
LJ          0.385524         3.76648        -3.71932
LJ           1.22961         4.32374        -1.01955
LJ          0.161185         3.57629         1.55832
LJ           2.89271         4.73603         1.75473
LJ          -5.57006        -6.11837         2.01288
LJ          -5.01746        -3.60949         4.77668
LJ          -5.87462        -1.58984         3.68755
LJ          -5.13726         4.53915         2.35364
LJ           0.87638         4.20251         4.58831
LJ         -0.380294        -4.94735         3.95925
LJ           1.76236        0.900348         4.60146
LJ           1.30914        -4.94285         3.62728
LJ         -0.587844         4.95273        0.688772
LJ           5.08739        -5.16702         1.20024
LJ           4.00369        -5.38608         3.49463
LJ            3.6274         5.27793         5.58364
LJ           5.83147        -3.21167         2.24948
LJ           5.45224       -0.586628         1.59834
LJ          -4.96896         1.57516         4.44645
LJ           6.05472        0.376261         1.73353
LJ          -5.63149         1.14124         1.32856
LJ          -2.32576        -4.67176         3.63239
LJ           1.14122        -1.90045         3.39838
LJ           1.50347        -2.69266        -4.55015
LJ           3.63226        -3.64278        0.678604
LJ           3.96541         1.25311         2.16917
LJ           6.46085         2.64179         3.36911
LJ           4.59451        -1.94036         1.77707
LJ           5.77236         2.11298        0.506983
LJ          -4.84455          6.2777         2.63046
LJ          -4.21113         2.68056         5.08048
LJ         -0.848111         2.17496         1.40045
LJ          -1.66719         1.28581         2.15072
LJ         0.0289315         4.67008         1.75557
LJ         -0.682205          3.8135        -6.20757
LJ          -1.47594         1.60928        -5.20096
LJ           3.16492         3.92648         2.77352
LJ           5.77742         1.89033         2.07817
LJ          0.387334         1.69418         3.70754
LJ           5.52552        0.222702         5.80665
