108
#Comment!
LJ          -4.00012         1.78366       -0.282353
LJ            4.2794       -0.737281         3.16974
LJ          -5.01313        -3.34539         4.26253
LJ          0.933544        0.484625         3.12264
LJ          -5.74849         1.65753         1.49954
LJ         -0.987735         4.28134         -2.4109
LJ           4.52322         5.53598          6.1459
LJ          -5.09572         2.48298        -5.99852
LJ           1.85654       -0.341191         3.46845
LJ           3.05496       -0.622231         6.31259
LJ          -1.99955         4.09957        -4.53929
LJ          -2.52725         1.17521        -3.70481
LJ          -1.41751         3.68345         3.17748
LJ           4.63561        -6.23856        -4.06083
LJ           2.41946         -6.3498        0.220279
LJ          -2.89002         3.12981         3.64259
LJ            4.7912        -3.39771        0.131227
LJ          0.897216        -4.55298         3.71298
LJ          -6.06558        -3.65163         3.69553
LJ          -4.79653         3.33319       0.0474283
LJ           3.26315        -4.38291        -5.62083
LJ           4.56138         1.49612         5.97246
LJ           3.26592        0.853902         6.04917
LJ          -2.85179         3.46159        -6.33798
LJ           6.20225         -0.6989         2.74167
LJ           2.21341         4.53099         5.87112
LJ           6.13083       -0.932548        -4.85892
LJ          0.968428        -1.19007         3.00388
LJ          -4.86297         2.49955        -3.78808
LJ         -0.458138        -5.19626         -1.8488
LJ          0.829868       -0.139532        -2.65127
LJ          -2.08962       -0.570892         2.08335
LJ          0.313501         3.21399        0.858357
LJ          -3.29927         3.34271         1.99874
LJ          -4.31125        -4.78937        0.981948
LJ          0.765696         6.26517        -5.01637
LJ          -2.87555         1.69969          2.3947
LJ           1.23989         5.16115         1.11351
LJ            2.5605         5.60549       -0.337681
LJ          -5.44968        -2.36869         -1.8364
LJ           5.39192         1.18624        -3.56403
LJ           4.74131        -6.40758         3.03637
LJ          -5.26366       -0.739116         2.60946
LJ          -6.43705       -0.174615         3.92444
LJ         0.0112149         3.91126         5.27101
LJ           3.54963         4.45819       -0.544857
LJ          -0.34242        -3.42018          1.8923
LJ           2.40284        -1.98382         2.74685
LJ          -2.68307         5.46951        -3.45997
LJ         -0.140418        0.923992         3.17486
LJ            2.2875        -4.42359        -6.26069
LJ          -2.51104        0.986093         4.33383
LJ           5.67625        -1.23422        0.577931
LJ           5.11305         -1.2842        -2.56543
LJ           6.34974         6.05189        -3.68332
LJ          -5.15368         3.74171        -4.61599
LJ           2.99348        -5.61407         -2.5517
LJ         -0.769454        -1.80425        -2.99264
LJ            5.8163        -3.36759         2.44402
LJ         -0.949981         6.10264        -5.26029
LJ           4.97652         1.34207         2.73499
LJ          -2.73477         3.61236         4.48841
LJ           4.58099        -2.47833        -2.44001
LJ           6.12487        -6.31553        -1.53631
LJ          -5.33319        -2.66534         -5.9057
LJ           3.88152        -1.13943         1.48491
LJ           4.36952        0.259092         1.74111
LJ          -3.65006          5.9966        -0.27125
LJ           5.10703         5.88144         4.16749
LJ           1.67007        0.509319         4.82619
LJ          -3.46173         3.95047        -0.64541
LJ          -6.06795          3.1759        -5.96127
LJ         0.0768362        -4.20573       -0.942888
LJ         -0.602847        -1.81396        -4.08514
LJ          -2.83176         5.03009        -2.33916
LJ          -2.13751          1.6513        -2.05276
LJ           5.26046         6.18246         5.43567
LJ         -0.850157          4.3148        -3.68826
LJ          0.585868        -1.13361        -2.47066
LJ          -4.14591         3.74912         2.33571
LJ          -1.48349         -3.0848         4.33728
LJ          -6.40977         1.32342         -6.2355
LJ         -0.230281        -2.26516        -1.09396
LJ           4.58011        0.780208         3.62204
LJ           6.09239         2.57486         4.65307
LJ          -5.35773        0.141316        -5.33401
LJ           5.26627         -5.8841         1.95554
LJ            3.3291        -3.45602         3.06344
LJ           2.02241         5.24422         2.39767
LJ           5.02698         3.85103         3.90831
LJ          -5.10128       -0.856117        -3.28545
LJ           -5.3213        -5.30767        -4.22044
LJ          -5.60349         1.39337        -2.75778
LJ          0.439682        -3.07849        -4.53425
LJ           5.65435         5.56811        -1.06914
LJ             2.522        -4.07481         5.48046
LJ           3.32241         4.40506          1.6402
LJ          -3.68432         2.25666        0.703548
LJ           3.30209         4.87012        -1.70189
LJ           5.60675          1.2493        -4.48142
LJ          -6.11331         6.45935        -5.62334
LJ           5.81278         5.39552        -2.10883
LJ          0.859726         3.02927         6.19935
LJ          0.124318       -0.809961        -1.04212
LJ         -0.104822         2.65185        -1.06553
LJ           6.37149        -5.16594         2.16733
LJ            2.9488          4.5837         2.75921
LJ           -2.9584        -5.71442         2.82022
