108
#Comment!
LJ          -2.69701        -1.44726        0.904558
LJ          -2.51249          2.6891        -4.21179
LJ           5.07391        -4.92419          5.7689
LJ           6.40561       -0.507807        0.350399
LJ          -5.69934         6.12948        -1.00931
LJ          -5.14024          -4.845       -0.830558
LJ           1.46052        -1.74596        0.328065
LJ          -5.31599        -1.91702        -1.38288
LJ         -0.144346         4.73117          4.3309
LJ           1.99909         4.10998         1.68965
LJ          -4.10971       -0.614283       -0.970522
LJ          -6.06434        -4.09276         5.20232
LJ          -1.84646         3.03903        0.476504
LJ          -4.34028         2.22908        -4.21787
LJ           -1.9939        -2.52781        -5.76745
LJ          -2.16492         -3.9136        -5.53108
LJ          -2.64392       -0.853405         2.81597
LJ          -2.48303         3.84592        0.276557
LJ          -2.65693        0.425155         5.71015
LJ           5.66602         -0.8141         1.55735
LJ           4.25156        -3.04529         1.36173
LJ          -1.92207        -4.27783        -4.33546
LJ         -0.666404         2.82017         1.67206
LJ          -5.56537        -3.53517        -5.97463
LJ           6.22289         2.14688         2.38176
LJ           1.04361        -6.44997         2.24355
LJ          -2.01219          1.4866        -6.19086
LJ          -5.30417         5.24661         3.29184
LJ          -4.46328         0.57967         2.01343
LJ           3.33758         4.07603        -1.99294
LJ          -3.37616        -2.56617         5.42576
LJ          -4.21313         2.34049         3.86668
LJ           5.42043        -3.99749        0.731143
LJ          -4.57467         1.13929         4.35371
LJ          -2.57182        -6.33594        -1.96019
LJ          -4.76263          4.5343        0.367734
LJ         -0.682731        -2.77086        0.332837
LJ          -2.20322         2.80217         3.43981
LJ          -3.73882         3.76883        0.688984
LJ           1.59243         4.98681         5.37393
LJ           2.32058         5.05195        -6.23345
LJ        -0.0728121       -0.210741         2.37315
LJ           4.79615        -4.86001        -6.25333
LJ           6.03282          -3.944        -2.80518
LJ          -2.49785         3.78687        -1.20736
LJ          0.509517        -6.23702        -4.60837
LJ           2.89296         -1.8325       -0.786788
LJ           2.79195         5.67312         -5.0753
LJ           3.84901         3.15044       -0.311603
LJ          -1.70975        -1.78533         -1.8113
LJ           5.38875        -1.62795        -3.36583
LJ           3.35186         3.00388        -3.28821
LJ          -5.05656         -2.0724        -4.52367
LJ          0.990395        0.359848        -5.82193
LJ          0.680654         6.22281         -6.2691
LJ           2.81166         2.91606         1.31326
LJ           2.43131         -0.9892       -0.198874
LJ           2.68349        -2.75988        -3.40811
LJ            2.5797         5.58872         4.99301
LJ           3.32969        -2.78317       -0.217001
LJ           2.99833         2.81524        -5.04461
LJ         -0.115906        0.977278        -1.60839
LJ          0.410331         2.63206          2.1752
LJ            5.6109         4.32115         1.62877
LJ           1.72512        -2.85504        -5.39312
LJ           5.38167        -6.25607         2.58166
LJ           4.13906        -2.69423        -4.75797
LJ          0.871846        -4.55524        0.643537
LJ           3.21184         3.63363        -4.36873
LJ           5.07891        -6.08074         1.30859
LJ          0.225836        -2.63442         4.25152
LJ           5.41222        -1.50789        -1.80146
LJ          -4.40894        -3.52972         4.61908
LJ          -3.45007        -6.33356        -2.55748
LJ          -2.92901        -1.34684       -0.197586
LJ          0.454335         -4.3888        -5.79775
LJ          -3.04938         5.76869         1.72707
LJ          -2.97554        0.927283        -1.44234
LJ            1.7517        -6.25012         4.88321
LJ          -3.95657         4.09247         2.77113
LJ          -2.96885         2.49912        0.720257
LJ          0.662033         3.96168         5.74504
LJ          -5.94832         6.05921         4.40593
LJ          -3.36659         1.36204        -4.17369
LJ          -5.76827        -2.98461         4.42072
LJ           5.74642         -5.7816        -5.27769
LJ          -1.91785         5.79274         2.67161
LJ          -3.24249          3.1491       -0.178985
LJ           6.01682         5.70234         1.24225
LJ            5.6746         4.42639          2.7645
LJ           6.37085         -1.7622         2.55543
LJ           2.34741         3.37588         3.18857
LJ          -1.90483        -4.28077         5.23275
LJ          -5.80987         0.25797        -3.41093
LJ          -1.30946         3.05119       -0.312451
LJ          -6.45727        -4.86873         -1.3619
LJ          -4.65329        -2.70812         1.67488
LJ           4.16033         5.70954         -3.4919
LJ            2.0451        -1.24784         5.13622
LJ           5.77817       -0.829965        -2.62405
LJ          -6.08095         5.44282        -1.87619
LJ          -2.98222        0.609327         3.15113
LJ          -5.99123        0.896041         6.31148
LJ          -3.58599        -3.37313         6.01509
LJ           -5.2315         1.80737        -3.76845
LJ          -4.35388        -3.92096         5.63623
LJ          0.373039        -3.60928         3.42258
LJ           5.45057        -4.06701          6.4131
