108
#Comment!
LJ           2.89359         4.43902         2.56121
LJ         -0.588103         1.68412         4.63465
LJ           2.73958         1.45196        -1.71858
LJ          0.836934        -3.16027        -4.78683
LJ          -3.01099         4.09595       -0.865619
LJ          -5.92539        -4.30404       0.0149329
LJ          -3.66645         3.94172        -4.20245
LJ           3.26139        -4.70554         3.83373
LJ           2.05648        -5.39654        -5.29864
LJ           3.01883         6.00996         6.31411
LJ           6.04395         4.02732        -4.17592
LJ           1.85213        0.894631         -0.2474
LJ          0.530259         4.36391        -2.48399
LJ          0.180119        -1.52318        -5.97423
LJ           2.30373         -4.7772         1.58385
LJ          -3.76318        -2.75872        -2.17423
LJ         -0.292501        -4.28408        -3.92378
LJ           5.94349          1.7924         2.16765
LJ           2.43225         3.45106         2.35335
LJ          0.617654         1.11084         2.88332
LJ         -0.964591        -3.90599        -1.44565
LJ          -3.43105        -1.70663       -0.427522
LJ          -5.12272        -2.72269         2.76576
LJ           3.05045         3.73045        -0.67846
LJ           3.92805        -2.36786        0.573639
LJ          -2.04499          3.0046        -5.16172
LJ          -5.84955          2.0895         2.29064
LJ           -4.5122         4.16026         4.96686
LJ          -0.53642       -0.721409         -4.6355
LJ           -3.7731        0.948429         -1.8819
LJ           1.70059        -0.28681         5.12997
LJ          -4.30362       0.0602761       -0.430166
LJ           4.81102          3.0337          -5.985
LJ          -4.11898       -0.785297        -3.57246
LJ           3.38527        0.546277         5.41419
LJ           3.86271        -1.15007        -4.16843
LJ          -5.88618         6.10811         -4.6377
LJ           5.18273        -3.61152           5.909
LJ          -1.06873        -3.60277        0.345526
LJ          -2.51177        -3.72717        -5.70932
LJ           1.97656         4.10042        -2.08472
LJ         -0.918471        0.170256         4.28061
LJ          -2.16483        -1.06418         1.98703
LJ           4.92913         5.99629         1.25077
LJ             -3.52        -3.56858        -4.81127
LJ           4.68434        -1.75904         6.35092
LJ           1.11703        -1.52928         3.29433
LJ           3.61471         4.73606        -4.89456
LJ           1.67673         3.30996        -3.35104
LJ          -3.45132         -2.1939        -4.75177
LJ           5.90921        -4.19727         5.44543
LJ          -1.69411        0.965019         1.52013
LJ          0.699383        -3.94591        -3.98155
LJ           6.39794        -5.50382        -1.30763
LJ          -5.57513          3.8416         5.26351
LJ          -3.68562        -3.47068        -0.99057
LJ          -4.04359         4.56609         1.01371
LJ           4.78574         3.33692        -2.81574
LJ           5.11596        -6.31727         -6.3736
LJ          -1.13871        -5.27239         2.85015
LJ          0.955353       -0.546053       -0.242569
LJ          -5.61426        -1.10567         5.80284
LJ          -6.13927        -4.61264         3.22402
LJ            4.8824         -1.1603         2.66576
LJ          -4.57041        -2.39449       -0.588439
LJ           4.24669         6.33678        -2.00004
LJ          -6.23268        -6.41543        -2.81949
LJ          -6.40427        -1.51985         3.52753
LJ           3.33491        -6.29102        -4.04107
LJ          -1.27102         3.31053        -1.64457
LJ           5.22706         5.08174        -2.24431
LJ           4.40693       -0.729629       -0.141365
LJ           2.87699        -6.22823         3.77881
LJ          -3.71117        -5.30035         -5.3093
LJ         -0.637958         4.09439         2.74972
LJ           6.17332       0.0145873         2.53653
LJ          -2.48656         3.96288        -3.34201
LJ          -5.09113         5.53072         1.60921
LJ          -6.00359        -1.93452         5.40718
LJ          -6.26599         4.42251        -6.28255
LJ          -1.52727        -5.18522        -1.47743
LJ          -6.43632        -3.74362        -1.02167
LJ          -1.41891          3.3259        -2.67493
LJ          -1.24559         2.27788         2.06048
LJ           -2.1223         5.58154         1.60663
LJ             5.274         1.18453        -5.30949
LJ           4.11054       -0.499241         3.76535
LJ           1.80261         4.12507       -0.539365
LJ           3.48976         3.99358        -2.72765
LJ          -4.06831        -5.56752         2.16066
LJ          -5.27312         3.50614         6.14126
LJ          0.823502        0.370659        0.594026
LJ          -4.86686         4.25994        -6.14714
LJ           4.08543        -1.16009         5.19988
LJ          -5.68434          4.5293        -1.73434
LJ           4.51851         4.49549         3.50372
LJ         -0.297515         6.00645          4.9798
LJ           -5.9034         4.56296        -4.82877
LJ          -3.54232         1.77924         1.30802
LJ          -2.81878        -5.12031         3.32758
LJ          0.234757         2.52445       -0.555769
LJ           5.53048        -4.91243        0.693459
LJ           3.86458         5.32313         2.76148
LJ         -0.202058         1.25252         5.51963
LJ           -3.1334        -1.38568         1.78594
LJ           6.16284       -0.631534         6.00099
LJ           4.36694        -3.65181         2.15498
LJ         -0.301064         6.44895        -6.24426
