108
#Comment!
LJ           2.64239        -5.25322         5.72224
LJ           -5.5598        0.856412        -4.79246
LJ          -1.98104         1.47339        -6.43691
LJ           1.92213        -5.64701         1.84765
LJ          0.461647        0.202126        0.944919
LJ            2.4464        -4.81579         3.97906
LJ          -1.59264        -3.28539         4.28297
LJ          -3.89029        -4.68265        0.256527
LJ            3.8999        -3.45087         6.26103
LJ         -0.314493        -6.44096        0.889949
LJ          -4.48483         5.45962        -3.61566
LJ          -2.60792        -1.50771            3.17
LJ          -4.93426         6.05918          6.0516
LJ          -4.22817         1.74653         5.10745
LJ           1.74077        -5.36749        -2.57232
LJ          -1.20942        -1.02054        -5.64307
LJ          -2.75994        -1.83497        -5.44298
LJ           5.53054         6.42489        -5.88476
LJ          -6.30715        -6.17828        -5.88411
LJ          -2.33874        -4.23051         3.46874
LJ          -3.47201       -0.397387        -3.00346
LJ          -3.11208        -1.60342       -0.676215
LJ          -1.80631          2.6469        0.758917
LJ          -1.36529        -2.04976         6.12825
LJ          -5.87897        -1.34734         5.81082
LJ          -2.94761        -5.36458          2.1226
LJ          0.952255         -2.3364        -5.49128
LJ          -1.44549         2.41194        -3.66032
LJ          -2.61893        0.673382         1.74423
LJ           1.13216        -2.48118         3.87166
LJ           4.40603        -3.53148         4.11593
LJ          -2.61923         2.45422          3.3041
LJ           2.26538        -2.80733        -3.74891
LJ           5.71167         3.22288        0.431302
LJ            3.5128        -4.73596        -3.09753
LJ          0.688974         1.84145       -0.752382
LJ          -1.79093         3.38943         4.50874
LJ          -4.18775         1.84942         6.04686
LJ           6.17796         4.86997         1.39536
LJ          0.499315         4.47659        -1.13003
LJ           5.38609        -4.30605        -3.01051
LJ           -1.1762         5.76596        0.830009
LJ          -1.26434         4.94955         4.94518
LJ          -5.80576        -4.90347         1.96145
LJ          0.176549       -0.418015         2.86365
LJ          -4.28032         3.57961         1.14855
LJ          -2.41334        -3.05557       -0.662129
LJ           4.37503       -0.473927         2.61052
LJ         -0.982391        -2.59815        -3.21814
LJ          -5.31015        0.956069         2.17253
LJ           -3.9512        -1.44914         2.02031
LJ          -5.44341         2.03756        0.900295
LJ           6.23425        -3.83054         1.45282
LJ          -2.12277        -5.77095       -0.536037
LJ          -3.38402         4.82953         4.05143
LJ           4.62173          -3.677         5.16612
LJ         -0.361076        -2.64237          1.0179
LJ           4.36567         4.35252         -3.2527
LJ           1.00713      -0.0525938         3.68003
LJ         -0.381866         1.69703         6.34628
LJ          -6.32375        -4.74448        -1.08063
LJ          -5.74759        -3.52819         0.60005
LJ          -1.58126        -1.36353       -0.938909
LJ          -5.92902          -2.568           5.751
LJ          0.216815         -3.0069        -6.05419
LJ          0.170958         2.88383         5.75938
LJ          -2.47281         5.58093         1.81001
LJ           2.61538        -6.25804         4.72042
LJ           6.03032         3.52716        -2.81365
LJ           2.62554         3.15873        -5.37625
LJ          -4.68915        0.863554        -3.74844
LJ           6.17722        -5.03943         -1.8632
LJ           1.66139         3.53489        -2.40361
LJ           -1.4032         6.26449         3.48855
LJ          -4.39902         5.36824         1.60743
LJ         -0.310703      0.00332274         5.71103
LJ           2.35578        0.689508         4.78054
LJ            2.4829         2.15148        0.247681
LJ          -5.11156       -0.300424         4.23547
LJ          -1.60287        -4.37136         -4.1572
LJ           4.93979        -5.56923         -1.6435
LJ          -3.03511       -0.579819         1.68879
LJ          -6.07066       -0.397304        -2.33054
LJ           5.44985        0.651817        -5.50886
LJ           5.92125        -4.80274         2.61775
LJ          -3.32999         2.84902        -3.14287
LJ           6.02322         5.73153         2.11272
LJ          -5.67368        -1.43208        -4.79258
LJ            -2.841        -1.37606        0.645344
LJ            3.4783        -6.29663         2.25219
LJ          0.426476         3.34131        -3.50972
LJ           -3.6136        -2.11251         6.02367
LJ           5.80653        -5.51263         5.83616
LJ          -5.03234         -1.1785        -1.65423
LJ         -0.821524         3.37381         1.55808
LJ         -0.930482       -0.140683        -3.70113
LJ            2.6487        0.431269        -1.63185
LJ          0.322361         4.97607          3.8918
LJ           1.56372        -5.58089         6.31491
LJ           6.38822         3.90675        -4.90462
LJ         -0.978069       -0.940778         1.82613
LJ           2.82033         -1.6577        -2.25572
LJ           5.02677        -2.87919         5.95394
LJ          -2.31277       -0.890235        -2.64919
LJ           5.67178        -4.88836        -5.47283
LJ            6.0071        -4.28014         4.45725
LJ           4.71901         3.36356        -3.38466
LJ          -3.01936         2.65997         4.88508
