108
#Comment!
LJ          -5.66295         1.36685         1.56624
LJ           3.07629        -1.77613         3.40027
LJ          -4.13412         2.09405        0.258922
LJ           5.49845         -1.8121       -0.199317
LJ          -0.67727        -5.69839         4.13447
LJ           5.03346        -3.18755        -6.25502
LJ          -2.46465        -4.83907         5.97042
LJ           -1.2477         1.73255        -4.80016
LJ          -3.20185       0.0576916         2.16681
LJ           4.17388        -2.40065       -0.934342
LJ          -5.71654        0.745662       -0.452645
LJ          -2.64492         4.61185        0.177302
LJ           -1.4634        -4.18622         5.65195
LJ          -5.57066        -5.22421          6.2541
LJ           -5.3926         5.34234         3.00048
LJ          0.492979         5.65127       -0.597453
LJ          -5.11115        -3.05133         4.09103
LJ           1.87623         2.98377           1.796
LJ           2.44816       -0.793122         2.58422
LJ          -2.05934        -1.80314          -6.463
LJ          0.543699        -1.45586        -3.19452
LJ          -4.96907          1.5587         -5.8966
LJ           1.60869        -2.57937        -6.19981
LJ          -1.68411          1.7719         4.15522
LJ          -3.84127        -3.25609         4.47685
LJ           1.41995          1.3098         4.71546
LJ          -3.14905        -5.07607         1.15262
LJ          -1.45655          5.9355        -6.45725
LJ          -6.32989         2.87778        -2.50635
LJ          -2.06276        -3.40579        -1.41904
LJ         -0.706408         3.43705       -0.779498
LJ          -5.40775         2.45703        0.120732
LJ         -0.206408        -3.73277        -3.77408
LJ           3.49432        -2.58006        -3.31186
LJ               1.5        -4.25923         3.39587
LJ          -3.79721         3.46933        -3.30837
LJ          -3.62142         -4.2777         2.67011
LJ          -4.69819        -5.22234        -0.50297
LJ          -5.10962         6.41811         2.63831
LJ         -0.964804        -4.62297        -1.30178
LJ           2.66064        -6.34163         2.52584
LJ           1.58547         4.88295          1.9035
LJ          -6.13293        -3.39138         4.00272
LJ           4.20933         5.88336        0.566075
LJ           5.73857        -5.68378        -3.54853
LJ          -1.88239       -0.629368        -1.46183
LJ           5.76105        -4.23114        -2.08239
LJ          -1.24356        -1.16624         1.79106
LJ          -1.65569        -1.09211         -3.5998
LJ          -4.04369         6.20874         4.50638
LJ           1.79244         2.86794        -2.43056
LJ           2.91021         -3.1684        0.335161
LJ          -1.87809      -0.0253076        -4.64174
LJ          -1.79841         5.83131         1.85415
LJ           4.89886        -4.40942        0.934398
LJ          0.543789          2.8036         1.30649
LJ           -1.3386         3.37808        -3.79596
LJ          -2.55761        -2.53731        -2.69453
LJ              4.72        -1.19283        -3.49077
LJ           4.69576         -6.2772        -4.01991
LJ           1.24722        0.970634         1.85658
LJ        -0.0919795         4.65581         -1.9131
LJ           4.91852         5.06262        -4.64445
LJ          -6.19503         4.38009        -6.30413
LJ          -6.19028         -6.1557        -2.42961
LJ         -0.259106         4.38607        0.104987
LJ          -2.60777         3.24611        -3.98859
LJ         -0.842245         2.26837         1.04947
LJ           4.25082        0.659492        0.906435
LJ           3.80181          1.2305        -1.86814
LJ            2.7288         3.34524        -1.89657
LJ           4.25829        -5.45602         5.24787
LJ          -2.40276         3.30351         1.64587
LJ          -5.03866         5.68295        -6.14775
LJ           2.58618         5.27636        0.386725
LJ          -1.51593        -4.47638        -4.19576
LJ           -3.9553         4.85612        0.336349
LJ           1.61652        -3.74622        -1.14662
LJ          -1.44699        -3.43732        -3.56294
LJ           3.60068         1.08884       -0.606584
LJ           -2.8827        -2.05345        -1.20514
LJ           6.00225        -6.02133         5.37058
LJ           5.78168          1.6199         -1.7665
LJ          -3.28332       -0.384054         -5.9038
LJ          -2.60668           -2.38         -4.1708
LJ          -3.10876        -3.25334        -3.21948
LJ           4.78489        -2.18078        -4.46119
LJ            2.1995        -5.85874          -3.602
LJ           0.85898         4.56568        -3.19938
LJ         -0.787324         5.02145        -6.20151
LJ           5.97704         5.13894        -3.96482
LJ         -0.160983        -1.40874          3.2154
LJ       0.000711577        -2.09483        -2.44962
LJ          -6.24731         2.67409           1.788
LJ          -4.44561        0.144198         4.10344
LJ         -0.406185         2.31589        -2.89617
LJ           4.63078         1.74705        -5.46519
LJ           1.19035         3.51197        -3.35537
LJ           -2.1807        -4.13304         1.37198
LJ          -5.47272         6.38126        -2.91036
LJ          -3.06688        0.493247        -4.97563
LJ           0.96828      -0.0793865         5.27694
LJ          -3.63574         6.01905        -2.75188
LJ           5.56643         4.13328        -1.25204
LJ          -1.17613         1.37545        -3.50624
LJ           2.36192         4.35568        -2.99998
LJ          -4.42319        -5.52818        -2.34001
LJ          -1.40741         1.37332        -5.82863
