108
#Comment!
LJ          -4.50185         1.05835        0.352887
LJ           4.45492       -0.570906         3.72864
LJ           -4.7166         -3.1198          4.9797
LJ          0.602019         1.72738         4.48149
LJ          -4.82779         2.80071         2.22424
LJ         -0.358041         5.62597        -2.91996
LJ           5.06058         5.33046         4.80789
LJ          -5.26539         2.72727        -5.99233
LJ           3.25082       -0.374718         3.75924
LJ           3.84082       -0.219272         6.12136
LJ           -1.4096         4.99039        -4.87058
LJ           -3.0597        0.423608        -3.95761
LJ          -1.77535         3.46335         3.10104
LJ           3.56325         6.01646        -3.99733
LJ           1.59816         6.34137        0.113261
LJ          -2.80242         4.23241         2.80559
LJ           3.70074        -2.81861         1.06924
LJ           1.50786        -3.30324         2.13625
LJ          -6.01243        -3.91089         3.62668
LJ          -4.42003         3.86566        0.103783
LJ           2.39209        -4.16349        -5.33633
LJ           5.00393        0.194718         5.10615
LJ           3.98326         1.73821         4.74247
LJ          -4.22293         4.16469         6.04153
LJ           6.42681         -2.1851         3.77302
LJ           3.25784         5.30939         6.14605
LJ           5.63402       -0.973605        -4.62979
LJ            1.9778       -0.951936         2.15864
LJ          -4.99282         2.67648        -4.24944
LJ         -0.925648        -6.03874       -0.332298
LJ          0.940577        0.395466        -2.73262
LJ          -1.43839       -0.530651         1.86567
LJ           0.92993         3.75777         1.21603
LJ          -1.94814         2.46312         2.75934
LJ            -4.163        -3.67883       -0.389256
LJ          0.873401         4.96616        -4.95857
LJ           -3.7333         2.22443         2.75165
LJ           1.87371         3.24733        0.413722
LJ           3.43657         5.72345       -0.914214
LJ          -4.73719        -1.78303        -1.46467
LJ           5.27791        0.452208         -2.8663
LJ           3.73658        -6.15788         2.20524
LJ          -3.68135      -0.0987314         2.95689
LJ          -6.26501       -0.813814         3.83542
LJ          0.605197         3.86508         4.90075
LJ           2.42468         3.78087        -1.58029
LJ          -1.19257        -3.74808         1.02818
LJ           1.89253        -2.02965          2.2347
LJ          -1.99288         5.79174        -2.91009
LJ         -0.515952        0.791898         2.56391
LJ            1.3582        -4.42391         -6.0491
LJ          -2.60807        0.571418         5.16781
LJ           5.12877       -0.646883        0.498315
LJ           4.44012         -2.2727        -2.63705
LJ           5.58107         5.31836        -4.68895
LJ          -4.70694         3.86417        -6.01122
LJ           3.76933        -6.40885        -2.29631
LJ         -0.427617       -0.855329        -1.84763
LJ           4.33675        -3.65505         2.03602
LJ         -0.869684        -6.18784        -4.97237
LJ           3.50894        0.634086         2.52098
LJ          -2.65521         4.53986         4.66599
LJ           4.16942        -2.56847        -1.49462
LJ           6.38046         5.35865         -2.1637
LJ          -6.23593        -2.41732        -5.86189
LJ           5.21564       -0.624703         2.14103
LJ           2.25176        0.046687         2.99236
LJ          -4.02328        -5.47397       -0.779682
LJ           3.57529         5.85191         5.07301
LJ           1.59248        -1.04561         4.74081
LJ          -3.75273         3.34299       -0.666288
LJ          -6.22254         3.49792        -5.16384
LJ          0.352971         -4.3031         -1.6602
LJ         -0.170685        -1.81409        -3.69054
LJ          -4.25289         -6.3349        -2.06273
LJ          -2.16883         2.61184        -1.35029
LJ            5.0664         -5.7954         5.38076
LJ         -0.712308         4.73241        -3.71897
LJ          0.481644       -0.633426         -2.4138
LJ          -3.96738         4.34893          3.2352
LJ         -0.493261        -3.33001         4.71306
LJ           6.28816         1.25728         5.52319
LJ          0.282437        -2.64407        -2.71872
LJ           5.18277        0.898185         4.36297
LJ           5.82062         1.60158         4.75614
LJ          -4.95134       -0.991948        -5.06412
LJ           5.10523         6.07749         1.36213
LJ           2.47895         -3.5093          2.1806
LJ           1.81513          4.5692         2.31382
LJ           4.28267         3.80731         4.26234
LJ          -4.48889        -1.09797        -3.10743
LJ          -5.17177        -6.32297        -3.34738
LJ          -5.21645         2.74738        -2.77316
LJ         -0.120037        -2.57646        -4.59851
LJ           5.82438         6.18462       0.0204342
LJ           2.39329        -4.50835         6.30771
LJ            2.8396         5.52037        0.637899
LJ          -3.28355         2.33598         1.38358
LJ           3.54382         4.62013        -1.96631
LJ           6.09248        0.473494        -5.67893
LJ           5.30555         6.25348        -5.26623
LJ           5.54572         4.21826       -0.775847
LJ           3.18429         1.30772         5.92882
LJ          0.744773         -1.4012        -1.43274
LJ         -0.333218         2.96922       -0.156757
LJ           6.36015        -5.46309         1.10226
LJ           3.41217         5.13531         1.71885
LJ          -1.53342         -5.4317         4.16006
