108
#Comment!
LJ           3.76403      -0.0182946       -0.516979
LJ           2.28573        0.198887       0.0715267
LJ          -3.82544        0.489847        0.391102
LJ          -4.79498         -5.8559        -0.80054
LJ          -1.23443        -5.59702         3.11198
LJ           2.74068        -2.84534         1.10039
LJ          -2.91613        -1.67644        -4.78345
LJ          -4.71552        -4.83455        -2.38913
LJ           2.36859        0.324602        -3.86932
LJ          -5.47293         1.97941        -1.71263
LJ          -2.60251        0.873207        -5.55581
LJ          -5.50229         5.99716         2.94992
LJ         -0.564971         5.11319         2.97946
LJ           5.24679         -3.7252       -0.157138
LJ           1.58297        -3.69303        -1.33843
LJ         -0.366827          6.3719         2.20967
LJ          -4.84493        -1.46108        -5.35973
LJ          -1.06223         3.14468         2.23715
LJ           5.09639       -0.209035       0.0668007
LJ           -1.7508        0.305478        -4.73385
LJ           3.85688        -3.04899         -6.2549
LJ           5.84303        -4.19278        -3.94383
LJ           4.72311        0.186408        -3.71814
LJ          -3.43141         0.83426         1.47445
LJ           1.34742        -4.08429        -4.61439
LJ          0.663559         3.19382        -3.43403
LJ           -4.1904         3.05498         2.42318
LJ          -1.55436         3.71093         4.62143
LJ          -4.81597         5.76024         2.04589
LJ           4.89285         6.42308        0.832969
LJ          -4.34134          1.0844        -5.51358
LJ          -5.81936         1.78136         4.67508
LJ          -2.62351        -3.92595        -2.31613
LJ           3.97598       -0.117674        0.626715
LJ           5.71893        -2.30055        -5.36505
LJ          -6.40093         3.93484         5.63702
LJ          -0.71312         5.01709        -3.64207
LJ          -2.22139         5.19751        -2.89616
LJ          -3.77574         -4.0485         -1.3465
LJ          -4.34882          3.6547        -1.77919
LJ           4.42738         2.31892         3.88651
LJ            3.4469         3.49221        0.670212
LJ          -4.24469       -0.430701         6.38835
LJ            3.4522        -2.74698        -4.38005
LJ            2.6737       -0.815526         4.49252
LJ          -4.02835         2.89278        -2.34438
LJ            4.5702        -2.70684        -4.86927
LJ           3.51628         1.06782         1.43412
LJ         -0.929346         6.00959         3.34282
LJ          -3.97468         2.97062        -6.03924
LJ          -1.72263        0.607798        -2.88742
LJ          -3.45383         1.83543       -0.222269
LJ          -6.33893         1.22555        -4.95555
LJ          -2.75328         4.91369         0.63321
LJ           5.17224       -0.704288         -2.8277
LJ          0.439309       -0.133524         2.43457
LJ           2.37475         5.89244        -1.15164
LJ          -5.59767       -0.632536        0.114626
LJ           3.14727       -0.422984        -4.05968
LJ            5.1078         4.43787         3.95221
LJ          0.248644        0.915349         1.77321
LJ          -3.07419         5.74104       -0.697114
LJ          -4.31086         3.81949         -4.6924
LJ          -5.45814       0.0491404        -5.76008
LJ           5.68851         5.86605        -2.18452
LJ          -4.89433        -5.43392         -5.2075
LJ           -1.9314         5.07648       -0.877158
LJ           -1.0824         1.93372        0.343373
LJ          -5.91618         3.82576          1.4063
LJ          -1.04857        -4.32212         -4.4704
LJ         -0.342705         2.26151        -3.73812
LJ           1.11799        -6.36211        0.166666
LJ          -4.86035         5.90458        -6.10928
LJ           1.93276        -5.14004         -3.8441
LJ          -1.43978         4.88226         2.43526
LJ          -4.50886          3.1935       -0.856281
LJ          -1.24818        0.129917         0.71843
LJ           1.32009        -3.20238       -0.336487
LJ          -2.18413        -4.13913         1.79718
LJ            5.2945         1.64024        -1.63604
LJ          -4.17138        -2.99182         6.45761
LJ          -5.13068        -6.02279         4.57242
LJ           2.78327        -4.60126         2.43196
LJ          -0.13827        -1.48054         5.06883
LJ           1.60088        0.306409        -6.07003
LJ          -2.32209         4.27553        -3.35232
LJ           6.22193       -0.642143         3.90288
LJ           0.89488        -2.63633         3.39396
LJ           1.51859         5.19508        -1.42013
LJ           1.87616        -5.75497       -0.925444
LJ          -5.44911        -5.60299        -3.25448
LJ          -2.50884         -1.9723       -0.576134
LJ          -2.94986         1.10954        -2.12687
LJ          -5.20487          2.1317         2.17276
LJ          -1.20221        0.659551        -5.63763
LJ           1.56345         1.72784        -3.45055
LJ            5.3958           3.547       -0.700652
LJ           1.69945         1.68698          5.2293
LJ           1.34985        -2.80269          1.0352
LJ           3.56952        -4.60895        -1.73462
LJ          -5.97239        -0.60473        -3.58582
LJ           1.47385         6.09529        -5.47892
LJ            1.1436        -6.35571        -1.26369
LJ          -2.28854         0.10247         1.16853
LJ          -4.66034         1.32928        -2.30162
LJ          -4.78845         3.08596         1.53343
LJ          -6.34615         4.07514        -4.93688
LJ          -4.32137       -0.252156          -3.894
