108
#Comment!
LJ           1.97626         3.73309         2.09675
LJ            1.6793         1.14481         2.13857
LJ          -5.03711       -0.743738        -3.77065
LJ           4.43988        -2.75112          1.5004
LJ          -2.10091         6.38883        0.695321
LJ          -5.97334        -3.76075         5.85876
LJ          -5.83842         1.29026        -4.37989
LJ           4.96841        -4.14871        -3.74171
LJ           5.23507          5.5754          4.1615
LJ           3.81648        -2.94588         3.42971
LJ          -1.52226          2.3972        0.520862
LJ          -3.27673        -2.77839         4.92302
LJ          0.862782       -0.555166       -0.734347
LJ            2.2026        -2.17818        -5.66501
LJ           -1.0187        -1.79601         6.30658
LJ          -3.70751        -3.71003         6.00336
LJ           -2.5281        -4.75058         1.57258
LJ          -5.92619         2.65435         1.98525
LJ           3.84544        -3.66711        -4.87502
LJ         -0.915162        0.927655        -2.01974
LJ          -2.89806        -4.06668        -4.78751
LJ           2.37923         2.80534        -2.35752
LJ          -6.26262        -4.67873         4.47184
LJ          -4.96546         2.54151        -3.49396
LJ           4.05213         3.04249           3.715
LJ         -0.682281         3.22827       -0.329663
LJ           -5.5648        -2.28285         5.21595
LJ          -4.59073         3.13848        -4.44268
LJ          -4.22118        -4.75329         6.30853
LJ          -1.24985         3.83047        0.612234
LJ          -2.30364         1.29263        -4.14186
LJ          -3.64821        -5.71078        -6.18888
LJ           1.19344        -2.33903         2.08226
LJ            4.1626       -0.133222        -1.97587
LJ           4.78309         1.80011        -4.48157
LJ            5.0536         2.07256         1.76531
LJ           5.38802       -0.132864         2.44986
LJ           3.32588       -0.351114        -2.49093
LJ          -1.90952       -0.855972        0.807982
LJ           6.02181         4.35859         -2.6283
LJ           4.87598        -3.77649        -6.42062
LJ          -5.32423         1.49379         1.05855
LJ          -2.14692      -0.0986501        -2.51469
LJ          -1.68213         3.10157         1.73831
LJ          0.248805        -1.59959        0.229416
LJ          -6.09868        0.533609        -5.34695
LJ           4.12746         6.23944         4.90321
LJ          -5.31165         2.81913        -1.86182
LJ           3.79652         4.17847        -5.31748
LJ          0.702732         2.46642         4.54866
LJ           3.32387        -2.06589        -5.57961
LJ           3.61993         -4.8031          2.0126
LJ           2.53758         4.48525        -4.04772
LJ           5.91211         5.39046        -5.70472
LJ           6.16118         3.13666        -5.16989
LJ           3.44667        -3.09712        -1.38301
LJ           4.19602        -5.40509      -0.0754699
LJ           4.25006        0.823168         4.44769
LJ          -1.47075         2.46396        -5.59167
LJ           3.33803         4.24338         2.14479
LJ         -0.212022       -0.235571        -2.13169
LJ            -2.813         2.17557         -2.4956
LJ          -4.68358         5.41579        -1.24679
LJ           3.45862        -2.98502         5.37964
LJ         -0.832899         1.98977       -0.856895
LJ           1.92798       -0.295841          3.0952
LJ           3.92491         6.34228         6.30779
LJ           4.39671        -2.96727        -2.05493
LJ         -0.521616        -1.96722         4.81286
LJ          -1.86255         3.73067        -3.52093
LJ           2.41153         3.44925        -4.57447
LJ           1.24816        -5.97521       -0.260552
LJ           5.49688        -4.67658        -2.86858
LJ          -4.61434        -3.75411        -2.81403
LJ          -2.85734        -1.79917         1.59846
LJ          -2.61788        0.658627       -0.209062
LJ          -1.32647        -4.99326        0.186777
LJ            5.6646        -5.73116        0.205386
LJ          -4.18434        -2.60945        -4.90056
LJ          -6.00056         3.15549        -3.65458
LJ           -3.9317        -3.76417        0.944584
LJ          -4.61205        -3.51194        -5.16092
LJ          0.680019        0.959505         5.86849
LJ         0.0858721       0.0680142          -4.419
LJ           4.54102         3.91753         5.17298
LJ          -2.71165        -5.96282        -3.18414
LJ           5.05591        -4.63317        0.936551
LJ           1.53507        0.174185        -5.03604
LJ           3.30817        -1.45604       -0.562633
LJ          -5.89871        -3.28846          4.5701
LJ          -4.01097        -1.00028        -3.13769
LJ          -4.50287        -1.67397        -4.16612
LJ            -6.187         3.56749        -2.23013
LJ          -5.20938        -1.04789         4.86677
LJ          -1.96955        -2.99219        -2.65124
LJ           3.99045        -1.90651         5.84329
LJ           3.22998          5.3785          3.1274
LJ          -1.39893         3.21056         4.53876
LJ          -4.18906         2.15085       -0.481914
LJ            1.8802        -2.68576         0.20925
LJ           -3.9348        -4.95398        -3.26033
LJ          0.137179         1.49644        -3.25269
LJ           4.08749         -4.8671        0.943625
LJ         -0.711768       -0.874394         4.13365
LJ          -5.18338         1.18331        -1.89165
LJ           0.10928         6.34623         3.64739
LJ           5.69559        -1.29667         5.16983
LJ           6.36495         1.94727        -4.57493
