108
#Comment!
LJ            3.3756         3.48482          2.1935
LJ          -1.97076         1.46479         3.85088
LJ         0.0156241       -0.274576        -1.41349
LJ          0.215476       0.0669457        -6.39544
LJ          -2.22491         4.60314         -1.2711
LJ          -4.83257        -6.04492         3.14503
LJ          -1.80549        -4.52028        -2.75488
LJ           2.61331        -6.11167         1.55694
LJ         -0.493659         5.59373         5.87024
LJ           2.95877        -3.67979        -5.90615
LJ           4.18232         5.57475          5.6927
LJ           4.49485         2.26413        0.603296
LJ         0.0676224         3.01665        -4.89944
LJ           1.27525        -1.01608         5.22939
LJ           2.23738        -5.16886       -0.804654
LJ          -4.96508        -3.98696         -2.7678
LJ         -0.848123         -2.9829        -1.47886
LJ           -6.2936        0.984538         3.90497
LJ            1.6447        0.992014         -1.6801
LJ           1.52588         1.29902         1.81182
LJ          -2.19656        -3.92884         1.89907
LJ          -2.62135        -1.79184         4.51434
LJ          -4.75773        -1.42226         1.93533
LJ           0.95655         4.39321       -0.103922
LJ           3.26002        -3.45976       -0.886797
LJ          -3.50624         2.50748        -4.57817
LJ          -5.47058          4.4575         -5.7619
LJ          -4.65847         4.02042         4.01578
LJ           3.33351        0.819196        -3.03869
LJ          -4.59155       -0.133927        -1.65259
LJ           3.63339        -2.68927          5.9994
LJ            -6.377         3.60826         2.47197
LJ           5.18716          3.0422         5.43257
LJ         -0.663038        -2.02746        -3.10876
LJ           5.06356         1.28157        -5.28582
LJ           1.84599        -1.35963        -3.49134
LJ           6.25684         4.45695        -1.99597
LJ           5.50604        -4.27133         4.16312
LJ          -0.76146        -4.79216         1.79323
LJ          -5.66433        -3.34797         5.12258
LJ          0.630338         1.24844       -0.519217
LJ         -0.573517        0.338347         4.58018
LJ          -1.21475       -0.778927         4.41501
LJ           3.03099          4.7923         3.80087
LJ          -6.38138        -4.55509         5.93502
LJ           4.72987        -3.21773         3.11701
LJ           2.08041         5.55144         1.90754
LJ          -1.63286        -5.65505        -6.01419
LJ           4.49365         1.23235        -1.06031
LJ          -1.54888         1.60726         6.36954
LJ           -4.5647         6.12349         4.32052
LJ           1.93821         3.41182        0.987447
LJ          0.802736        -5.18883        -1.07241
LJ           5.16411        -3.26533        -2.41418
LJ          -4.91968         4.84454         3.32934
LJ          -2.84416        -1.57492        -2.71667
LJ          -3.55596         4.41499         1.65834
LJ           6.09744         4.33832       -0.799156
LJ           3.82781        -5.70499         5.23875
LJ          -3.57055        -3.60241         2.74267
LJ           1.75598       -0.963036         2.75577
LJ          -5.16022        -2.63428         2.36679
LJ          -6.32473        -3.54525         4.47293
LJ          -5.15879         1.83124         2.35278
LJ            1.0185         1.16876        -4.36728
LJ           2.66052        -5.26217         4.50632
LJ           5.68784         5.28166        -2.34029
LJ          -6.14126         1.38311         5.52207
LJ           3.88144        -2.07128        -2.34889
LJ          -1.00475         4.43076        0.452993
LJ           5.21654         5.19719       -0.129998
LJ           5.42648         1.84966       -0.927298
LJ           2.21365        -6.32706        0.466506
LJ          -4.14173        -5.63308         6.40946
LJ         -0.791588         1.91076          3.6453
LJ          -4.05468        0.325664           5.736
LJ          -2.54292         2.10046        -4.09045
LJ           -4.7566         5.35815          1.9338
LJ           4.50055        -3.27016        0.924333
LJ          -5.25287         5.89254         5.18711
LJ           1.25077        -5.65618       -0.170258
LJ          -5.39743        -5.59088         2.25806
LJ          -3.59597          3.7496        -3.33197
LJ          -1.70232         3.32754         5.15565
LJ           2.45313         5.29217        0.530618
LJ          0.477366         2.80778         4.63541
LJ           3.51789         2.10934         1.02172
LJ         -0.774056         5.99009        -1.60963
LJ           4.06191         5.94765        -2.53876
LJ          -3.33808         4.74548          6.1733
LJ          -4.74104           3.255         5.79413
LJ           3.15185       -0.374761         2.20361
LJ          -4.61822         5.10256         5.86979
LJ           2.19545       -0.989768         4.18207
LJ           -6.2821         2.23496        -1.51424
LJ           5.89928         2.97277         3.37547
LJ          -1.46726         6.44331         6.11582
LJ           5.17048         4.52657         6.28756
LJ          -3.43377       -0.755672         2.38073
LJ           6.01309        -5.33572         4.31016
LJ           2.87434        -0.84946       -0.280848
LJ          -5.74013         5.95993        -1.62097
LJ           3.66206         2.34402          3.6536
LJ          0.176055       -0.234417         3.20427
LJ          -3.72282        -2.53025         3.26486
LJ          -6.08294        -2.02859         -4.6503
LJ           4.20475        -6.02999         2.43365
LJ          -4.03336        -3.95777        -6.13179
