108
#Comment!
LJ          -4.06096         2.91213        -3.83889
LJ           1.80672        0.410469        0.456658
LJ          -4.95882        -4.28736         3.77154
LJ           1.42997       -0.618707        -1.06693
LJ          -4.18663         3.59282        0.378089
LJ          -1.29427        -3.03056        -1.43877
LJ           3.44219        -5.30718        -3.07947
LJ          -5.43966          1.6361         3.84572
LJ          0.586597        -3.32226          4.7475
LJ           1.84213        -3.91681        -5.06511
LJ          -2.53628          2.3552        -2.60783
LJ           1.39179         2.54872       -0.375031
LJ          -1.38713         3.72298         1.45837
LJ          -3.48695        -3.24355        -4.01877
LJ           1.54918        -2.31166         4.87025
LJ          -2.10774         1.19915         5.15094
LJ          -4.91529       -0.240661         -3.4131
LJ          -1.50709         3.57582        -2.84265
LJ          -5.67838         -2.4055         3.44784
LJ          -5.47083        0.931947        0.554508
LJ           4.62571        -4.11732         5.35231
LJ           1.13676        -5.82202        -3.60171
LJ          0.575733        -4.41787        -2.06362
LJ           3.11831       -0.254812        -4.49561
LJ          -5.16517         3.28161        0.254736
LJ          -1.18855        0.803733         4.33992
LJ          -4.31426        -0.37341        -5.83184
LJ          -2.17342        -2.94591          5.1877
LJ          -5.21324         2.21645        0.742261
LJ          -0.84275        -1.12153         -3.6002
LJ          0.654493       -0.627019        -3.54081
LJ          -4.48915       -0.357912         3.13317
LJ          -1.84703         1.61999       -0.868895
LJ          -4.86303         2.21073        -2.94437
LJ           1.66953        -4.91581         4.52189
LJ         -0.080671        -2.07478        -6.20434
LJ           -0.3388        -0.22644        0.401831
LJ         -0.409597       -0.114875         4.86699
LJ          0.204832         3.39224      -0.0962234
LJ            4.1372         -4.3636        -3.44168
LJ           4.35865         3.42289          1.4034
LJ          -4.92186        -3.75317         2.74364
LJ           3.66493        -2.00131       -0.270522
LJ            5.2701         1.81116         1.45054
LJ          -2.59534         4.92204         6.21726
LJ          -4.82287         4.68023        0.440352
LJ           2.39647        -1.71381         5.71408
LJ           2.62166         1.10538          4.6798
LJ          -4.94094         3.56772        -3.80487
LJ        -0.0539575         1.76853         5.33687
LJ           4.45827        -3.35475         6.34841
LJ          0.551721        -2.54294         1.42009
LJ          -4.68199        -2.89632       -0.790949
LJ           3.62623       -0.913999        -1.88204
LJ           -4.1937        -4.50866       0.0632571
LJ          -5.32344         4.22605        -2.40037
LJ        -0.0937294        -2.62372        -3.60379
LJ         -0.436993         -4.8967         5.24765
LJ          -1.68823       -0.764666         2.07191
LJ          0.120474         -2.7282        -1.91849
LJ          -5.81273          3.3935         3.22608
LJ          -2.11678         1.50974         6.31593
LJ           4.03902       -0.884724        -6.00029
LJ           5.98509         5.71514        0.510133
LJ          -1.76611        -3.60561         -4.4755
LJ          -1.98494        -2.31307         1.48351
LJ           -6.3412         6.29819        -2.52729
LJ          -2.26137       -0.113184         3.95236
LJ          -1.78078         5.85866         1.73726
LJ           1.49631         5.75472         6.18805
LJ          -1.16835         5.84931        -3.22348
LJ           6.27215         1.28965         3.87629
LJ          -1.42563        -4.16322         1.51787
LJ          -2.55775         -1.5438        -6.43936
LJ          -3.53031         1.67517        -2.12037
LJ          -1.87635        -1.56098        -5.29711
LJ           5.16086        0.659506         5.01693
LJ          -1.28161         1.96317         5.65677
LJ          0.603612        -2.10639        -5.41088
LJ           3.25212         4.49259         1.50679
LJ          -3.57332       -0.921529         1.50637
LJ           -3.8726         1.94433        -4.41092
LJ          -3.22464        -4.00715         6.05178
LJ           2.28203         1.33964      -0.0571112
LJ          -6.08926         5.92179          5.6116
LJ          -4.70547         2.68701        -4.96547
LJ           6.16092        -5.44797         5.06719
LJ          -5.56637         5.22348        -5.43767
LJ           4.23395         6.21536         2.68429
LJ          -5.04792         4.21464         1.80109
LJ          -4.03651        -1.36818        -6.22484
LJ          -5.88653        -1.40926         5.10408
LJ           -3.9738          1.7078        -1.06255
LJ           4.33001        -3.45831        -5.29212
LJ           5.37495         4.20046         6.31428
LJ           3.53659        -3.80693         5.58357
LJ           3.90814        0.954473        -5.87153
LJ          -2.34109         3.92113        0.266672
LJ           2.95831         5.47113         1.28747
LJ           3.38031         5.72836        -6.28247
LJ         -0.260719        -6.22102        -6.30398
LJ            6.2185        -4.75055         5.92073
LJ           3.47084         4.17538         5.92337
LJ          -2.44763        0.227329       -0.628936
LJ         -0.799412         1.71323        -4.26228
LJ          -6.36843        -4.44632         4.49318
LJ          0.240029         4.30778          2.6246
LJ          -1.89668         4.77041         2.33311
