108
#Comment!
LJ          -3.29014        -3.69652         4.94893
LJ           -1.1695        -5.22807        -5.87106
LJ          -4.43428         3.13732          -2.547
LJ           5.42201        0.416295        0.499241
LJ          0.795387        -4.16139         5.15642
LJ          -6.00088        -4.30454        -2.91739
LJ          -2.37289          -6.427         4.40681
LJ         -0.141107        -5.15118         5.84305
LJ           5.09983         2.17958        -2.71026
LJ          -5.08217        0.820687         3.18571
LJ          -5.42818          1.7134       0.0619062
LJ          -2.13272         2.62495        -4.81446
LJ          -6.01908        -4.78722         -5.1618
LJ          -6.07598          6.0299         1.69557
LJ           1.52011         5.28456         6.21124
LJ           2.44331         3.70744        -1.11836
LJ          -5.07088        -2.18606        -1.98101
LJ         -0.631969          3.0537        0.399003
LJ           2.15496        -1.23418         3.87641
LJ          -2.69949        -4.31445        -5.82601
LJ           5.50151        -3.34943         2.55789
LJ          -2.39204         5.12058        -1.83202
LJ         -0.649516        -5.35349         4.67826
LJ          -2.70404         4.16639        -4.72322
LJ          -5.28431         -5.0791         2.74963
LJ           2.95986        -3.32571        0.642083
LJ          -5.60703         4.71432         -1.1215
LJ          -4.87637       -0.321083        -6.04881
LJ           5.68559        -2.31623        -1.97911
LJ          -3.53072        -5.73331       -0.665741
LJ           5.15906        -4.34526         3.43601
LJ           -2.0489         2.84042         -2.9203
LJ          -6.01478        -1.30984        -6.16292
LJ           2.70379        -1.66962        -1.45082
LJ          -6.10118         4.74999         1.47804
LJ          -2.36272         2.42049         2.44642
LJ          -5.75698        -1.68212        -4.15352
LJ          -6.07859        -2.49315        0.259738
LJ          -3.70049         5.60131        -5.54898
LJ             3.873        -2.29602        -3.48281
LJ         -0.701409        -5.69512         3.52681
LJ          -2.90854       -0.162235         2.82702
LJ           5.33566          5.8472        0.713868
LJ           2.08099        -2.94845         2.99344
LJ             2.609        -1.49238        -4.37663
LJ          0.277622        -1.32993      -0.0453587
LJ           4.30151        -3.36622        0.648414
LJ          -4.76515        -4.23513         1.61839
LJ          -1.39107        -1.41357        -2.06088
LJ           -5.0118        -2.83464         5.02002
LJ           4.22612         1.34457        -0.83046
LJ          0.840723         3.89822         2.61933
LJ           1.24758         2.96591         4.14513
LJ         -0.758925        -5.44786         2.33413
LJ          -3.44305         1.24523        -1.37482
LJ           1.94139        0.822419       -0.144764
LJ          -3.20843         6.11549          5.7941
LJ          -1.38954         2.91484         -5.9975
LJ          -5.69086        -3.37313        -6.04918
LJ           1.32913         -5.8617        -4.67883
LJ           2.65739       -0.483995         2.88752
LJ          -2.21061        -4.08759        -3.14199
LJ          0.756287        -4.18498         3.83498
LJ           1.72993        -6.16033          -0.733
LJ           3.68958        -4.02944        -1.17646
LJ          -5.77622         2.02521           6.155
LJ          -1.98178        0.770463        -4.79652
LJ           3.76219         1.88351        -2.02053
LJ           3.35843         3.17515         3.95575
LJ          -6.11602        -5.29978        -2.84156
LJ          -6.31213         2.51674        -3.14206
LJ          -2.70149        -2.35138         -3.4386
LJ          -2.34753         1.26871        -2.27035
LJ           3.67807         4.98561         3.59464
LJ          -5.05297        -6.21742        0.356228
LJ          -2.01838        -1.74749          5.0926
LJ          -5.17884          -2.149         1.91796
LJ           1.06756         4.71858        -1.72294
LJ          0.582072         5.87679         6.10812
LJ            3.5815      -0.0455418         1.89648
LJ           1.56969        0.254163         3.55654
LJ           3.77204        -3.33376        -4.37768
LJ          -4.57111        -3.27305          6.3369
LJ          -4.60403         3.34109        -5.91371
LJ           5.43111         1.69094        -4.51885
LJ           4.95875       -0.919579        -3.47921
LJ           1.59223       -0.104213         1.57883
LJ           -5.4128         1.42207         2.14942
LJ          -1.04272         6.22192        -3.60975
LJ         -0.666111         2.70719         3.90641
LJ           1.36791         5.01542        -3.41575
LJ           1.57866        -2.06014         2.19682
LJ           0.47252          2.2122         1.39671
LJ           4.55175       -0.486039         2.34311
LJ          -6.29766        0.313635         1.57814
LJ           1.93894        -2.09244        -2.95094
LJ           4.34429      -0.0860157         3.77382
LJ         -0.937858        0.284809        -4.04386
LJ          -1.58292          1.3336         1.86546
LJ          -1.39283         3.25167        -3.77336
LJ          0.621123        0.859228        -4.58453
LJ          0.883371        -2.63367        -4.36656
LJ            2.7326        -4.92116        -2.36417
LJ          0.758874        -5.25973        -2.05054
LJ          -1.66296        0.985386        -5.92781
LJ          -2.92791        -5.98076        -6.36904
LJ           1.67674          4.9307         0.89403
LJ         -0.460785         2.27311         5.62358
