108
#Comment!
LJ          -3.30325        -3.78029         4.94918
LJ          -1.13321        -5.18018        -5.88885
LJ          -4.43854         3.11885        -2.51467
LJ           5.41348        0.412707        0.502458
LJ          0.792619        -4.18404         5.16859
LJ          -6.01645         -4.2388        -2.92267
LJ          -2.32856        -6.41188         4.39985
LJ          -0.12158        -5.20572         5.80137
LJ           5.13625           2.166        -2.78326
LJ          -5.11206        0.823731         3.21075
LJ          -5.45015         1.71525         0.08179
LJ          -2.12677         2.62236        -4.75571
LJ          -5.97833        -4.78306        -5.18316
LJ          -6.07951         6.05408         1.72878
LJ           1.46001         5.25251         6.19187
LJ           2.44364          3.7153        -1.11978
LJ          -5.10457        -2.21354        -1.92839
LJ          -0.59573         3.04897        0.413781
LJ           2.14999        -1.24337         3.87971
LJ           -2.6997        -4.29518        -5.84037
LJ           5.46164         -3.3299          2.5154
LJ          -2.42216         5.10154        -1.90506
LJ         -0.651445        -5.32603          4.6574
LJ          -2.73955         4.17784        -4.77587
LJ          -5.28214        -5.05713         2.76082
LJ            2.9822        -3.31779        0.611734
LJ          -5.59164         4.74966        -1.07171
LJ          -4.84196       -0.377195        -6.03638
LJ           5.71781         -2.3145        -2.00879
LJ          -3.50905        -5.69688       -0.672302
LJ           5.10633        -4.40055         3.40361
LJ          -2.05858          2.8703        -2.92233
LJ          -6.08562         -1.3273        -6.14332
LJ           2.69609         -1.6446        -1.51508
LJ          -6.12113         4.78776         1.47569
LJ          -2.37515         2.42905         2.39526
LJ          -5.74762        -1.71394        -4.09559
LJ          -6.05601        -2.52663        0.262721
LJ          -3.70071         5.56189        -5.55962
LJ           3.87789        -2.28841        -3.46498
LJ         -0.701628        -5.70797         3.57259
LJ          -2.86883       -0.117132          2.8207
LJ           5.35389         5.89114        0.770964
LJ            2.1159        -2.88111         2.98516
LJ           2.63286        -1.44373        -4.33841
LJ          0.269205        -1.32605      -0.0779232
LJ           4.30036        -3.37098        0.621906
LJ          -4.72181         -4.2077         1.62147
LJ          -1.38263        -1.37678        -2.07126
LJ          -5.00013        -2.87872         4.99564
LJ           4.20736         1.38123         -0.8315
LJ          0.850828         3.95253         2.59349
LJ           1.22907         2.93379         4.18508
LJ         -0.757668        -5.46175         2.33153
LJ          -3.48609         1.19457        -1.35182
LJ            1.9169        0.875377       -0.127388
LJ           -3.1865         6.07657         5.80202
LJ          -1.41048         2.87129        -5.98763
LJ          -5.73137        -3.35319        -6.03053
LJ           1.36262        -5.86902        -4.65729
LJ           2.63479       -0.484708         2.86654
LJ          -2.19213        -4.13173        -3.13268
LJ          0.797605        -4.21491         3.88074
LJ           1.73584        -6.17999       -0.624758
LJ           3.67768        -3.99367        -1.12443
LJ          -5.75335         1.99313         6.04451
LJ          -1.99828        0.793186        -4.79406
LJ           3.66528          1.9133        -2.03277
LJ           3.37563         3.14415         3.91388
LJ           -6.1382        -5.35869        -2.83535
LJ           -6.3437         2.52774        -3.12293
LJ          -2.75428        -2.37748        -3.46964
LJ          -2.32734         1.28038        -2.26408
LJ           3.71202          4.9896         3.62314
LJ          -5.09321        -6.23293        0.344093
LJ          -2.00822        -1.76751         5.11728
LJ          -5.17699        -2.19636         1.90654
LJ           1.06153          4.7607        -1.69892
LJ          0.568334         5.92169         6.12962
LJ            3.6021      -0.0255158         1.94508
LJ           1.52423        0.230187         3.52019
LJ           3.79114         -3.3646        -4.41091
LJ          -4.58075        -3.22914         6.37937
LJ          -4.58519         3.31719        -5.91732
LJ           5.48069         1.65206        -4.52239
LJ           4.93399       -0.992636        -3.46758
LJ           1.63296       -0.149975         1.51552
LJ          -5.47503         1.47233         2.07146
LJ          -1.02093         6.20975        -3.60354
LJ         -0.669809         2.72382         3.92144
LJ           1.40772         5.01618        -3.42478
LJ           1.57332         -2.0247         2.21791
LJ          0.513602         2.23551         1.35677
LJ           4.56591       -0.453267         2.31916
LJ          -6.27626        0.303473         1.59481
LJ           1.92025        -2.05214        -2.91757
LJ           4.31807      -0.0630317         3.74636
LJ         -0.937044        0.306076        -4.00092
LJ          -1.58438         1.27667         1.86089
LJ          -1.40757         3.24614        -3.71509
LJ          0.600233        0.872151        -4.59948
LJ          0.882994        -2.61833        -4.41157
LJ           2.79747        -4.91842        -2.37211
LJ          0.804541        -5.28383        -2.06056
LJ          -1.65621        0.958214        -5.88568
LJ          -2.87495        -6.00034        -6.33594
LJ           1.62791         4.95426        0.854883
LJ         -0.470282         2.30291         5.63195
