108
#Comment!
LJ          -2.13615        -4.03572        -4.26178
LJ          -4.40173         5.54091        -4.62382
LJ           -4.4702           4.277        -4.79374
LJ            6.0453         0.74622      -0.0702053
LJ          0.664835        -2.81643         3.71947
LJ          -4.13484       -0.525696        -2.96274
LJ          -4.80845         5.28516         3.82965
LJ         -0.697662        -1.18011        -4.26106
LJ          -4.73249         4.33291       -0.548227
LJ          -3.14315         1.58971         4.45051
LJ           -3.9048         1.56739        -1.28518
LJ         -0.655268         4.06398         5.05213
LJ           3.93737        -4.92497        -3.62867
LJ          -5.41662         2.99171        -0.32682
LJ           5.09211        -5.37128        -5.38477
LJ           2.13926          3.3526        -1.38327
LJ          -2.59286         -0.6482         -5.3396
LJ          -3.16624         3.30512       -0.557507
LJ           3.15839       -0.367913         3.64978
LJ          -1.21485         -6.2065        -5.01926
LJ          -3.88744        -3.10943         3.18218
LJ         -0.275672        -6.42852         3.36611
LJ         -0.624065         5.96468         6.11745
LJ           1.00567         2.29315        -1.61181
LJ          -5.45479         6.36376         1.77778
LJ           3.22169        -4.38036         1.81129
LJ          -3.68471         5.22374        -1.23746
LJ           5.44264         2.58818          5.9567
LJ           3.72124        -2.47863        0.587568
LJ          -5.36778         4.98526        0.869301
LJ          -4.66367        -1.76199          -4.843
LJ           -1.8496        0.773948        -2.59334
LJ          -1.00892         0.44262         5.03025
LJ           2.49752        -3.62408         2.88019
LJ          -5.08188         3.78074        0.849627
LJ          -2.15422        0.966952         5.17956
LJ          -6.08441        0.494887         4.37652
LJ           5.10945        0.210623        0.117607
LJ          -4.29474        -5.18333        -5.10674
LJ           3.93409      -0.0871655        -2.86474
LJ          -2.61652        -5.58868         3.30577
LJ          -6.03894        -3.22837         3.39842
LJ           2.10352         4.46876         -2.2697
LJ           0.74659         6.40568         3.03761
LJ           1.04077        -5.35204        -5.52002
LJ          0.955258        -1.67889           2.291
LJ           4.86242        -3.15287         3.41009
LJ           5.13642        -6.26805         1.50695
LJ          -1.76229        -4.21111        0.195813
LJ          -5.60034        0.160631        -5.50481
LJ           4.29757        -2.66647         1.78455
LJ          0.431428           2.679         2.56181
LJ           2.11277         3.21495         2.54101
LJ         -0.906658        -3.65249         0.62051
LJ          -2.15266          4.0778         -2.6954
LJ           3.49225        -3.02922        -1.95899
LJ          -5.26801         6.00562         4.48566
LJ         -0.839145         5.14577         5.24969
LJ           -2.9766        -2.37297         5.38315
LJ         -0.910652        -5.60477        -6.07699
LJ           4.12105       -0.304193         4.42158
LJ          -3.10801      -0.0644858        -4.31153
LJ          -1.21527        -2.62578        0.899932
LJ          0.559818         6.12615         4.46546
LJ           4.43666        -6.44743        -5.11193
LJ           2.70338         1.54729        -2.94574
LJ          -1.59974       0.0716705        -6.20381
LJ          -5.53488        -2.20131        -2.11754
LJ           1.49356         5.32767        -6.34294
LJ          -5.61101         3.29416        -2.62342
LJ          -3.78483         1.73777        -4.20784
LJ           0.61641       -0.794563        -2.61887
LJ          -2.97819        0.821764        -3.53029
LJ           2.18192        -5.89181         1.50133
LJ           -2.0841        -5.61654        0.347984
LJ          -1.58727        -0.81154         2.98323
LJ          -5.09747         1.10319         2.84091
LJ           1.66223         2.03568         -3.5978
LJ           2.57212         2.94524         4.86589
LJ           2.57473        -1.82112       -0.452475
LJ           5.32326         0.54182          5.2391
LJ           4.21695        -4.86673        -4.96081
LJ          -4.11978        -6.25155         4.22051
LJ          -6.01662           4.864         -5.5523
LJ           2.02531         4.40899        -4.14843
LJ          -6.27897         4.43659         -4.0237
LJ          -1.31014        0.557977         3.92977
LJ          -3.19882         1.67946         1.30229
LJ          -2.70207        -5.81147        -4.56435
LJ           0.65695         2.58333         3.77754
LJ        -0.0878701         5.51242        -2.37833
LJ          0.429093        -4.17205         1.92792
LJ          -3.16945         1.47765         3.43248
LJ           2.47875        -1.28048         4.52992
LJ           5.86955         1.05546        0.896726
LJ         -0.246949         -3.8908        -5.21466
LJ           5.72164        -1.88893         4.83174
LJ         0.0747641         -1.6314         6.34729
LJ          -1.43478         5.30344         3.53924
LJ          -2.38749         2.84859         5.88955
LJ           1.85854       -0.137691        -3.53143
LJ           2.04258        -3.81816        -1.36473
LJ          -1.44077        -2.40671        -1.96559
LJ           -1.6566        -3.70873        -1.67751
LJ           -1.8527          3.0488         4.19046
LJ          -6.26017        -3.50334         5.59144
LJ           5.16587         2.83392         3.26227
LJ         -0.823745        0.420606        -4.70796
