108
#Comment!
LJ           3.13442         5.01554         2.81058
LJ         -0.236503         1.73007         4.67321
LJ           3.48377         1.36962        -1.91296
LJ           1.22593        -3.08309        -5.39007
LJ           -3.2183         4.11401       -0.400447
LJ          -6.44473        -3.80777         0.72857
LJ          -4.43816         3.54274        -4.12283
LJ           3.39455        -4.49138         4.40663
LJ            2.6878        -4.96481        -4.78654
LJ           2.81545         5.20837           6.265
LJ          -6.18511         3.73209        -3.53777
LJ           1.24565        0.340111         0.49428
LJ          0.572106         5.30851        -2.21068
LJ         -0.127211        -1.64801        -5.39464
LJ           2.34904        -4.59639         2.12436
LJ          -3.70747        -2.87089        -2.44108
LJ         -0.374325         -4.7957        -4.53015
LJ           5.28992         1.99037          1.6071
LJ           2.50147         3.90645          3.3336
LJ          0.693193        0.676385         2.96946
LJ         -0.643727        -4.12713        -2.13048
LJ          -2.91338        -1.86495        -1.42722
LJ          -5.17971        -2.97345         3.02278
LJ           3.51492         3.55791       -0.991757
LJ           4.11564         -2.0758        0.947139
LJ          -1.30361         2.33292        -5.68868
LJ          -5.63017         1.66322         1.17779
LJ          -4.64348         4.17969         5.29926
LJ          -1.44829        -1.16402        -5.08492
LJ          -3.57561         1.18607        -1.90737
LJ          0.794262      -0.0312988         4.71767
LJ          -3.81928        -1.00435        -1.30536
LJ            4.9398         2.72502        -5.20894
LJ          -4.94433       -0.481937        -3.65855
LJ           3.37043          1.0938         5.34035
LJ           4.35515        -1.07966         -4.3463
LJ          -5.67174        -5.97854        -5.22859
LJ           4.73495         -3.0542        -6.38796
LJ          -1.23103        -3.28759       -0.176993
LJ          -1.83342        -3.92608        -5.08683
LJ            2.3104         4.66645        -2.57046
LJ         -0.781273        0.165615         4.28111
LJ          -2.00883        -1.04248         1.45566
LJ           5.15836        -6.40785        0.292803
LJ          -2.61251        -3.41515        -4.39266
LJ            4.7328        -1.38566        -5.77297
LJ          0.953999      -0.0738389         3.60631
LJ           4.91902         4.15103        -4.71108
LJ           1.08419         4.14242        -3.89941
LJ          -4.01875        -3.05081         -4.2364
LJ           5.66219         -3.9314         5.63414
LJ          -2.55452        0.453569         1.79412
LJ          0.662183        -4.28295        -3.79335
LJ           6.18105        -5.87665        -2.19387
LJ          -5.84576         3.97521         5.44164
LJ          -3.97408        -3.69439       -0.620108
LJ          -4.23237         4.68754        0.912246
LJ           4.37597         3.26333        -3.27906
LJ           5.63006         6.37613        -6.08909
LJ         -0.606777        -5.70599         2.86722
LJ          0.685244       -0.268048       -0.957812
LJ          -5.01048       -0.593649        -6.42221
LJ          -6.08405        -4.73723         2.71266
LJ           4.22823        -1.78405         2.90455
LJ          -5.15987        -2.75393      -0.0692678
LJ           4.66192         6.17757        -0.51142
LJ          -5.84927        -6.32461        -2.88566
LJ           6.46162        -2.00735         2.80973
LJ           3.11491         5.52059        -4.46055
LJ          -1.37221         3.04793        -1.86024
LJ            4.8335         4.22848          -2.682
LJ           4.03575        -1.56389       0.0822101
LJ           3.18725        -6.08943         4.74273
LJ          -3.62158        -5.13717        -5.01197
LJ         -0.963176         4.86112         2.59679
LJ           5.14748        0.109254         2.22304
LJ          -2.32734         4.34562        -3.08048
LJ          -5.08569         5.51507         1.49001
LJ          -5.61124        -2.12892        -6.45093
LJ           6.35178         4.41763        -5.74998
LJ          -2.28203        -4.79056        -1.88398
LJ          -6.42397        -3.25029        -1.70384
LJ          -1.01156         3.24399        -3.30581
LJ          -1.09851         2.05868         1.31416
LJ          -3.26702         5.54503         1.86936
LJ          -6.45416        0.783262        -4.59896
LJ           4.54888       -0.785323         3.58549
LJ           2.44252         3.52768         -0.3614
LJ           3.47246         3.44368        -2.74357
LJ          -4.18668        -4.78959         1.24919
LJ          -5.02086         2.85071        -6.45404
LJ        -0.0879802        0.330656      -0.0184878
LJ          -5.13426         4.22347        -5.72694
LJ           4.57816        -1.98155         6.07662
LJ           -5.3825         5.31324        -1.95638
LJ           3.95192         5.14693         3.42271
LJ          0.020716         5.92573         4.79045
LJ          -5.67384         4.01972        -4.86165
LJ          -3.60123         2.36414         1.04399
LJ          -1.82552        -5.28225         3.04852
LJ         -0.365308         3.41633       -0.651313
LJ           5.28633        -4.55986         1.30702
LJ           3.90485         5.71976         2.42035
LJ         -0.508543         1.57113         6.07935
LJ          -3.53524          -1.019         1.26708
LJ           5.45214       -0.141105          5.6983
LJ           4.32832        -3.08569         2.08693
LJ          0.639247         5.83933        -6.33285
