108
#Comment!
LJ          -4.32014        -1.71066         6.02162
LJ          -2.34519         4.60168         6.40456
LJ           -5.5117        -6.13072         5.61116
LJ             1.068        -5.85205        -3.09049
LJ           1.42647         3.00684         4.96276
LJ          -5.21234         -3.9757         3.65183
LJ           6.14915        -4.61093        -2.11199
LJ           1.51274        -2.52922        -2.87945
LJ          -2.91395          4.4036         5.45677
LJ           -1.7423        -4.09952        -1.52871
LJ            2.3558       0.0684554         4.01712
LJ           0.55775         4.81904        -5.15639
LJ           2.54895        -5.10451         6.10833
LJ          -1.20278         2.49513          6.3412
LJ          -4.71421         5.94485       -0.393255
LJ           -5.9779         -5.0337        -1.24007
LJ          -1.73558        0.582305        -3.67944
LJ           2.70349        -5.83657         3.74669
LJ         -0.699367         3.39995        -4.97577
LJ           3.37454        -1.83028         -3.0996
LJ           4.15175        -2.58675        -4.49895
LJ          0.632044         4.96911        -3.15668
LJ           4.81651        -5.99219       -0.480731
LJ          -2.90171        -2.35798        -1.48923
LJ           5.62987         3.58338        -4.07459
LJ           3.41014         5.71566         5.02187
LJ           6.37159       -0.622028        -5.69023
LJ          -6.27192           4.223        -5.71836
LJ          -2.39429       -0.245276        -2.45122
LJ           6.05869         4.10052         3.95763
LJ          -4.38568         4.90195        -6.18532
LJ          -5.29745           1.658        -4.92347
LJ           1.78244         2.93318        0.366603
LJ          -1.05587        0.558606         -5.1618
LJ            1.2607         3.19574        -5.86854
LJ          0.742326         6.07824        -1.39266
LJ          -4.10723         2.35179        0.390557
LJ           -4.1346         5.00875        -1.90028
LJ          -3.85969         1.19706        -0.61318
LJ          -5.75226        -2.28912         1.10861
LJ           1.11284        -4.69335          1.5615
LJ          0.878064        -1.15269        -5.96454
LJ          -5.15966         3.70309        -2.62786
LJ          -1.41485        -6.42405         0.62336
LJ          -4.28946        -3.37152        -2.68067
LJ          0.115509       -0.878954        0.593968
LJ           2.64481         -3.1886        -4.56401
LJ           1.73365        -4.72513        0.779858
LJ           2.37402        -5.67124        -1.89588
LJ          -4.85015         1.80706         6.30641
LJ           5.15409         -3.4161        0.644076
LJ           5.33187        0.299229        -6.42836
LJ          -1.25388        -1.19393         2.32691
LJ         -0.144909         2.96637        -1.01642
LJ          0.955062        -2.45155       -0.845695
LJ           1.30427        -5.87834         2.65884
LJ            2.2358        -4.06942        -5.09118
LJ           5.15607        0.932551        -2.28994
LJ          -1.00419         -2.4142        -2.75795
LJ          0.779433       -0.818774       -0.735816
LJ          -5.47201         5.80877        -2.91423
LJ          -5.53739         4.81229        -2.90219
LJ         0.0814363         5.35209       -0.923115
LJ          -4.99107        -2.33052        0.161856
LJ           -3.2303        -1.31562         3.73996
LJ          0.983703         1.65665        -3.45602
LJ          -0.43326        -1.49795        -2.72024
LJ           2.43779        -5.19993        -3.22872
LJ          -1.26701         4.50521        -3.32435
LJ         -0.826243         5.13388         -1.3872
LJ          -0.85311         2.54307        0.898271
LJ           3.59473        -6.26951         1.01817
LJ          -5.16503        -5.73213         1.79193
LJ          -5.29875        -2.98068        -6.10128
LJ          -5.35759        0.560761         3.18805
LJ          -5.89511         3.75403        0.819352
LJ           2.95807         2.36959           6.003
LJ         -0.960432        -2.88366         5.28818
LJ           6.09135        0.570746         5.39966
LJ           2.25774        -3.97091         2.80913
LJ           -2.1237         4.01713        0.375632
LJ           5.60623        -5.57001        0.473575
LJ            4.9724         -6.0797          2.9085
LJ           3.38067         4.48304          6.3514
LJ            5.4654        -3.51594         3.09016
LJ           5.67596         1.20661        0.894932
LJ          -4.27081         1.32818         4.20215
LJ           4.63646         1.75594         0.55932
LJ           6.44625         2.09064        0.728466
LJ          -3.65877         6.21314         4.83274
LJ           3.20361        -4.20849         4.09329
LJ          0.673244        -2.46403        -3.54934
LJ           4.22536        -3.95518         1.43362
LJ           4.97197         1.57319         1.87534
LJ          -3.72351         4.49049         1.75232
LJ           3.68411        -3.30498         0.55893
LJ            4.6534         3.23585       -0.651408
LJ          -4.44399        -6.22968         3.60936
LJ          -1.89723         3.42766         5.80873
LJ          0.952845          1.9225        0.157165
LJ          -1.88437         2.51041         1.97259
LJ          -1.62007         3.80378         1.51668
LJ          0.887519         3.38728        -4.08264
LJ          -1.77656         1.09037        -5.70579
LJ           3.70912         5.89186         3.97841
LJ           6.14596        0.248399         2.67225
LJ          -1.49695         1.36089         2.98705
LJ           5.73933         -1.9456         5.91946
