108
#Comment!
LJ          -2.25651         1.72291        -2.78501
LJ         -0.208287         1.62603        -1.25947
LJ           6.41981        -5.33404         3.50279
LJ           4.41256         2.14464        0.511573
LJ          -4.03654         4.06263       -0.325637
LJ          -3.06099         6.24905       -0.317252
LJ           3.04095        -3.87276         -1.3402
LJ          -6.06982         1.03254         1.98575
LJ           0.63419        -5.26806         4.68463
LJ            1.1805        -5.75524        -3.34759
LJ          -3.70294        0.635272        -2.07652
LJ           4.08823         3.17576         2.29814
LJ          -2.31541         4.61746        0.737089
LJ          -2.09027         -1.4091          -4.089
LJ          -1.21467        -1.22738        -6.10243
LJ          -2.71152        -1.02574         6.33231
LJ           -3.4083        0.834026        -5.77188
LJ          -2.36993         3.73329       -0.523934
LJ          -4.45717       -0.848071         3.54957
LJ          -5.18832      -0.0640814         2.17969
LJ             4.472        -4.19926         3.77222
LJ         -0.484652        -4.05131        -3.12847
LJ          -2.13022          5.7809        0.133448
LJ          -6.40848        -2.44469        -4.01116
LJ          -5.00347         2.39941        0.796163
LJ          -0.50792         -2.3503         3.34778
LJ          -2.99217       -0.278608        -5.95332
LJ          -3.34413        -4.74622         4.58237
LJ           6.39807          3.0345         1.77239
LJ          -1.30539         1.79061         -3.1071
LJ         -0.146624        -1.24808        -5.02111
LJ          -4.80805      0.00544363         3.14167
LJ          -3.36907       -0.536998       -0.962403
LJ          -5.00424         1.25645        -5.23994
LJ          -2.20256         -4.4455        -5.70008
LJ          -2.30837        0.413029         4.04301
LJ          0.906661        -1.17208       -0.759931
LJ          -1.24603          1.6662         5.40422
LJ          -1.51419         3.02554        0.227479
LJ           2.35171          -5.578        -4.96119
LJ            3.8951         4.10543         3.70062
LJ          -3.19205        -2.10326         2.75021
LJ           3.77681        -2.01439        -3.00563
LJ             4.754         3.50074      -0.0913954
LJ          -2.89218         4.68388        -3.84316
LJ          -2.49358         5.60081        -1.24702
LJ           2.72669        -1.36381        -4.88578
LJ           2.65694         2.83717         5.75783
LJ          -6.21414         3.46823        -2.54508
LJ         -0.657746         4.76818        -5.49504
LJ           4.68441        -2.86098        -5.76413
LJ           2.08856        -5.47712       -0.338566
LJ          -3.89104        -1.43538        -1.77339
LJ           1.56062       -0.793697        -1.80902
LJ          -2.38554        -5.59546         2.19955
LJ          -2.92213          4.1647        -5.80482
LJ         -0.363672        -1.86806         -2.8637
LJ          0.564165        -4.38532         1.83984
LJ         0.0274778         1.90845         3.18735
LJ            1.1825         -3.2884        -1.89146
LJ           5.75605         3.10395         5.14748
LJ         -0.718923        0.624535         -5.8314
LJ           2.49794        0.230232         5.10763
LJ           6.05424         3.91275         1.51763
LJ         -0.419995        -2.62802        0.898467
LJ          -4.16865          -3.695         1.56376
LJ           5.74802         2.68463        -3.65789
LJ          0.596808        -2.63228         4.33281
LJ         0.0940755          5.5373         -1.2822
LJ           2.81248         -5.8669         4.62737
LJ          0.339811        -5.35532         -4.9066
LJ           5.98543        0.351221          2.3581
LJ          -2.41609        -3.89839         2.81231
LJ          -2.97109        -2.32967        -6.25437
LJ          -3.43849         1.03586        -3.11971
LJ         -0.143841        -2.79332        -4.94598
LJ           5.50459        -2.55014         4.41794
LJ          -1.89896         1.22907         3.11465
LJ           1.97369        -3.15085         4.84357
LJ          0.353258         4.05935         2.17105
LJ            -3.447         0.46589        0.525061
LJ          -3.02979         1.72029        -5.22761
LJ          -5.00073        -5.22558         5.87713
LJ          0.611311         1.20132        -1.93261
LJ          -5.99625        -4.94148         6.35165
LJ          -5.78159         4.20018        -5.96453
LJ          -4.98573         6.45189         4.03944
LJ          -3.64473         2.06238        -3.28807
LJ           5.37052        -6.31035         2.78706
LJ          -3.08049          5.1676        0.518965
LJ          -5.21488       -0.778099         4.71794
LJ           5.78198         0.63459         3.81739
LJ           -2.5225         4.52613         1.86405
LJ           5.95272        -2.75672        -5.23692
LJ           5.40738         3.35765         2.58134
LJ           6.00975        -4.26884         -5.0203
LJ           4.57812        -1.20905        -2.83717
LJ          0.205641         4.26818       -0.920101
LJ           2.54827        -5.06823          2.6496
LJ           4.74257         -4.8523        -5.79667
LJ          -1.74358         6.30996        -4.51851
LJ          -6.27094        -2.33102         4.61601
LJ          -2.07218         4.09208         5.42468
LJ          -3.88884       -0.372047        -2.12568
LJ          -2.18091         1.75984        -3.82326
LJ          -6.28847        -4.38882         4.82137
LJ          -1.68606          4.9972          1.5731
LJ           1.43598         6.21644         4.38955
