108
#Comment!
LJ          -4.57818        0.949239        0.469933
LJ           4.47379       -0.517598         3.81744
LJ          -4.63718        -3.07119         5.11747
LJ           0.55415         1.92708         4.70511
LJ          -4.64824         2.98433         2.34954
LJ         -0.271824         5.83565        -3.02426
LJ           5.12838         5.32742         4.56897
LJ          -5.31483         2.82387        -6.20907
LJ           3.49315       -0.391209         3.82536
LJ           4.24269       -0.663106         6.12061
LJ          -1.28461         5.14224        -4.88954
LJ          -3.14978        0.297886        -3.99893
LJ          -1.85903         3.52212         3.11663
LJ           3.38817         5.90571         -3.9792
LJ           1.46654         6.31761        0.113819
LJ          -2.70059         4.38973         2.70054
LJ           3.52469        -2.73243         1.24479
LJ           1.47168        -3.04317         1.86842
LJ          -6.03708        -3.95954         3.59599
LJ          -4.38539         3.96541         0.14724
LJ            2.2283        -4.13936        -5.33428
LJ           5.04761       -0.046825         4.99013
LJ           4.12295         1.85191         4.54537
LJ          -4.42462         4.31368         5.87651
LJ          -6.45196        -2.38981         3.96206
LJ           3.44115         5.44556         6.18031
LJ            5.5557       -0.972763        -4.59485
LJ            2.1755        -0.89771         2.03671
LJ          -4.99067         2.72034        -4.09718
LJ         -0.998807        -6.17229      -0.0796591
LJ           1.01493        0.622408        -2.78746
LJ          -1.32686       -0.518945          1.8323
LJ           1.05159         3.85149         1.26751
LJ          -1.74841         2.26041         2.82779
LJ          -4.13815        -3.49811       -0.619568
LJ          0.884787          4.7506        -4.94702
LJ          -3.89652         2.30591         2.78175
LJ           1.97026         2.93555         0.31076
LJ           3.57399         5.79477        -1.01487
LJ          -4.61728        -1.68253        -1.40903
LJ           5.25852        0.327968        -2.74484
LJ           3.58553        -6.12815         2.04874
LJ           -3.4194      0.00938934         3.01566
LJ          -6.25137       -0.963798         3.80218
LJ           0.70437         3.85603         4.83859
LJ           2.28053         3.59892        -1.79687
LJ          -1.33356        -3.80293        0.884304
LJ           1.73423        -1.94324         2.14202
LJ          -1.86835         5.83794        -2.81388
LJ         -0.586404        0.770836         2.46452
LJ           1.22793        -4.41812        -6.00792
LJ           -2.6245        0.502906         5.30533
LJ            5.0866       -0.552487        0.397145
LJ           4.31633        -2.45582        -2.61812
LJ           5.44944         5.21745        -4.87976
LJ            -4.636         3.80779          -6.149
LJ           3.89805         6.37382        -2.25374
LJ         -0.335034       -0.725952        -1.65165
LJ           4.07757        -3.69252         1.95349
LJ         -0.854925        -6.09049        -4.92136
LJ           3.28635        0.520605         2.51736
LJ          -2.64638         4.68796          4.6786
LJ           4.11306        -2.56421        -1.36771
LJ           6.42852         5.17952        -2.25132
LJ          -6.38603        -2.37231        -5.85308
LJ           5.38186       -0.529901         2.35328
LJ            1.8743      -0.0259695         3.16163
LJ          -4.08711         -5.2343       -0.875075
LJ           3.34792         5.83585         5.25381
LJ           1.58966        -1.30184         4.71255
LJ          -3.76779         3.22255         -0.7003
LJ          -6.27783         3.52364        -5.05029
LJ          0.394231        -4.32327        -1.78139
LJ         -0.181649        -1.70591        -3.87073
LJ          -4.48621         -6.0675        -2.02096
LJ          -2.17617         2.77404        -1.23081
LJ           5.01699        -5.67052         5.36431
LJ         -0.709936         4.82852        -3.74072
LJ          0.458151       -0.603359        -2.40906
LJ          -3.97288         4.44956         3.38464
LJ         -0.328028        -3.37151         4.77522
LJ           6.34509         1.15602         5.50927
LJ           0.40944        -2.90854        -2.70748
LJ           5.16228        0.821502         4.38781
LJ           5.76799         1.64913         4.65701
LJ          -4.88812        -1.18236        -5.01578
LJ           5.07295         5.92827         1.26949
LJ           2.54493        -3.64973         2.04431
LJ           1.80662         4.45012         2.27999
LJ           4.16018         3.80541         4.32548
LJ          -4.38856        -1.14026        -3.07547
LJ          -5.14369         6.43205         -3.1943
LJ          -5.14884         2.97429        -2.79354
LJ         -0.220774        -2.46722        -4.57538
LJ           5.85201         6.27918        0.192132
LJ           2.36544        -4.57436        -6.44136
LJ           2.76078         5.70237        0.490646
LJ          -3.23048         2.34556         1.52265
LJ           3.55408         4.57851        -1.96592
LJ           6.17632        0.339483        -5.88933
LJ           5.05419         6.19826        -5.18224
LJ           5.48948         4.00515       -0.549517
LJ           3.33168         1.54842         5.81591
LJ          0.812294        -1.49172        -1.52533
LJ         -0.369471         3.02397     -0.00209939
LJ           6.34509        -5.52496        0.922565
LJ           3.45056         5.24623         1.51725
LJ          -1.29562        -5.38405         4.38349
