108
#Comment!
LJ          -1.25921       -0.664021         5.03875
LJ          -3.84283        0.322304         5.75175
LJ           6.05227        -6.43902         6.39835
LJ           4.80888         2.66702         1.59002
LJ          -1.26522        -2.31168        -6.07672
LJ          -3.38677          1.9564        -5.10637
LJ          -4.31406         2.10416       -0.347044
LJ          -3.37768        -6.16674        -2.23201
LJ         0.0962945        -5.95118         1.89667
LJ         -0.880142         3.52978         3.50197
LJ         0.0828554          2.7459        -1.43486
LJ          -3.77718         1.15523         2.02713
LJ          -2.62613         5.90833        -2.15487
LJ           -2.6982        0.739045        -5.03272
LJ           5.58993        -2.24981        -1.21268
LJ          0.293518         2.73443        -3.58225
LJ          -1.10293          1.1793         5.23312
LJ           -6.4037         5.08824        -4.78825
LJ          -6.28106         1.45726         4.49188
LJ          -1.76085       0.0786343        -3.98623
LJ           3.66868         3.74579         0.55623
LJ          -5.63401        -1.18149         -3.1649
LJ          -4.37762        -6.34625        -3.17111
LJ           5.78795        -4.51985         1.68239
LJ           4.95954         4.75308        -1.42098
LJ          0.785145        -5.69874         3.75761
LJ           3.20029        -5.96045          1.2786
LJ          -2.58331         5.52932         3.58057
LJ          -1.30727        -4.45372        -5.78353
LJ          -6.15708       -0.524693         4.92649
LJ           2.79981         2.38658         1.59979
LJ         -0.157179         1.40894         3.40351
LJ           4.37691         1.64516       -0.283991
LJ           1.12235          3.4473        -4.18007
LJ           4.07238          5.0706        -2.77534
LJ          -1.47681        -2.61965        -2.48454
LJ          -1.09163         4.98297        -3.00282
LJ           3.04937        -5.44515        -1.22311
LJ           -4.3344         5.07846        -5.19351
LJ           3.54859         3.35455        -1.15176
LJ           6.31965         -5.1879         1.10338
LJ           3.33304         3.60796         5.06582
LJ           3.39959         3.62357        -5.96605
LJ              3.61          2.2224         4.91412
LJ         -0.905256        -2.40138         3.55669
LJ           4.49494        0.558981         4.75882
LJ           5.72897         2.75947         4.89778
LJ          -1.09145         1.94947         1.95683
LJ          -4.00092         4.37188        -3.83715
LJ           3.02392         5.96407        0.921706
LJ           5.32744        -5.23779         5.22474
LJ          -1.09842         5.08989          2.0739
LJ            1.2388     0.000485837        -2.41509
LJ          -2.17652         0.98976        -2.65735
LJ          -5.17731         4.86357        -4.39432
LJ           6.19328         3.62744         5.49858
LJ          -5.95723         4.89293         1.17535
LJ            1.1683        -4.40267         5.62552
LJ          -0.12169         2.86866         5.33642
LJ          -1.33297        -6.23785        -5.07383
LJ          -6.28216       -0.706464         6.15614
LJ          0.195605        -4.95529       -0.689366
LJ          -3.44492       -0.802494        -2.03237
LJ           4.65519         1.94833         3.72859
LJ           3.04307         6.21443         2.00074
LJ           2.92768         2.60722         -3.5673
LJ           2.59555         1.17673         6.04939
LJ          -1.75704         1.70072         -2.1814
LJ           0.85777         0.60129        -3.74939
LJ           4.65947         2.73937         5.27573
LJ           1.22106         1.47438         5.84806
LJ           2.38008         3.62691        0.896457
LJ         -0.421423         1.21279        -2.64296
LJ          0.673469          3.4048        -2.26811
LJ          -4.89784        0.407585         1.53096
LJ          0.691172        -5.45447        0.286906
LJ           3.52383         3.58959         2.45181
LJ           2.51247         -3.1292         5.10217
LJ           5.73236        0.257182        -6.39549
LJ           4.51274        0.655232         -3.0956
LJ          -1.11847        0.814885        -5.25071
LJ          -6.04442         2.26405         6.06301
LJ           3.37272         4.16897         4.14923
LJ          -6.21871        -4.82691        -1.11565
LJ          -3.07651        -0.64642       -0.945161
LJ           1.27232        -1.78993         -3.6676
LJ           6.34534        -2.02396         4.77242
LJ           2.44173         1.52687        -3.58372
LJ          -4.84218        -3.75568         1.89713
LJ          -3.92448           2.558         1.09885
LJ           2.73867         5.74144       -0.921169
LJ          -1.05121         5.90394         1.04956
LJ          -3.61138         5.56829        -3.35352
LJ          -2.41181         1.73963         4.72702
LJ           5.61995         1.23367         0.95109
LJ           6.22659         5.41826         2.28872
LJ           6.18946        -1.00908        -1.30401
LJ              2.44        -5.07592         1.10691
LJ           1.31145       -0.865511         4.94305
LJ          -4.07867           4.337        -2.14719
LJ           4.34303        -1.62896        -2.34017
LJ           5.23586        -5.41921         2.30728
LJ          -3.91362         -3.1869         1.72429
LJ          -3.34692        -2.21998        -2.37964
LJ          0.661391         5.29115        -4.94712
LJ           5.54312         2.62701         3.66548
LJ         0.0797476        -1.51966         6.27559
LJ         -0.956961        -3.61994        -3.68014
