108
#Comment!
LJ          -5.82619       -0.820764         2.43954
LJ           6.00033        -2.29806         2.55039
LJ          -3.48426        -2.28516        -5.50642
LJ         -0.112675         5.67372        -4.67189
LJ          -2.33719        -6.02699         3.30559
LJ          0.997823        -5.41966        -2.84945
LJ          -5.82948         4.35816         1.98652
LJ          -6.12938         4.46926         3.31022
LJ           3.10804         -1.3063         4.30727
LJ          -1.77353         6.06057         -5.1981
LJ          0.026135        -5.98786        -5.33982
LJ          -4.66217        -2.15273        -4.26492
LJ          -4.49857         5.61433         2.77882
LJ           1.10162         4.76692        -2.94528
LJ          0.544485         6.06653        0.154396
LJ           -1.9613         3.36339          3.5029
LJ          0.672755        -2.66007         4.37285
LJ           2.11568        0.748632        -1.32289
LJ           -6.3913        -4.36052         4.06579
LJ          -3.76408         5.05752        0.357729
LJ        -0.0493005        -3.09888         -4.0056
LJ          -6.18987        -4.51716        -6.19457
LJ           -6.1842         3.44908          1.9241
LJ             5.879        -6.01622         1.95982
LJ          -5.79811        -6.22925         3.97178
LJ          -6.27034         6.38956        -3.76228
LJ           4.36324        -1.12943        -4.37323
LJ           4.84933        0.263607        0.867231
LJ          -4.38368         3.24593        -1.52144
LJ         -0.839624        -6.06729         2.41527
LJ           1.29444         -0.5326        -3.92225
LJ         -0.762029        0.345661         1.91408
LJ            1.8896          5.0988      -0.0449024
LJ           1.20366        -1.60026         3.05117
LJ          -4.82138        -2.42505        -3.20749
LJ           1.05692         1.40786        -4.43456
LJ          -4.04749         2.47513         3.35543
LJ           3.48455        -2.17117        -1.27291
LJ           4.97137         5.99758       -0.371948
LJ           -2.5955       -0.501096        -1.05204
LJ           4.76732        -1.65769       -0.567356
LJ            1.6373         6.27014        -0.62961
LJ           1.22296          1.8342         3.65541
LJ            6.3704         -3.3167         3.32853
LJ           2.14776         3.59986         4.44476
LJ          0.260281         4.18003        -5.65716
LJ          -3.66199        -4.71916        -1.50485
LJ           1.44302       -0.144007         1.11978
LJ         -0.305842         5.07057        -2.36263
LJ          -2.09382        0.821506         1.68987
LJ         -0.373444        -4.58186        -5.17887
LJ          -2.89234       -0.665255        -5.37962
LJ           4.34891        0.825098        -1.35265
LJ           2.22812        -3.69634        -2.13763
LJ           2.72365         4.47844         4.92023
LJ          -4.41171         2.40256         5.30371
LJ            6.1249         5.15565        -2.80722
LJ           2.06905        0.897607     -0.00233917
LJ           3.83226        -2.41328        0.594784
LJ          -1.22261        -4.91771        -4.51575
LJ         -0.406734        -2.12785         2.10048
LJ          -2.80649        -5.73858         5.51875
LJ           3.11608        -2.67984       -0.468031
LJ          -5.42347         2.56987        -3.82686
LJ           4.07638        -1.35621        -5.51251
LJ          -3.90316         1.42522         5.86276
LJ           -4.1072        -1.27985         5.65613
LJ          -6.20805        -1.44682        -3.04435
LJ         -0.503326         6.32285        -6.22762
LJ           1.76294        -5.27913         3.69103
LJ          -3.95782         1.78217       -0.901116
LJ           5.97578         2.89969        -4.15153
LJ          0.979178         -6.1268        -2.09537
LJ         -0.300308         1.04134        -5.59744
LJ           5.78735         -1.1599        -1.15107
LJ          -2.39411         5.46981         0.94472
LJ           4.21216        -3.65357         5.09648
LJ        -0.0790251        -4.49497        -3.92081
LJ         -0.311352        -1.48597        -2.56378
LJ          -3.52948         5.87353         5.15583
LJ           2.01476        -4.22639         6.21361
LJ           -5.5298        0.141128         4.52945
LJ            3.2556        -4.71129        -4.51865
LJ           4.65893         1.08645         4.64259
LJ           5.89322         4.44791         3.86353
LJ          -3.82807        -4.17316        -4.12681
LJ           4.54921          4.5496       -0.643285
LJ         -0.611085        -6.43394       -0.464038
LJ           3.16223         2.76311         3.39603
LJ           2.48962         3.46304          5.4248
LJ          -1.94845       0.0705742        -3.71584
LJ          -4.62992         3.51012       -0.472305
LJ          -4.59674        -6.13382        -2.81894
LJ          -1.83576        -1.64916        -5.20685
LJ           3.46908         5.75359         1.68742
LJ           1.40009        -4.54803        -4.37907
LJ           1.30622        -4.62731        -1.35492
LJ          -3.71791         2.68184         4.60112
LJ           3.89783           4.575        -1.77038
LJ          -5.67732        -2.76694         3.57791
LJ           1.31402         4.86791        -5.01639
LJ           4.58769        0.586582         3.25718
LJ           6.12341         5.57622         3.19862
LJ          0.702809       -0.955536        -3.20207
LJ          -1.05718          3.9971         2.63178
LJ          -5.73027        -4.27851        -1.88552
LJ           3.38177        -5.63581        -1.34114
LJ           2.98858        -5.15463        -5.81704
