108
#Comment!
LJ          -5.24766     -0.00728418          1.5257
LJ            5.4568        -1.23026         3.11885
LJ          -3.97957        -2.63664         6.33268
LJ          0.185376         3.84024        -6.28975
LJ          -3.37528         5.40104         3.27718
LJ          0.286558        -5.83609        -3.92834
LJ           5.68579         5.27925         2.44711
LJ          -5.68476         3.75741         4.87192
LJ           3.52953       -0.638488          4.1875
LJ           -4.9764        -4.27772         6.40999
LJ       -0.00868376        -6.24885        -4.94397
LJ           -3.9995       -0.920319        -4.29076
LJ          -2.92993         4.46152         2.86612
LJ           1.94833         4.94659        -3.84909
LJ          0.747735         6.05104        0.157817
LJ          -2.01967          4.7762         2.51055
LJ            1.9774        -2.60465         2.94828
LJ           1.22028        -1.18258       -0.626546
LJ          -6.29348        -4.15149         3.52921
LJ          -3.92087         4.61783        0.331684
LJ          0.810815        -3.74253        -4.91041
LJ           5.86736        -2.52021         5.75735
LJ           5.58792         2.67274         3.00878
LJ           -5.8824         5.79988         3.78944
LJ          -6.00246        -4.35482         4.87115
LJ           5.22545         6.10924        -5.24393
LJ            4.8938       -0.983766        -4.34163
LJ           3.69421       -0.305078         1.33655
LJ          -5.05398         3.13863        -2.79691
LJ          -1.40947           5.962         1.88922
LJ           1.35617         1.05833        -3.31648
LJ         -0.224093       -0.296429         1.62878
LJ           1.61076         4.47226        0.690834
LJ        -0.0661449        0.331073         3.20717
LJ          -4.11608        -2.20658        -2.47163
LJ          0.949094         2.85278        -4.80021
LJ          -4.34466         2.34914         3.07215
LJ           2.78251        0.203959        -0.56815
LJ           4.38404         6.09674        -0.83797
LJ          -3.52069       -0.951158         -1.0919
LJ             5.082       -0.788393        -1.65468
LJ           2.38081        -6.25037        0.461164
LJ         -0.963659         1.04603         3.46818
LJ          -6.32835        -2.38521         3.54224
LJ           1.55591         3.64561         4.33013
LJ           1.29337         3.44284        -3.64237
LJ          -2.59008        -4.29782       -0.404066
LJ          0.684728       -0.550633         1.48374
LJ         -0.486246         6.20792         -2.2123
LJ          -1.37277        0.707919         1.83317
LJ          0.497028        -4.50153        -5.67207
LJ          -2.77369       -0.108003        -6.40625
LJ            4.7053        0.277852       -0.502617
LJ           3.17474        -4.01712        -1.95876
LJ           4.06774         4.69959         6.39222
LJ          -4.38405         3.06223         6.05077
LJ           5.30302         5.06396        -2.89503
LJ          0.804071        0.189623       -0.288683
LJ           3.68749        -3.14992         1.13768
LJ         -0.981174        -5.41854        -4.55635
LJ           1.26896       -0.927854         2.34823
LJ          -2.79313         5.89416         4.61812
LJ           3.63899        -2.59027       -0.716687
LJ          -5.88557         3.58727        -3.12622
LJ           5.18869        -1.88298        -5.74119
LJ          -5.54476        0.503588         4.15407
LJ          -1.36215       -0.743712         4.53779
LJ          -4.99641        -3.19008        -2.03255
LJ           1.25471         6.06462         5.97195
LJ           1.55284        -3.58606         4.38272
LJ           -3.8823         2.38034       -0.811483
LJ           6.28155         3.73547        -3.99843
LJ          0.356039         -5.6095        -2.04812
LJ         -0.233084       -0.164319        -4.81553
LJ          -6.27063        -3.50862         -1.5232
LJ          -2.39718         4.21673       -0.112601
LJ           4.56703        -4.58554         5.21862
LJ         -0.564357         6.37456        -3.74777
LJ          0.477878       -0.734772        -1.84198
LJ          -3.76828         5.26798         4.57856
LJ           1.14159        -3.80295         5.40527
LJ          -6.17728        0.488857         5.26709
LJ           1.92647        -4.09374        -3.47154
LJ           4.55121         0.62094         4.42879
LJ           5.84825         3.04586         4.24636
LJ          -4.32419        -2.85736        -4.54635
LJ           4.81301          4.9187         0.25013
LJ          0.994973        -4.98452        0.724292
LJ           2.29624         3.58504         2.94613
LJ           3.18133         3.64246         4.94874
LJ          -3.34816        -1.19809        -2.93373
LJ          -4.86339         4.90919        -1.65748
LJ          -4.70128         5.12263        -2.91859
LJ           -1.1148        -2.08643        -4.92663
LJ           5.20198         5.75272         1.77643
LJ            1.5809        -5.17131        -5.10347
LJ           2.10301         -5.7178       -0.590252
LJ          -3.19004          2.5045           3.199
LJ           3.67494          4.4836        -1.88325
LJ          -6.06567          -1.163          5.1569
LJ           2.88726          5.4433        -4.71182
LJ           4.98183         2.13501         1.46816
LJ           4.75145         3.80069         4.50717
LJ          0.944347        -1.57829        -2.61951
LJ         -0.688516         3.52711         1.38276
LJ          -6.17829        -5.00388       -0.583682
LJ           3.48293         -6.1479       -0.487163
LJ          0.900712        -4.92892         6.24735
