108
#Comment!
LJ          -4.56665         2.14948         4.65823
LJ         -0.861105         3.30197        -3.72129
LJ          -4.20317         5.49179         4.46116
LJ           3.69036        -5.11466        -1.34493
LJ           2.32488        0.707864         2.90625
LJ          -1.56256        -4.12796         1.96067
LJ            4.5119        -2.21958       -0.638162
LJ           3.29511         1.44892        -3.61397
LJ           -1.9711         2.93948          3.4995
LJ          -4.97381        -3.23573         1.25978
LJ           1.64953        -2.97026          1.2284
LJ          -1.01447         4.54673         5.44627
LJ         -0.495653         6.26136         4.66806
LJ          0.845547         3.59969        -6.32611
LJ          -3.21477        -5.34885         1.43777
LJ          -4.41449         6.43811        -3.35364
LJ          -2.21273        0.116088        -1.90053
LJ           4.75182         4.87224         2.34461
LJ          0.179544         3.14597        -4.58623
LJ           5.34672        -1.83373        -2.77144
LJ            4.3405        -3.13815        -2.54833
LJ          -2.06108         6.25733        -3.06704
LJ          -6.11382         4.13172        0.613344
LJ          -3.53289        -2.83343        0.498756
LJ           5.63364         4.99974        -5.53523
LJ           2.59733          4.6117         3.19283
LJ           3.87292        -4.32674         5.33616
LJ            4.7634         4.53782          4.7427
LJ          -1.75253      -0.0754863       -0.879316
LJ           2.74492         4.57052         1.25647
LJ          -4.31373         3.13096         6.03459
LJ           6.07985         1.32879        -5.23129
LJ         0.0192776         4.46746          2.6294
LJ          -3.97599       -0.851048        -3.19059
LJ           1.92368         3.91046         5.27299
LJ           2.45007        -5.65162       -0.975793
LJ          -4.73184       -0.402592        0.861717
LJ          -3.41662         4.35217       -0.326192
LJ          -2.07759        -1.90783       -0.446971
LJ          -5.69179      -0.0698516        0.389663
LJ           2.58826        -4.01724         4.95926
LJ           1.47512        0.117152         5.24939
LJ          -6.11641         4.91153        -2.94603
LJ          -1.76219         5.61757         4.04791
LJ           5.61907       -0.764192        -2.20983
LJ            3.9228        0.925576         2.66195
LJ           2.59999        -2.24266         5.34081
LJ            1.4544        -3.83521        0.318076
LJ            1.1591         -1.0072        -2.53283
LJ           5.62335         1.60724         3.75786
LJ           6.15997        -5.21428         4.70819
LJ           4.16319       -0.926847         -5.9253
LJ          -3.50563        0.715901        0.607415
LJ          0.582456         1.54001         1.02241
LJ           2.32286        -3.40886         -1.3691
LJ         -0.929608        -4.36115         3.56203
LJ           2.54603        -2.93951         6.12784
LJ            5.1991       -0.232366        0.259641
LJ          0.987594         -5.8715         -5.4266
LJ         -0.836138        -1.06394       -0.769606
LJ           -3.1999        -4.51435        -3.75429
LJ           3.75683         5.44096        -1.52009
LJ          -3.32823         5.33208        -1.41605
LJ          -5.99383        -4.38334         1.00743
LJ          -3.85232        -3.22586        -6.22597
LJ           2.16293        0.872365       -0.779405
LJ          0.886349        0.247927         -3.1389
LJ           2.31248        -1.24829         -2.0376
LJ          -2.89783         5.59367        -2.76108
LJ          -2.95448        -6.32937        -2.02502
LJ         -0.813964         3.00788        -2.57004
LJ           5.18971         6.45272       -0.577494
LJ           -4.7563        -5.35274         1.79914
LJ          -5.32993        -1.88855         -3.4463
LJ           -4.5946         3.43059         2.70147
LJ          -5.79184         4.25804        -2.23772
LJ           5.07258         1.03438        -4.79925
LJ          -1.81494      -0.0887577        -5.96212
LJ           -1.2805        -1.14764         4.81455
LJ           3.29713        -3.57974         2.11938
LJ          -3.81638         2.80545        0.354447
LJ           5.01935        -5.90729         1.03218
LJ           5.98189         5.94214         2.17996
LJ           2.60876          3.3241        -5.66557
LJ           6.06889        -3.23826         2.87995
LJ           4.70977         2.17088        -1.40235
LJ          -2.42919         2.38917         1.89585
LJ            5.0777         2.01308        0.798461
LJ          -6.21965         1.80703         1.11745
LJ          -6.18113         4.94661         5.27856
LJ           4.28276        -4.65119         4.39974
LJ          0.235869        -4.04483        -4.15499
LJ           4.46033        -3.55996         3.68382
LJ           5.23378         3.19491         1.57232
LJ        -0.0953204        -6.22736        -0.71471
LJ           3.36204        -6.00814       -0.582944
LJ           2.38654         5.47228        -2.97836
LJ          -4.27917        -6.20626         5.32793
LJ           1.15208         4.38528         5.90612
LJ           3.10896         2.53994       -0.850865
LJ          -1.09873         2.14833         1.43737
LJ          -5.53779         3.56042         1.68458
LJ             4.049         2.80386        -1.74466
LJ          -2.93244       -0.174119         6.42932
LJ           2.91346         4.62267         5.49732
LJ           6.21099        -1.78034         3.45755
LJ          -4.64127       0.0816652         3.59502
LJ           5.96349         -4.3031         6.39659
