108
#Comment!
LJ          -5.98281        -1.03976         2.67872
LJ            6.1927        -2.63378         2.46595
LJ          -3.35281        -2.16842        -5.20632
LJ         -0.222202         6.24483        -4.32886
LJ          -2.09221        -5.69939          3.1946
LJ           1.07697        -5.25914        -2.51573
LJ          -5.34966          4.4667         1.98995
LJ          -6.23343         4.70013          2.7789
LJ           3.00102        -1.47475         4.33601
LJ         -0.914651         5.41972        -4.87073
LJ         -0.145069        -6.08846        -5.43368
LJ          -4.78697        -2.47109        -4.39109
LJ          -4.90225         5.91458         2.77487
LJ           0.84695         4.78243        -2.58425
LJ          0.528958         6.14336        0.068855
LJ          -1.90408          3.0294         3.70249
LJ          0.342078        -2.66558          4.7236
LJ           2.42109         1.26451        -1.31788
LJ          -6.39188        -4.50673         4.24948
LJ          -3.82186         5.16658        0.362561
LJ         -0.259727        -3.00613         -3.7653
LJ          -5.96928         -5.0252        -5.94979
LJ          -6.02984         3.34212         1.64498
LJ           5.58137        -5.75619         1.50238
LJ          -5.77246         6.23304         3.69763
LJ          -5.90674         6.44146        -3.36364
LJ           4.22678        -1.19352        -4.44356
LJ           5.14413         0.41004        0.745359
LJ          -4.18121         3.18405        -1.36985
LJ          -0.71183        -5.84268         2.55737
LJ           1.41511       -0.813535          -4.252
LJ         -0.823195        0.459944         1.98674
LJ            1.9231         5.35622       -0.264179
LJ           1.50331        -2.12719         2.98082
LJ          -5.06099        -2.46621        -3.27447
LJ           1.07493         1.03507        -4.34253
LJ          -3.91895         2.53078         3.54917
LJ           3.75366        -2.70189        -1.55118
LJ           5.09832         5.90358       -0.250508
LJ          -2.35958       -0.385751        -1.04574
LJ           4.52706        -1.88362       -0.240384
LJ           1.36532         6.10794       -0.876022
LJ           1.78926         2.03199         3.69961
LJ           6.21911        -3.42125         3.21595
LJ           2.14038         3.48573         4.37393
LJ         0.0359362         4.24965        -6.15583
LJ          -3.94203        -4.82887        -1.79116
LJ           1.58835       -0.151713          1.1907
LJ         -0.293501         4.69018        -2.43467
LJ          -2.33595        0.894269         1.65979
LJ         -0.658803        -4.49314        -5.44815
LJ          -2.89519       -0.860197        -5.11322
LJ           4.25373        0.947707         -1.5651
LJ           1.99928        -3.21022        -2.40813
LJ           2.43599         4.56788         4.57079
LJ          -4.69261          2.0586         5.46301
LJ           6.27484         5.40123        -2.65784
LJ           2.43937         1.14988       -0.182341
LJ           3.94176        -2.20577        0.581806
LJ          -1.10068        -4.79685        -4.45908
LJ         -0.815401        -2.38893         2.06466
LJ          -2.81257        -5.43306          5.8507
LJ           2.86932        -2.76958       -0.443996
LJ          -5.32931         2.32605        -3.98149
LJ           3.79499        -1.19669        -5.39198
LJ          -3.54796         1.73338         6.26184
LJ           -4.8073        -1.41461         5.95144
LJ           6.43659        -1.02951        -3.29542
LJ         -0.956354         6.40041        -5.95711
LJ           1.81397        -5.70123         3.52652
LJ          -3.99068         1.66636       -0.937512
LJ           6.00119         2.47165        -4.33663
LJ          0.972105         6.34543        -2.21483
LJ         -0.306241         1.35191        -5.78514
LJ           5.67678       -0.570243        -1.11065
LJ          -2.30223         5.78338         1.21344
LJ            4.1236        -3.41523         5.06566
LJ         0.0611892        -4.01173        -3.72182
LJ         -0.524297        -1.65414        -2.87418
LJ           -3.4375         6.08314         5.29353
LJ           2.25341        -4.31139         6.39683
LJ          -5.32746       0.0666509           4.335
LJ           3.57058        -4.84735        -4.73276
LJ           4.68327          1.1886         4.65356
LJ           5.87509         4.88992         3.75266
LJ          -3.70506        -4.49151        -4.01737
LJ            4.4842         4.52717       -0.887933
LJ         -0.929611         6.04453       -0.741582
LJ           3.43952         2.53548         3.44024
LJ           2.35699         3.38462         5.68914
LJ          -1.59749        0.384884        -3.92354
LJ          -4.59433         3.21833       0.0072346
LJ          -4.57684        -5.70713        -2.79023
LJ          -2.06731         -1.5092        -5.28228
LJ           3.03105         5.75235         1.65645
LJ           1.52951         -4.2577        -4.22562
LJ           1.17415         -4.1793        -1.28058
LJ          -3.60209         2.79446         4.52122
LJ           3.96501         4.60753        -1.72398
LJ          -5.54489         -3.1729         3.15019
LJ          0.892287         4.73912        -5.20918
LJ           4.49083         0.20539         3.75145
LJ          -6.38358         5.90028         2.90314
LJ          0.439979       -0.940036        -3.13255
LJ          -1.21019         4.09775         3.00344
LJ          -5.61064        -4.09215        -2.22018
LJ           3.50225         -5.7981        -1.39577
LJ           3.48647        -5.26383        -5.62002
