108
#Comment!
LJ           2.23808         1.90234         1.78866
LJ            2.4086        0.844014         1.14046
LJ          -3.25583       -0.781668        -3.41618
LJ           5.63495        -3.76241       -0.470393
LJ          -1.94832        -6.02133         1.36147
LJ          -6.35304        -3.42193        -5.30134
LJ          -4.54642        0.273812        -3.76265
LJ           5.66517        -4.45636        -2.38367
LJ           4.78071         4.28426        -6.27367
LJ           4.54821        -6.18473         1.84104
LJ           -1.7559         2.02845          2.6366
LJ          -4.90746         -3.9065         5.24392
LJ          0.489446         1.76936       -0.107281
LJ           2.98338        -2.65017         4.73173
LJ          -1.62636        -1.73374        -4.40509
LJ          -2.32153        -4.87496         4.96379
LJ          -3.49764        -4.04031        -1.53557
LJ          -4.33601         2.89143         2.19286
LJ           5.10428        -1.52709        -3.35399
LJ          -1.43928        0.731784         -2.9009
LJ          -4.16503        -3.77452        -5.03007
LJ           3.56394         4.73831         -2.8443
LJ           6.03757         5.96862         6.18662
LJ          -4.22138         2.52337        -2.05032
LJ           3.10506         5.22518         -6.3685
LJ          0.239964         4.50188       -0.411344
LJ          -5.48569       -0.290398         4.94194
LJ          -3.54796         3.30177         -5.6447
LJ          -4.74473        -5.34742         5.26924
LJ           0.47802         3.75295         2.28472
LJ           -2.8252         1.24431        -4.74314
LJ          -4.31313         5.58831         6.39665
LJ         -0.402699        -3.02839         5.23441
LJ           4.00301        0.304734        -0.54912
LJ           5.64933         1.26898        -2.42165
LJ           5.42295         3.10787         2.79557
LJ           3.51997         1.83306        0.366772
LJ           1.78979        0.685952        -2.19981
LJ          -2.67039       -0.556173          2.0654
LJ           -4.9821          3.4266         -2.5469
LJ           5.11376        -1.64802         5.49704
LJ           5.74714         1.56202         0.82493
LJ          -2.52355        0.257597        -4.18295
LJ         -0.427566         6.28476         3.93222
LJ           1.16976       -0.508415         1.55426
LJ          -5.34862         1.55774        -4.94084
LJ            4.2068        -4.60519         6.01314
LJ             6.415         1.59963        -1.54779
LJ          -6.04541         4.16079         6.13431
LJ          -2.10017        0.539276          3.4731
LJ           5.70211        -1.20647        -4.74002
LJ           1.35114         6.03859         1.23803
LJ           3.74431         2.92387        -4.94293
LJ          -6.16507         5.01431        -4.33283
LJ           5.83174         2.29982        -4.35851
LJ           1.43907        -3.10891         -0.5431
LJ           2.29174        -5.05489        -0.59446
LJ           4.85731        0.427459         2.89373
LJ          0.894234        0.588959        -5.63062
LJ           3.95397         4.29159         1.49888
LJ          0.881274        -2.02112       -0.614642
LJ          -3.33475         3.41703        -1.85307
LJ           -4.0036         3.81456        -2.49714
LJ           3.97759        -2.37231         6.38239
LJ           1.42552         3.34874        -1.43348
LJ          0.693224        -2.63486         4.34698
LJ           1.82719         5.98685         3.97206
LJ           2.12419       -0.365311         -1.6696
LJ          -2.44129        -4.44899         3.42934
LJ          -2.51595         4.59905        -3.49421
LJ           1.23795         2.68266        -4.51392
LJ          0.587771        -6.32376       -0.179137
LJ           6.42569        -5.52923        -3.20343
LJ          -5.80856         -3.7649        -2.89535
LJ           -2.9545        0.740942         1.18486
LJ          -4.81107          1.2183        -1.45309
LJ         -0.948977        -2.88597           1.167
LJ           4.54809        -5.02574       -0.269874
LJ          -3.56375        -3.28347         5.78939
LJ          -6.44203         2.54684        -3.09839
LJ          -4.16949        -3.38678         2.71082
LJ          -4.56493        -4.43184        -6.42059
LJ           1.14541       -0.288301         4.75496
LJ          0.423073       -0.208053        -6.37348
LJ           3.86471         2.65533         6.35833
LJ          -3.64434        -2.10016        -2.41462
LJ           5.69482        -3.44048         1.80421
LJ          0.478812        -1.02188         5.40165
LJ           3.02251        -3.95265      0.00709101
LJ           5.29535        -4.42843         2.98334
LJ          -5.05736        -3.08275        -2.70872
LJ          -4.09733        -2.02441        -3.43104
LJ          -5.53214         2.76329        -1.32044
LJ          -5.18265       0.0052655          3.4442
LJ         -0.965141        -1.35277        -3.46467
LJ           3.28914       -0.437468        -5.60366
LJ             4.909          4.3625         2.54748
LJ          0.208144         3.10747         3.14748
LJ           -2.5709         1.03248       -0.848769
LJ           2.72758        -2.21866        -1.63459
LJ          -4.59381        -3.18069        -3.71968
LJ           1.82949        -2.11692        -2.40105
LJ           3.39235        -4.99283       -0.556017
LJ         -0.721736         -1.1055            3.31
LJ          -5.15925         1.92159        -2.83558
LJ          -1.55462        -3.43402         2.85868
LJ           6.37666        0.358753         5.95913
LJ          -6.17138         1.11821        -3.54462
