108
#Comment!
LJ          -4.07271         2.89319        -3.92985
LJ           1.73772         0.42678        0.418289
LJ          -4.99713        -4.32287           3.764
LJ           1.51262       -0.502962       -0.998806
LJ          -4.19684          3.6248        0.359873
LJ           -1.3539        -3.14216        -1.40782
LJ           3.43219        -5.26272        -3.02113
LJ          -5.47086         1.61767         3.79189
LJ          0.593908         -3.3739         4.74954
LJ           1.82936        -3.97445        -5.02756
LJ          -2.53504         2.33133        -2.57216
LJ           1.48332          2.5309       -0.318484
LJ          -1.40789         3.73047         1.40946
LJ          -3.40514        -3.19047         -4.0199
LJ           1.44897        -2.26332          4.9348
LJ          -2.08932         1.18446         5.23564
LJ          -4.88487       -0.206746        -3.47985
LJ          -1.55078          3.4974        -2.73256
LJ          -5.63138        -2.37555         3.44232
LJ          -5.46104        0.889589        0.600305
LJ            4.6185        -4.12441         5.28716
LJ           1.07121         -5.7219        -3.54676
LJ          0.500261        -4.50448        -1.99317
LJ           3.22342       -0.329393        -4.47228
LJ          -5.14159         3.25953        0.254322
LJ           -1.1588        0.712023         4.29338
LJ          -4.27182       -0.387509        -5.84921
LJ           -2.2055        -3.00007         5.16569
LJ            -5.266         2.23971        0.791937
LJ         -0.866588        -1.03177        -3.58132
LJ          0.643536       -0.640898        -3.58746
LJ          -4.52703       -0.346873           3.152
LJ          -1.86808         1.64226       -0.900393
LJ          -4.88467          2.1554        -3.01125
LJ           1.54193        -4.90517         4.59347
LJ         -0.100829        -2.01203          -6.243
LJ         -0.299918       -0.259617        0.359497
LJ          -0.43038       0.0173885         4.94045
LJ          0.156708         3.37623      -0.0778611
LJ           4.06224        -4.40274        -3.48799
LJ           4.35292         3.44187         1.47558
LJ           -4.8758        -3.68542         2.74182
LJ            3.6598        -1.98621       -0.358194
LJ           5.24952         1.84902         1.40378
LJ          -2.59927         4.91718         6.30477
LJ          -4.74456         4.70884        0.380314
LJ           2.42162        -1.68761         5.78226
LJ           2.62268          1.1579         4.71204
LJ          -4.97732         3.56977        -3.78298
LJ        -0.0953035         1.79613         5.37505
LJ           4.47075         -3.3035          6.3599
LJ          0.598566        -2.63157         1.36736
LJ          -4.65945        -2.85122       -0.822405
LJ           3.57066       -0.925864        -1.86763
LJ          -4.14045        -4.54415        0.127192
LJ          -5.32002         4.27966         -2.4768
LJ          -0.12829        -2.59633         -3.5981
LJ         -0.405428        -4.89203         5.14646
LJ          -1.63453       -0.681927         2.09915
LJ           0.14853        -2.76355        -1.92846
LJ          -5.84815         3.38581         3.28609
LJ          -2.07961         1.48059         6.31915
LJ           3.98211       -0.866694        -6.05431
LJ           5.98703         5.66202        0.539875
LJ          -1.70134        -3.61314        -4.33905
LJ          -2.05286        -2.35185         1.48123
LJ          -6.30989         6.15855        -2.57418
LJ          -2.23203       -0.230622         4.04052
LJ          -1.72438         5.86387         1.64125
LJ           1.41791         5.82832         6.20241
LJ          -1.11876         5.89663        -3.27745
LJ           6.27202         1.26652         3.83351
LJ          -1.45085         -4.1591         1.55941
LJ          -2.63204        -1.53051         6.43619
LJ          -3.54504         1.64125        -2.18377
LJ          -1.84072        -1.59844        -5.27106
LJ           5.16916        0.562072         5.00155
LJ          -1.30966         1.90707         5.57698
LJ          0.597874        -2.12393        -5.53224
LJ            3.1496         4.54134         1.51557
LJ          -3.56381       -0.878276         1.43094
LJ          -3.83902         1.91974        -4.41511
LJ          -3.28275        -4.04588         6.05135
LJ           2.24814         1.37558       -0.125859
LJ           -6.0806         5.97309         5.64864
LJ          -4.66495         2.73422        -4.90789
LJ           6.21037        -5.50523         5.02347
LJ          -5.50417          5.1173        -5.35615
LJ           4.26988         6.22824         2.68872
LJ          -4.99622          4.2422         1.77309
LJ          -3.96418        -1.35271        -6.28779
LJ          -5.89318        -1.34401         5.04425
LJ          -3.93748         1.78968       -0.968364
LJ           4.38216        -3.44762        -5.26443
LJ           5.36274         4.17973         6.20095
LJ           3.59879        -3.84078         5.65572
LJ           3.92438        0.901312        -5.78179
LJ           -2.2671         3.93882        0.228846
LJ           2.95608         5.48365          1.3383
LJ           3.42112         5.79773        -6.26755
LJ         -0.178986        -6.26284        -6.29751
LJ           6.23084        -4.66725         5.89814
LJ            3.3033          4.1702         5.91194
LJ          -2.50285         0.19567       -0.626579
LJ           -0.8297         1.70184        -4.30651
LJ           -6.3705        -4.42743         4.49132
LJ          0.190324         4.31924          2.5859
LJ          -1.80509         4.81918         2.41244
