108
#Comment!
LJ          -3.68529         2.95484        -2.41362
LJ           3.03596       -0.308041         1.43329
LJ          -4.37204        -3.59626         3.88839
LJ          0.723109        -1.25241        -1.94814
LJ          -4.81003         2.63773        0.784743
LJ          -1.15222       -0.527725        -1.77526
LJ           3.76906        -6.04117        -4.31897
LJ          -5.27173         1.92167         4.92894
LJ          0.647819         -2.0851         4.64918
LJ           2.14736        -2.72517        -5.82205
LJ          -2.53115         2.71949        -3.36843
LJ         -0.351867         2.53034        -1.72456
LJ          -1.25162         3.82049         2.48838
LJ          -5.14035        -4.33585        -4.01517
LJ           3.10575         -2.9605         2.90817
LJ          -3.42092         1.78018         4.08646
LJ          -5.57728        -1.09517        -2.05862
LJ         -0.662822          5.2097        -5.06286
LJ           6.34632        -3.13174         3.57778
LJ          -5.61994         1.94376        -0.39463
LJ           4.81157        -4.55994         5.86545
LJ           2.50549         5.05534        -4.73342
LJ            1.9084        -2.48344        -3.57975
LJ           0.96022         1.27535        -4.99739
LJ          -5.72019         3.05385        0.155248
LJ         -0.477739         2.36658         4.98515
LJ          -5.17897       -0.420271        -5.45907
LJ          -1.45858        -2.25196         5.07172
LJ          -4.16724         2.34453       -0.322492
LJ         -0.280389        -2.78498        -4.07236
LJ          0.780094       -0.519803        -2.61108
LJ          -3.69016       -0.459034         2.71502
LJ          -1.19341         1.92998       -0.216147
LJ          -4.23689         3.24461        -1.57038
LJ           4.31061        -5.08583         3.08211
LJ           0.25253        -3.32529        -5.40267
LJ           -1.1713        0.444827         1.25338
LJ        0.00225717        -2.78837         3.38349
LJ           1.06692          4.0512       -0.263096
LJ           5.55535         -3.7558        -2.48586
LJ           4.61154         2.73489       -0.293683
LJ          -5.84594        -5.02429         2.92446
LJ           3.76462        -2.29631         1.52446
LJ           5.69231          1.0677         2.40963
LJ          -2.50234         5.01752         4.41401
LJ           -6.3985         4.38019        0.587663
LJ           1.80784          -2.362         4.28145
LJ           2.60543       0.0216327         4.02866
LJ          -4.26797          3.8557        -3.99474
LJ             0.257         1.25338         4.54885
LJ           4.04517        -3.80368         5.95548
LJ         -0.574046       -0.792636         2.42102
LJ          -5.40771        -2.74972       -0.173716
LJ           4.76511       -0.678089        -2.16497
LJ          -5.03626        -4.85313        -1.22404
LJ          -5.53641         3.13165       -0.906015
LJ          0.886515        -3.50498        -3.42373
LJ         -0.848353        -4.32571        -5.80701
LJ          -3.35372        -1.91799         1.85062
LJ         -0.262392        -3.94602        -2.80143
LJ          -5.10502         2.73606         3.09865
LJ          -2.47075         2.20867         5.81579
LJ           5.19046        -1.23709        -4.87877
LJ           5.95468        -6.12948      -0.0999486
LJ          -3.04838        -3.34403         -5.9764
LJ         -0.110389        -1.95119         1.35833
LJ           5.93234        -3.73232        -1.54591
LJ           -2.7675         2.46348         2.39147
LJ           -3.0106         5.37588           3.714
LJ           2.02097         4.26064         5.30492
LJ          -2.17565         4.79295        -2.15167
LJ          -6.35377         1.87823         4.88295
LJ         -0.909425        -4.20552        0.663991
LJ          -1.71517         -1.8035        -6.15575
LJ          -2.64312         2.81766        -2.00238
LJ          -2.07122       -0.546566        -4.34482
LJ           5.09687         2.67357         5.24798
LJ          -1.00897         2.72561        -5.79692
LJ           0.66812        -1.63794        -2.82866
LJ           5.25171         3.64438         1.55958
LJ          -3.52412        -1.96275         3.03148
LJ          -4.92264         2.39111        -4.45445
LJ           -1.9949        -3.14085         4.64209
LJ           3.13045         1.01285         1.14501
LJ           -6.2988         4.90222         4.99012
LJ          -5.13253         1.72974        -5.51584
LJ           5.18966        -4.97014          4.5354
LJ            6.0396        -5.52122         5.64662
LJ           3.47411         5.93316         2.56311
LJ          -6.02793         4.03958         2.48864
LJ          -5.46711         -1.3663        -4.96756
LJ          -5.73035        -2.76296         6.33118
LJ          -5.32249        0.039591        -2.04772
LJ           2.86213        -3.62018        -4.93629
LJ           5.48595         4.62324        -4.50842
LJ           3.00091         -3.5659         4.97818
LJ           3.63691         2.02686         5.15922
LJ          -3.52026         3.07918        0.354304
LJ            3.0347         5.33941        0.255319
LJ           3.67791         4.20383        -6.03433
LJ          -2.17731        -5.98228        -6.22406
LJ           6.09264         -5.7128        -5.44371
LJ          -5.87328         4.40791          6.3873
LJ          -1.54197        0.123608       -0.699759
LJ         -0.189581         1.95551        -3.34099
LJ          -6.41917        -4.92756          4.6633
LJ           1.23823         4.06616         3.40679
LJ          -2.98761         4.67072         1.46739
