108
#Comment!
LJ          -3.15818        -2.78179         4.95528
LJ          -1.56628          -5.738        -5.69521
LJ          -4.39111         3.33567         -2.8984
LJ            5.5355        0.455657        0.486309
LJ          0.800625        -3.93385         4.98742
LJ          -5.68412        -3.86117        -2.94628
LJ           -2.8655         6.33601         4.51275
LJ         -0.369024        -4.56677         6.24916
LJ           5.01086         2.60097        -2.10647
LJ          -4.53017        0.339648         3.60936
LJ           -5.1906         1.69113       -0.151134
LJ           -2.1432          2.6956         -5.4548
LJ          -6.45734        -4.82263        -4.93252
LJ          -6.03579           5.705         1.32002
LJ            2.1401         5.63807         6.41315
LJ           2.42988         3.62835        -1.10774
LJ          -4.70743        -1.88868        -2.55417
LJ          -1.01993         3.09876        0.246605
LJ           2.23046        -1.07926         3.78419
LJ            -2.691        -4.54489        -5.67849
LJ           5.98014        -3.48397         2.86936
LJ          -2.06506         5.32753         -1.0395
LJ         -0.610061        -5.64272         4.89903
LJ          -2.29217         4.00802        -4.15153
LJ          -5.29757        -5.29068         2.58857
LJ           2.76769        -3.40989         0.97211
LJ          -5.77322         4.32949        -1.66266
LJ          -5.27858        0.243895        -6.18843
LJ           5.33586        -2.33475        -1.65836
LJ          -3.77963        -6.13247       -0.582856
LJ           5.68793        -3.82188         3.93504
LJ          -1.92584         2.52021        -2.93626
LJ          -5.21641        -1.08276        -6.36464
LJ           2.78534        -1.94419       -0.758426
LJ          -5.88808         4.40975         1.50617
LJ          -2.19203         2.29193         2.97151
LJ          -5.85856        -1.33533        -4.79018
LJ          -6.32217        -2.12868        0.231471
LJ          -3.68747         6.04165        -5.45214
LJ           3.85246        -2.20651        -3.57072
LJ         -0.681247        -5.59628          3.2872
LJ          -3.34253       -0.649233         2.89611
LJ           5.14734         5.36898       0.0991961
LJ            1.6736        -3.64211          3.0534
LJ           2.35167        -2.04125        -4.76293
LJ          0.371017        -1.37132        0.309261
LJ           4.26248        -3.31441        0.935623
LJ          -5.24923        -4.56169         1.62112
LJ          -1.48937        -1.81718        -1.95764
LJ          -5.11837        -2.38337         5.32853
LJ           4.41959        0.945315       -0.811166
LJ          0.738242         3.29213         2.92145
LJ           1.43768         3.32461         3.68699
LJ         -0.785909        -5.24208         2.16474
LJ          -2.97019         1.81696        -1.61984
LJ           2.20832        0.245151       -0.329638
LJ          -3.45784         6.39556         5.56645
LJ          -1.19254         3.36127        -6.06524
LJ          -5.21637        -3.58912        -6.26814
LJ          0.963929        -5.78371        -4.91307
LJ           2.87373       -0.481354         3.14338
LJ          -2.41304         -3.5918        -3.24494
LJ          0.318368        -3.85943         3.38078
LJ           1.66144        -5.92939        -1.92522
LJ           3.80971        -4.42072        -1.74576
LJ           -6.0179         2.37945        -5.56799
LJ          -1.77727        0.543055        -4.86528
LJ           4.53262         1.28433        -1.70862
LJ           3.16707         3.52088         4.40628
LJ          -6.02275        -5.81513        -2.82626
LJ          -5.97771         2.39578        -3.34752
LJ          -2.11972        -2.07986        -3.09126
LJ          -2.56726         1.13866        -2.35382
LJ           3.30695         4.93218         3.28821
LJ          -4.60923        -6.04893        0.484897
LJ          -2.13208        -1.53392         4.82428
LJ           -5.2023        -1.63678          2.0374
LJ           1.14463         4.26173        -1.99742
LJ          0.761681         5.38814         5.88339
LJ           3.37886       -0.293806         1.42829
LJ            2.0969         0.46904         3.92695
LJ           3.51312        -3.15462        -4.12376
LJ          -4.51012        -3.72966         5.85116
LJ          -4.81336         3.59438        -5.87548
LJ           4.89545         2.11521        -4.47266
LJ           5.22474       -0.132527        -3.60485
LJ           1.16292        0.389536         2.27836
LJ          -4.97508         1.30907         2.28666
LJ          -1.27893         6.35386        -3.67788
LJ         -0.620203         2.52513         3.74743
LJ          0.933294         5.00294        -3.29828
LJ           1.65778        -2.47959          2.0066
LJ         0.0165876         1.96534         1.82968
LJ             4.343       -0.809036         2.60858
LJ           6.38424        0.438173         1.38211
LJ           2.14682        -2.52829        -3.34247
LJ           4.62225       -0.347324         4.03193
LJ          -0.95101       0.0646553        -4.52838
LJ          -1.59242          1.9899         1.94747
LJ          -1.30305         3.28692        -4.41036
LJ          0.835095        0.714723        -4.41995
LJ          0.907896         -2.7921        -3.86524
LJ           2.02382        -4.95564        -2.26181
LJ            0.2798        -5.00593        -1.93625
LJ          -1.74486         1.27719        -6.32424
LJ          -3.47376        -5.62111         6.33738
LJ           2.20624          4.6731         1.31972
LJ         -0.366558          1.9557         5.53257
