108
#Comment!
LJ            -2.279          5.9743        -1.29978
LJ          -5.16806         4.24722        -4.72745
LJ          -4.93627         5.30054        -5.86976
LJ           6.08497        0.628547       -0.182946
LJ         0.0261225        -2.84704         3.24885
LJ          -3.99009         1.63051         -2.7261
LJ          -5.64125         4.22371         2.63307
LJ         -0.633347        -1.54617        -3.43723
LJ          -2.68411         3.67486         1.02748
LJ          -2.35772         2.76049         3.32602
LJ          -2.83566         1.43544        -1.91631
LJ        -0.0199076         3.75469          3.5602
LJ           1.90472        -5.23655        -3.05154
LJ          -4.23402         2.17731       -0.993514
LJ          -5.62846        -4.49347        -4.26527
LJ           1.74083           3.277        -2.04487
LJ          -1.58993         0.48559        -6.17438
LJ          -4.40273          3.2974        -1.55713
LJ           4.30543       -0.630416          4.2923
LJ         -0.509863         5.28441        -4.47144
LJ          -1.97663        -2.48675         3.54115
LJ          -1.32285        -4.89963         5.78596
LJ          -1.08408         6.23349        -5.45902
LJ           3.88659         1.36794       -0.220319
LJ          -5.72043         5.16251         1.05415
LJ           2.87478        -4.64768         2.51114
LJ         -0.884677        -6.14561       -0.123272
LJ           3.90839         4.08394         5.37303
LJ           2.72988        -2.55111          2.5303
LJ          -6.08575         3.25386         1.80652
LJ          -2.70837       0.0542742        -1.92548
LJ          -3.95911        0.348761       -0.772543
LJ           1.28335         2.03934         3.27359
LJ           2.05262        -5.26628         4.69197
LJ          -5.43122         4.27043        -0.09151
LJ          -2.48062       -0.345337         6.39724
LJ           -6.3913         1.58304         1.73555
LJ           4.31204         2.40128       -0.145275
LJ           -4.7267        -4.77387        -4.86738
LJ             3.863         1.37288        -2.37306
LJ          -5.31048        -6.06661         3.46665
LJ           4.97992        -5.17849         3.95263
LJ         -0.754782         4.12932        -3.49018
LJ           2.21255         5.25176       -0.173715
LJ          0.199932        -5.18893        -6.20773
LJ           1.91998        -1.20593         3.18574
LJ           5.96316        -4.86404         5.43723
LJ           3.55687         5.43438          1.4968
LJ          -1.77999        -5.38357         2.54234
LJ          -6.01044          1.9843        -4.10274
LJ           4.16921         -4.3165         2.09499
LJ          0.933145         3.11434         3.06973
LJ           1.81717          2.1673         1.94521
LJ          -1.12429        -3.01872       -0.495621
LJ          -4.02619         3.84002        -3.13637
LJ           3.95964        -4.92845        -3.59859
LJ          -5.88113         5.63668         3.72348
LJ         -0.442159         5.92872         4.74275
LJ          -1.54093       -0.713477         4.49705
LJ          -2.18824        -6.15139        -6.14669
LJ           4.75482       -0.593098         5.21347
LJ          -2.03242         2.35789         5.90066
LJ          -2.34275        -1.76285        -0.96013
LJ            1.3206         3.90391         3.60037
LJ           5.08501         6.05442         5.22971
LJ          0.904177         1.55876       -0.871939
LJ         -0.865243       -0.168815         5.36264
LJ          -3.51616        -4.60188        -2.37372
LJ          0.353885         4.74584          -5.211
LJ          -5.17084        0.582909        -2.39069
LJ          -2.28804         1.69175        -4.77768
LJ           1.60749        0.264417        -1.94917
LJ          -3.00718       0.0221323        -3.31121
LJ           1.86923        -3.34172        0.323875
LJ         -0.134617        -5.10808        0.216633
LJ         -0.752791        -2.16346         2.34505
LJ          -6.13464         2.71692         3.33651
LJ           1.94501        0.637341        -4.78608
LJ           4.10232         1.47951         4.24095
LJ           2.40815        -3.24454        -1.40801
LJ          -5.49415        0.310194         5.81486
LJ           4.70582         6.37813        -5.50732
LJ          -4.73384         4.55308         3.60018
LJ          -6.34945         5.76191        -4.49928
LJ         -0.032091         5.90508        -3.61473
LJ           6.03451         -4.9949        -4.04397
LJ          -3.20841       -0.151471         4.01288
LJ          -2.00438         1.93366        0.656683
LJ          -3.72945        -5.12543        -5.66674
LJ           1.92805         3.08088         3.21516
LJ           1.44821        -5.50249        -1.95628
LJ         -0.771466        -5.05655         1.92489
LJ          -4.44333         3.66323         4.03147
LJ           1.33035       -0.259259         5.47275
LJ           5.63308         1.28855        0.560127
LJ          -2.31167        -5.10351          6.3008
LJ           5.87417        -1.13279          4.0039
LJ          0.586204        -2.72228         4.96549
LJ          -1.29777        -4.39688           4.024
LJ          -2.78046         3.74574         6.36911
LJ           3.13164       -0.383303        -3.38812
LJ           3.02239        -4.52394        0.225939
LJ          -3.70636         -1.4566        -1.69618
LJ          -2.73735        -1.91681        -2.03753
LJ           -1.5181         3.93995         1.61091
LJ           5.67207        -2.88664        -5.40269
LJ          -5.56754         1.36801         4.27842
LJ          -1.36321       -0.418283        -3.10105
