108
#Comment!
LJ          -2.16223         1.11318        -1.98977
LJ          -0.72187         2.00461        -1.80046
LJ           6.03237        -5.61204         3.56255
LJ           4.95891         2.11467        0.762031
LJ          -3.91198         4.19962       -0.552692
LJ          -3.45138         6.33412       -0.211046
LJ           2.90197        -3.48162        -0.90621
LJ          -5.97602        0.790801         1.44414
LJ          0.632588        -5.86105         4.62854
LJ           1.26591        -6.12931        -2.48175
LJ          -3.91805         0.83105        -1.89589
LJ           4.89787         3.70501         3.28849
LJ          -2.32378         4.31387         0.66593
LJ          -2.33233       -0.903049        -4.22279
LJ          -1.87772        -1.01415        -5.60364
LJ           -2.7651        -1.81527         6.44566
LJ           -3.1787        0.640561          6.2725
LJ          -2.55396         3.83639       -0.454543
LJ          -4.11213       -0.709909         3.96695
LJ          -5.46993       -0.160826         2.06645
LJ           4.46587        -4.20833          3.4009
LJ          -0.73482        -4.01988        -3.40206
LJ           -1.9917         5.40792        0.414146
LJ          -5.61074        -3.04236        -4.07522
LJ          -4.99143         2.21107         1.07224
LJ         -0.244075        -3.23039         3.21249
LJ           -2.6214       -0.201457        -5.83804
LJ          -3.68329        -5.23292         4.42902
LJ          -6.34387         2.40641         2.14229
LJ         -0.833445         2.54017        -2.86712
LJ         -0.521781        -1.52595        -5.46616
LJ          -4.64447        0.578889         3.32456
LJ           -4.0638        -1.33505       -0.783107
LJ          -4.96293         1.24515        -5.78112
LJ          -3.18831         -4.3084        -4.96482
LJ          -2.98367         1.11653         3.19847
LJ          0.693757        -1.54069        -0.43113
LJ          -1.39331         1.83557         5.07534
LJ          -2.02813          3.0361       0.0482436
LJ           2.13694        -5.90747        -5.35504
LJ            3.6044         4.29936         4.20548
LJ           -2.6659        -1.78573         2.67659
LJ            3.4363        -2.55465        -3.62498
LJ           4.94105         4.42854       -0.556763
LJ           -3.0851          4.5628        -3.14911
LJ          -1.75396         5.37182        -1.75976
LJ           2.76003        -1.34321        -4.24687
LJ           2.66811         3.30092         6.04598
LJ            6.2449         3.40931        -2.17821
LJ         -0.796095         5.74473        -4.79892
LJ            4.7892        -2.91891        -5.49542
LJ           2.50408        -6.26005       -0.821915
LJ          -3.72637        -1.53217        -2.23948
LJ           1.51627       -0.547685        -2.48944
LJ          -1.88196          -5.836         2.79085
LJ          -1.98484         3.98172         6.17986
LJ         0.0511758        -1.70163         -2.4517
LJ          0.839592        -4.20335        0.963353
LJ          0.433499         2.62137         3.54192
LJ           1.53168        -3.23338        -1.73618
LJ           5.31241          3.0521         5.62665
LJ         -0.451245        0.238543         -5.7836
LJ           2.14332         0.59345         4.62423
LJ           5.78714         4.22585         1.57111
LJ         -0.284479        -2.09192         2.59492
LJ          -4.72811        -4.06909           1.663
LJ            5.4528          1.8249        -3.86756
LJ          0.703001        -2.78445         3.62547
LJ          0.601224         5.16227        -2.03368
LJ           3.33713        -5.60933         4.06419
LJ          0.300648        -4.91899        -5.55369
LJ           5.81644       0.0418945         1.89767
LJ          -2.74317        -3.83692         3.12554
LJ          -3.24659        -2.66956        -5.76603
LJ          -3.18121        0.479451        -2.86279
LJ          0.513688        -2.99657          -4.989
LJ           5.30389        -3.38221         4.17076
LJ          -2.00521         1.02673         2.41008
LJ           3.25265        -3.76715         4.53869
LJ         -0.430794         3.92737         2.35282
LJ           -3.4608        0.810564        0.539303
LJ          -2.40304         2.12452        -5.54553
LJ          -5.10171        -5.55061         5.62736
LJ         0.0986849         1.07199        -2.36578
LJ          -6.39719        -4.30374        -6.34531
LJ           -6.0949         4.63592        -6.21694
LJ          -4.53641          6.3192         3.80156
LJ          -3.49435         1.93304        -2.77773
LJ           5.67876        -6.21122         2.78822
LJ          -4.44632         4.81937        0.662594
LJ          -5.55613       -0.654451         4.02054
LJ           5.20808         1.08829         3.74002
LJ          -2.43168         5.16376         2.58047
LJ           6.45926        -2.49907        -5.05605
LJ           5.38753         3.03069         1.67546
LJ          -6.33298        -4.30566        -4.54593
LJ           5.18162        -1.38786        -2.10403
LJ          0.808144         4.48003        -1.19552
LJ           2.43664        -4.41543         3.03385
LJ           5.19139        -4.12302        -5.62571
LJ           -2.4836         6.19435        -4.10297
LJ          -5.81652        -1.80598          4.2946
LJ          -3.53975          4.1077         5.27779
LJ          -4.13043       -0.767426        -2.95844
LJ          -2.92016         1.88053          -3.653
LJ           -6.2751        -4.40798         4.97394
LJ          -1.32514         5.84106         1.97465
LJ           2.39361        -6.26698          4.9002
