108
#Comment!
LJ           2.84575          4.2118         2.33354
LJ         -0.953565         1.60557         4.44766
LJ           2.04499         1.62681        -1.81558
LJ          0.690667        -2.46758        -5.06708
LJ          -2.81333         4.07376        -1.28312
LJ          -5.78837        -5.09602        0.219623
LJ          -2.96135         4.38878        -4.21246
LJ           3.12404        -4.98406         3.30745
LJ           1.49926        -5.79225        -5.75159
LJ           3.21313        -6.19286         6.37013
LJ           5.57997         4.39162        -4.86077
LJ           2.56163         1.28314       -0.658412
LJ          0.604516         3.47294        -2.70522
LJ           0.42456        -1.39453        -6.44321
LJ           2.27095        -4.93799         1.10754
LJ          -4.05757        -3.09112        -2.30179
LJ         -0.541784        -3.96593        -3.38512
LJ            6.4068          1.4799         2.61324
LJ           2.28142         2.86558         1.47944
LJ          0.536544         1.48506          2.8202
LJ          -1.31145        -3.83014       -0.805021
LJ          -3.75536        -1.23985        0.927755
LJ           -5.0964        -2.48621         2.54408
LJ           2.69192         3.89814       -0.502905
LJ           3.77768        -2.60686        0.248424
LJ            -2.687         3.54765        -4.69357
LJ          -5.91773         2.56766         3.35052
LJ          -4.37525          4.1285         4.76049
LJ          0.317334       -0.357303        -4.27616
LJ          -3.95819        0.716375        -1.83654
LJ           2.54777       -0.505475         5.46958
LJ          -4.71027         1.00142        0.331116
LJ            4.7042         3.31453          6.2627
LJ          -3.37168         -1.0727        -3.50562
LJ           3.38267       0.0026154         5.46458
LJ           3.42441         -1.2137        -4.01736
LJ          -6.06501         5.51563          -3.952
LJ            5.2334        -3.78773         5.58523
LJ         -0.926625        -3.89184        0.775121
LJ          -3.11905        -3.59737        -6.26586
LJ           1.63601         3.54897        -1.67202
LJ         -0.992915         0.28653          4.3179
LJ          -1.88109       -0.953736         2.54026
LJ           4.70868         5.52753         2.11927
LJ          -4.26938        -3.77309        -5.19742
LJ           4.66236        -2.05079         5.65225
LJ           1.25986        -2.80318         3.03761
LJ            2.4534         5.25978        -5.05363
LJ           2.21083         2.64143        -2.74918
LJ          -3.02215        -1.34465        -5.18364
LJ          -6.44931        -4.71658         5.02475
LJ         -0.910535         1.49051         1.31646
LJ          0.845806        -4.25603        -3.33612
LJ           6.28495        -5.45088        -1.07031
LJ          -5.59035         3.95307         4.55993
LJ          -3.48862        -3.08409        -1.38779
LJ          -3.93394         4.53012         1.14354
LJ           5.04499         3.51392        -2.38126
LJ           4.64472          -6.113         6.30056
LJ          -1.67247        -4.87874         2.84802
LJ           1.19224       -0.637385        0.528948
LJ          -5.65515        -1.30841         5.14287
LJ           -6.1877        -4.49101         3.68769
LJ           5.47436       -0.514944         2.55313
LJ          -3.31744        -1.50972        -1.38935
LJ           3.90247         6.45809         -3.3525
LJ           6.31479         6.42785        -2.71839
LJ          -6.33997        -1.03529         4.15811
LJ           3.54145        -5.31818        -3.65552
LJ          -1.15309         3.54257        -1.09137
LJ            5.5477         5.84369        -1.88567
LJ           4.72673      -0.0169773       -0.328187
LJ           2.63253        -6.27893         2.91129
LJ          -3.78069        -5.40055        -5.56839
LJ         -0.360546          3.3881          2.8783
LJ          -5.87406      -0.0865526         2.83477
LJ          -2.55006         3.51993        -3.54764
LJ          -5.01385         5.48315         1.67479
LJ             6.351        -2.16495         4.27072
LJ          -5.82621         4.52931         6.27715
LJ         -0.795135        -5.40534        -1.10821
LJ          -6.44122        -4.23057       -0.361735
LJ          -1.92989         3.48439        -2.54267
LJ          -1.38613         2.40632         2.69707
LJ          -1.10848          5.6083         1.36966
LJ           4.19844         1.55594        -5.95386
LJ           3.80215       -0.186293         3.50131
LJ           1.16142         4.62714       -0.733757
LJ            3.5762         4.44749        -2.69844
LJ            -3.934        -6.24006         3.01065
LJ          -5.33844         3.47065         6.16354
LJ           1.49222        0.284605         1.03212
LJ          -4.73347         4.61125        -6.29011
LJ            3.6092       -0.574518         4.72984
LJ          -5.96658         3.83917        -1.54608
LJ           4.97571          4.0399         3.51585
LJ         -0.582275          6.0893         5.18633
LJ          -6.28795         4.77369        -4.99787
LJ          -3.48069         1.24808         1.54305
LJ          -3.68707        -5.01599         3.52426
LJ          0.769384         1.72947        -0.48712
LJ           5.82847        -5.20758       0.0916128
LJ           3.80404         4.75948         3.11479
LJ         0.0953647        0.888521         5.11241
LJ          -3.20242        -1.82065         2.15209
LJ           6.45877       -0.988315        -6.46155
LJ           4.39742        -4.15002         2.20447
LJ          -1.14062        -5.94064         -6.2034
