108
#Comment!
LJ           1.63066         5.83195         2.27797
LJ           1.04092         1.36749         3.32287
LJ           6.14856        0.571872        -2.94079
LJ           3.17117        -2.19082          3.8662
LJ          -2.65574         5.50542        0.428531
LJ           5.94155        -3.27881         4.10808
LJ          -5.07003        0.788155        -3.93573
LJ           4.23777        -4.11372        -5.55906
LJ           4.49289        -5.95688       0.0524497
LJ           3.12454        0.446796         5.25529
LJ          -3.28322         2.90474       -0.784549
LJ         -0.902649        -1.73659         3.49307
LJ          0.940937        -3.41468        -1.27093
LJ          -1.48816        -2.22119        -3.86839
LJ          0.305629        -2.59625         4.22213
LJ          -4.47357        -2.96058        -5.73624
LJ          -1.42643        -5.45987         4.85053
LJ           5.26207         2.22723         1.40503
LJ           3.02242        -5.98259        -6.44646
LJ         -0.231151         1.33285       -0.166755
LJ          -1.47549        -4.20095        -3.99269
LJ          0.997109        0.651104        -1.98507
LJ          -5.92414        -4.02252         3.78168
LJ           5.79918         2.20862        -2.64966
LJ           4.75339        0.978181         1.84835
LJ         -0.392097           2.391        -2.48321
LJ          -4.83062       -0.388145        -3.97816
LJ          -5.29477         3.87665        -5.52369
LJ          -4.15031        -3.42745         6.25367
LJ          -2.55765         2.28051        -2.12648
LJ          -1.23964        0.752271        -4.69534
LJ          -1.83398         -5.7402        -5.03522
LJ           2.91063       -0.481843        -0.86356
LJ           5.61565       -0.316218         -2.6466
LJ           4.09328         2.46781         6.31135
LJ           5.06733        0.633943       -0.336119
LJ          -5.56379        -2.27841         4.80829
LJ           3.59731        -1.98602        -3.52462
LJ          -1.95076        -1.89907        -1.41237
LJ           3.04062        -6.34804        -3.48006
LJ           3.90721        -5.92192        -5.01665
LJ          -3.36424         1.21029         2.13509
LJ          -1.83946       -0.450627        -1.05047
LJ          -3.68178       -0.772261        0.912599
LJ         -0.477638        -2.48291        -1.47889
LJ           5.91544       -0.257862        -5.49964
LJ           3.17449         4.06873         4.09852
LJ           -6.0309         2.64125        -2.95214
LJ       -0.00627083         6.18566        -5.03106
LJ           4.10062         5.27858        -6.42078
LJ           4.31223         -2.5557        -6.25755
LJ           6.39387        -2.46866         2.16413
LJ           1.39957         5.95829        -3.45801
LJ           6.21233         5.40877        -5.44739
LJ          -6.39859         4.49866        -5.77925
LJ           6.39563        -2.69954        -2.16464
LJ          -6.10702         -6.3953         1.07805
LJ           3.60872         1.27236         6.10121
LJ          -4.00808         4.39229         -5.4342
LJ           2.54973          4.6449         3.19958
LJ          -1.21406         1.09189        -2.85542
LJ          -2.65276         1.91492        -3.00598
LJ          -5.45445        -5.62252       0.0491483
LJ           2.89872        -3.33845         4.31288
LJ          -2.81266        0.383145       -0.312921
LJ           3.00128         2.32214         1.67978
LJ           6.22493        -5.35644        -4.59352
LJ           5.74178        -3.88368       -0.446378
LJ           1.26369        0.808991         6.32112
LJ          -1.78611         2.57042         -3.1903
LJ           3.44561         3.39535        -3.85037
LJ           2.36254        -4.28463       -0.197951
LJ           4.60644         -4.8093        -4.25701
LJ          -3.91415        -4.24451        -3.55938
LJ          -2.17733        -4.28158         1.98522
LJ          0.505394        0.278386        0.932786
LJ          -1.55777         6.03401        -1.23186
LJ           6.15051         6.00424       0.0353009
LJ          -2.99705        -2.38811        -3.82408
LJ          -5.41493         3.80078        -3.79427
LJ          -3.46446        -4.27837         -1.0226
LJ          -5.91389        -3.98208        -4.22991
LJ          0.139401         2.21868        -5.71952
LJ         -0.292199        0.703117        -2.17367
LJ           6.04896         4.83381         3.82292
LJ          -2.23971         3.33707        -3.78763
LJ           5.18256        -3.46956         1.70982
LJ           2.22865         1.55074         -2.2861
LJ           3.55957        0.855028        -1.62618
LJ          -5.06309        -3.59089         2.72992
LJ          -4.28383        0.782026        -4.77777
LJ          -4.07087        -0.58384        -3.09515
LJ           6.40412         3.94039        -4.16264
LJ          -5.86614        -1.85319         6.16704
LJ          -3.20317        -4.83577        -1.85263
LJ           4.41166        -4.15226         4.85257
LJ           1.60014         5.76427         3.61995
LJ          -3.13089         3.15279         6.16944
LJ          -4.15627         2.46752        0.520994
LJ           1.21694        -4.69401         1.62751
LJ          -3.10068        -6.05924        -2.00273
LJ          0.261708         5.26769        -5.77963
LJ            3.7598        -5.66668         1.62073
LJ         -0.640996       -0.108537         4.92732
LJ          -4.79345        0.441659       -0.691078
LJ           1.98242         3.00536         4.47582
LJ           5.17084        -2.61205         4.22766
LJ           4.30773          3.5473        -5.56311
