108
#Comment!
LJ          -4.09697         1.64069       -0.193421
LJ           4.31252       -0.727777         3.27654
LJ          -5.11195        -3.36182         4.28794
LJ            0.8206         0.71983         3.34551
LJ          -5.59643         1.85431         1.62572
LJ         -0.875523         4.51212        -2.48408
LJ           4.61026         5.46342         5.94306
LJ          -5.15048         2.53829         -5.8544
LJ           2.10908       -0.342176         3.51218
LJ           3.11877       -0.432081         6.27686
LJ          -1.91617         4.24809         -4.6181
LJ          -2.61872         1.04497        -3.74993
LJ          -1.44388         3.64189         3.16145
LJ           4.44799        -6.35414        -4.05362
LJ            2.3253         6.39618        0.111615
LJ          -2.90436         3.30737         3.48011
LJ           4.60126        -3.29796        0.288212
LJ           1.00058        -4.34449         3.44292
LJ          -5.90411        -3.64226         3.78389
LJ          -4.74522         3.42323       0.0566209
LJ           3.06413        -4.34915        -5.59358
LJ           4.66565         1.26521          5.8352
LJ           3.36273         1.02518         5.81332
LJ          -3.08511         3.58331        -6.43373
LJ           6.23159       -0.986225         2.89421
LJ           2.39133          4.6643         5.92067
LJ           6.04134       -0.945465         -4.8186
LJ           1.11613        -1.14617         2.84796
LJ          -4.90054         2.51795        -4.00996
LJ         -0.547628        -5.35568        -1.59101
LJ          0.845577      -0.0535876        -2.66469
LJ          -1.97812       -0.565459         2.04486
LJ          0.410766          3.2972        0.923751
LJ          -3.08183         3.18871         2.15962
LJ          -4.28565        -4.59626        0.746002
LJ          0.790745          6.0404         -5.0064
LJ           -3.0004         1.80039         2.46304
LJ           1.34698         4.83524        0.982565
LJ           2.68332         5.61815       -0.383731
LJ          -5.32715        -2.27003        -1.76916
LJ           5.38182         1.06353        -3.48992
LJ           4.54747         -6.3613         2.91123
LJ          -4.98488       -0.628893         2.66721
LJ          -6.39629       -0.256031          3.9373
LJ          0.112703         3.90443         5.20669
LJ            3.3222         4.49135       -0.658717
LJ         -0.489668        -3.47663         1.74278
LJ           2.36898        -2.09327         2.66152
LJ          -2.55753         5.53361        -3.38483
LJ         -0.156565        0.889887         3.07691
LJ           2.17519        -4.42393        -6.17228
LJ          -2.52766        0.913616         4.47919
LJ           5.55263        -1.13059        0.629607
LJ           5.00956        -1.42863        -2.59083
LJ           6.21919         5.91445        -3.84443
LJ          -5.12889          3.7811         -4.8644
LJ           3.12557        -5.74724        -2.50562
LJ         -0.750921        -1.62711        -2.78643
LJ           5.56205        -3.41728         2.37647
LJ          -0.94064         6.21686        -5.21301
LJ           4.69418          1.2136         2.67589
LJ          -2.72107         3.77373         4.52637
LJ            4.4967        -2.52048        -2.26387
LJ           6.14223         6.31073        -1.66073
LJ          -5.48856        -2.62429        -5.89872
LJ           4.14562        -1.06762         1.51786
LJ           4.02739        0.260209         1.95555
LJ          -3.71447         6.24872       -0.355894
LJ           4.82544         5.87158         4.29139
LJ           1.64803         0.24202         4.83068
LJ          -3.50292          3.8558       -0.652588
LJ          -6.00009         3.21936        -5.81865
LJ          0.133516        -4.21022        -1.06222
LJ         -0.511424        -1.83898        -3.97509
LJ          -3.09083         5.29539        -2.27234
LJ          -2.14246         1.81646        -1.93142
LJ           5.25374         6.38941         5.43735
LJ         -0.804449         4.38389        -3.68715
LJ          0.540043        -1.17137        -2.41822
LJ          -4.11951         3.86477         2.48628
LJ          -1.31307        -3.12685         4.40256
LJ          -6.44414         1.31033        -6.43825
LJ         -0.106262        -2.19367          -1.472
LJ           4.69013         0.80247         3.75942
LJ           6.05456         2.41531         4.67033
LJ          -5.28269      -0.0532355        -5.28981
LJ           5.24318        -6.05971         1.82808
LJ           3.14052        -3.37757         2.90517
LJ           1.94855         5.14091         2.39888
LJ           4.89794         3.84141         3.96714
LJ          -4.99416       -0.896729        -3.25536
LJ          -5.29368        -5.48024        -4.06978
LJ          -5.53889         1.62368        -2.75164
LJ          0.352733        -3.01023        -4.56176
LJ           5.67722         5.68063        -0.85395
LJ           2.50103        -4.14491         5.59301
LJ           3.25008         4.59516         1.47074
LJ           -3.6036         2.27718        0.822403
LJ           3.35629         4.82732        -1.78546
LJ           5.67634          1.1158        -4.63715
LJ          -6.37195         6.43267        -5.57626
LJ           5.80263         5.26998        -1.88874
LJ           1.32101          2.5963         6.17174
LJ           0.24046       -0.886252         -1.0898
LJ         -0.144724         2.70521        -0.91139
LJ           6.38646        -5.20638          1.9843
LJ           3.06471         4.66717         2.58056
LJ          -2.71275        -5.66585         3.05128
