108
#Comment!
LJ          0.130243        -3.16771         5.40582
LJ          0.505081        -3.93605         4.36829
LJ           3.02389        -6.41569         5.13076
LJ           4.28066         4.27602           1.781
LJ          0.364061       -0.830568         -2.7955
LJ           5.73255          2.5803        -2.31845
LJ          -3.86705          2.3632        -4.55302
LJ          -6.13237        -5.86564       -0.457048
LJ          -2.81076        -4.66318          4.2726
LJ         -0.200647         4.65476         2.79487
LJ           2.92067         3.70191        -1.76783
LJ          -2.12307       -0.478165         -6.2346
LJ          -4.76938          4.6272        -2.42027
LJ           -3.8802        0.111626         5.16705
LJ            4.2431        -3.15443        -2.37684
LJ          -1.97805     -0.00478557        -2.07586
LJ           -2.4162         0.55359         5.99865
LJ          -5.15872         5.98939        -6.33244
LJ           6.35553         3.26957         6.09295
LJ          -2.20517        -4.90494        -5.60932
LJ           5.86976        -5.43054        -1.59126
LJ           3.75787        -1.07519        -5.32403
LJ            -4.846         4.75767        -1.19027
LJ          -6.08144         -4.2642         3.76291
LJ           5.79709        -5.99076        -3.32763
LJ         -0.522176        -6.10046         3.27133
LJ           6.32661        -5.10925         2.51888
LJ            5.9978         4.95816         2.79241
LJ          -3.61674         4.28521        -2.92392
LJ          -3.51626       -0.757576         3.63842
LJ           5.50351          3.1321        -1.47876
LJ          -1.97607         1.82554         3.49915
LJ           4.11415        0.385034        -1.41783
LJ           2.16512         2.88116        -3.42564
LJ            1.8508          4.6798        -3.44312
LJ         -0.556268        -4.91494      0.00775279
LJ           3.65777          5.1581        -5.08651
LJ           1.34268        -3.36995         -2.3544
LJ          -4.26983         3.28163        -5.26133
LJ            2.0481       -0.194639         -1.0356
LJ           6.07455         -5.3638       0.0721425
LJ         -0.600388          4.6355         4.36489
LJ          -2.07511         3.54025          5.5279
LJ           3.80702         2.73155         3.95668
LJ          -1.73376        -1.90849         2.36225
LJ           5.32868         1.88472        -5.86913
LJ           3.55651       -0.103514        -4.87095
LJ           -4.2032       -0.164772         2.99676
LJ            6.1935         6.08141        -1.11364
LJ          0.376804        -4.28233         1.86435
LJ           6.27015        -3.50474        -4.79461
LJ          -2.04553         4.83543         3.34336
LJ           1.71683        -2.88527        -5.00746
LJ          -2.14817         2.45686        -5.97959
LJ          -6.28038        -6.43522        -5.85664
LJ          -2.83577         5.07703         5.60401
LJ           6.00471         6.06311         1.38879
LJ           1.79484        -2.00408        -5.88008
LJ          0.896181         3.90735        -3.86467
LJ           1.37902        -5.40988        -4.71346
LJ          -5.24038        -1.34341        -3.12513
LJ           1.72821        -3.26225        -3.65004
LJ          -3.70773       -0.657727        -2.27874
LJ           6.04828        -1.42305         1.94645
LJ          -6.25856        -5.60606         3.41669
LJ            2.7653         3.19394        0.593878
LJ           3.28599            2.02         4.85931
LJ         -0.741011         3.61093        0.526874
LJ           3.78901         1.54093        -6.16356
LJ           2.93559         2.00332         2.70757
LJ           2.82509        0.751649         5.62777
LJ           3.47991         4.46147         4.28873
LJ           1.31432         1.95452         -3.0392
LJ          -1.12398        -5.74418        -4.52216
LJ         -0.534403         5.87375         1.48724
LJ           1.20918        -3.88099        -4.65812
LJ           2.42247         2.57433         4.35819
LJ           2.60055        -5.51031         3.33482
LJ           6.32434       -0.102976        -3.71763
LJ          -6.12033         3.40122        -4.07651
LJ           2.90411       -0.745784        -1.86804
LJ          -4.99292         1.61938         4.52681
LJ          0.519763         4.04695         3.09607
LJ          -5.87655        -2.49699        -1.54584
LJ          -4.13047         2.19856        0.369734
LJ          -0.99899        0.131201        -3.45348
LJ           6.43452        -4.90547         4.51959
LJ           2.60101         -3.7465        -4.33685
LJ           5.26365        -4.97852        0.955798
LJ         -0.583091        0.275902      0.00810304
LJ          0.733575         6.30421        -1.20299
LJ         -0.267875        -6.31067        -1.28128
LJ          -4.41834        -6.34359       -0.988281
LJ           5.53368         2.35897          3.7363
LJ           4.15631         1.29859         2.46729
LJ          -6.07981         4.21782        -0.84756
LJ          -6.34003        0.658353        -2.05202
LJ           4.62094         -5.7868         1.12874
LJ           5.30095        -1.44808         4.37532
LJ          -5.54936         3.45742         1.18294
LJ           2.51603         -2.6105       -0.656407
LJ            4.6695         3.55518         4.40566
LJ          -1.49328        -3.14186         3.12031
LJ          -3.36708        -1.67004        -2.71956
LJ           2.18104         5.50203         6.13452
LJ           -5.6207          3.3238         -1.5024
LJ           1.74601      -0.0498108        -6.13954
LJ          -1.29511        -4.56325        -4.43483
