108
#Comment!
LJ          -2.10158        0.969507         4.11245
LJ          -5.30136         2.35751        -6.27562
LJ          -5.20014        -6.32547        -5.87746
LJ           5.16686         1.56552          1.2435
LJ          -1.68555        -2.91678         5.22972
LJ           -3.1667         1.67771        -4.85477
LJ           -5.7326         2.39673         1.11765
LJ          -3.17511        -5.01594        -3.25057
LJ          0.636536         5.14063         1.44508
LJ          -1.38993         3.20239         3.66007
LJ          -0.95989          2.2749        -1.83321
LJ          -2.60954         2.48532          1.7823
LJ          -1.16396         6.14525        -2.40935
LJ          -1.82273         1.32107        -3.63397
LJ          -6.42862        -2.54587        -1.09314
LJ          0.972394         2.97952        -3.16283
LJ         -0.853061         1.53857         4.81291
LJ          -5.83603         4.54255         -3.2255
LJ          -6.24638        0.453163         4.32469
LJ          -1.43143         2.43095        -3.69555
LJ           2.11203         1.42333         1.88363
LJ          -3.93289        -2.05151         -3.7627
LJ          -2.87754        -6.35635         -4.2863
LJ           5.80505        -2.46208      -0.0161402
LJ           5.81058         4.20319       -0.290852
LJ           1.43343         -5.4057         3.78572
LJ           1.92163        -6.01406        0.720848
LJ        -0.0707479         5.70819         4.28388
LJ          0.254972         -2.8982         5.73312
LJ           5.73384        0.586877         3.72693
LJ          0.757064         1.48373          1.3336
LJ           2.96644        0.922415         2.44802
LJ           4.60599         2.44576        0.666236
LJ           1.33188         4.78229        -5.40277
LJ           5.32537         5.08077        -1.97358
LJ          -1.88066        -1.66519        -3.99229
LJ          -3.63523         4.22875        -1.48199
LJ           3.65914         6.06594       -0.624031
LJ          -3.98747         -6.3025        -5.38536
LJ           3.64882         3.90353        -1.41268
LJ           6.38818        -5.74055         2.09968
LJ           3.45475         4.68137         5.05045
LJ           6.32636         3.66001        -5.25029
LJ           4.52941         3.38196        -6.32165
LJ         -0.524409        -2.73783         4.33225
LJ           4.25033      -0.0620374         4.08132
LJ           5.94148         4.20773         5.52764
LJ          0.617205           3.143         1.68118
LJ           -2.9719         5.36216        -6.10859
LJ           4.41793         4.47818       -0.946102
LJ           4.84212        -6.35899         3.67379
LJ         -0.501986         4.26261         2.33872
LJ           0.92011        0.762213      -0.0315373
LJ          -2.54599        -1.42472        -2.16143
LJ           -5.2139         4.01575          -4.071
LJ           5.34959         5.21515         -6.2076
LJ          -5.85226         5.18201         1.97608
LJ          0.828609        -5.70062         4.86649
LJ         -0.460563         1.82656         3.43499
LJ           -3.0164          6.3754        -5.32732
LJ           6.20587        -1.04636         6.16669
LJ         -0.315869         6.22349         1.41736
LJ          -3.65158       -0.781593        -2.47635
LJ           3.58642         2.85065         3.95064
LJ           2.31712         5.23816          2.7112
LJ           2.49574         3.45599         5.62368
LJ           1.54194        0.513477         5.52025
LJ          -1.62279         3.46278        -2.52772
LJ         -0.854931         1.54604        -3.80082
LJ            5.5748         0.96628        -5.21568
LJ          0.109987         1.69968        -6.10793
LJ           2.11161         2.62306       -0.186317
LJ          -1.15061         0.78673        -2.64606
LJ            1.2898         1.08751         -1.3943
LJ           5.08747        -1.56535         1.38338
LJ           0.55739        -4.44952         1.49048
LJ           4.50642         5.11519         2.93873
LJ           2.35154        -1.86966         6.14065
LJ           5.61051       0.0268228         5.27819
LJ           3.45429         -1.0076        -2.48192
LJ          -1.69537      -0.0811002         5.61112
LJ           6.04529         3.14062        -6.36931
LJ           4.99672         3.72009         3.41628
LJ          -6.25852        -5.59388        -2.24568
LJ          -2.08826        -3.23026         -1.7438
LJ           2.91563        -2.58839         -3.8181
LJ          -6.19353       -0.730418         4.92171
LJ          0.476393         2.16416        -2.12184
LJ          -4.42808        -4.12683         3.70183
LJ           -6.3126         2.96077         1.98913
LJ            2.7364         5.74833        -1.54722
LJ          -1.40603        -6.33373         1.48629
LJ          -3.93699         4.70738        -4.97788
LJ          -1.34554         1.26289          5.9092
LJ           5.98414         1.67607       0.0568501
LJ          -5.31089          6.2449         3.72057
LJ           6.08912       -0.820151        0.668686
LJ           1.34595        -4.27072         2.09294
LJ         -0.985614       -0.593703         5.36437
LJ          -3.24894         4.66885        -3.57723
LJ           5.01719       -0.831479        -3.19337
LJ           4.51002        -5.16382          1.8473
LJ          -4.19388        -2.37134        0.484491
LJ          -3.36081        -2.01968        -2.21437
LJ         -0.273657         5.33825        -2.74296
LJ           5.56399        0.318326        0.792869
LJ          -1.49679        -1.69844         5.78393
LJ          -1.00221        -2.77198        -3.16017
