108
#Comment!
LJ           3.62931         3.08124         2.19106
LJ          -2.54156         1.18533         3.80456
LJ         -0.617471        -1.53761       -0.793702
LJ         0.0309739         1.16761         5.74313
LJ          -1.95671          4.9324         -1.0696
LJ           -4.0234         6.44255         3.96458
LJ          -1.27304        -2.75436        -2.08413
LJ           3.01483        -6.37761         2.38013
LJ          -1.75108         5.18458         5.50762
LJ           2.86988        -2.68493        -5.73815
LJ           3.84001          5.9974         4.72202
LJ           5.92614         3.26724         1.29401
LJ         -0.403303         3.27594         -6.1902
LJ          0.830442       -0.702705         5.22793
LJ           2.07109        -4.93068        -1.86921
LJ          -5.31986         -4.3457        -2.94334
LJ          -0.96341         -2.5386       -0.721866
LJ           6.02311          1.3825         4.28898
LJ           1.05819        0.196889        -3.02274
LJ           2.21925        0.974732         1.19924
LJ          -2.49845        -4.05823         3.22413
LJ          -1.47386        -2.55732         5.57261
LJ          -4.27569       -0.886978         1.76072
LJ          0.179613         4.60452        0.177318
LJ           3.05056         -3.8676        -1.36302
LJ          -3.74996         1.66599        -4.98428
LJ          -4.92266         5.29456        -4.20045
LJ           -4.8382         3.85061         3.97055
LJ           4.64857         1.28667        -2.46726
LJ          -4.86209       -0.510323         -1.5762
LJ           4.00299        -3.69072         6.29397
LJ           5.24623         3.63772          2.6465
LJ           5.96146         2.07915         6.15515
LJ          0.525849        -2.42827        -2.83094
LJ           5.79833         1.85109        -4.34674
LJ           1.12474        -1.38414        -3.23904
LJ           6.32476         3.64493        -1.83133
LJ           4.52153        -3.65532         3.38431
LJ         -0.897208        -5.07478         2.15372
LJ          -5.82438        -3.09122         5.60804
LJ          0.525086      0.00882018       -0.154504
LJ        -0.0483699         0.81359         4.65978
LJ          -1.17272        -1.13465          5.0428
LJ           1.76448         5.23017         3.33823
LJ           5.72856        -4.80613         4.87925
LJ           4.87891        -3.86529         2.16533
LJ           2.58598         4.61045         1.53386
LJ          -3.35758        -5.05281         6.10104
LJ           5.09771        0.491232       -0.831918
LJ         -0.913276         2.97385         5.75309
LJ           -3.6707         5.53864         4.81245
LJ           3.49965         3.14234        0.255938
LJ          0.268649         -5.0533        -1.12063
LJ           5.51661        -2.49415        -2.68906
LJ          -4.27667         6.10011         2.81055
LJ          -2.55919       -0.932025         -3.3506
LJ          -3.45891         4.38997         1.90635
LJ           6.45681         4.89679      -0.0652913
LJ           3.48454        -5.60691         4.76724
LJ          -4.23732        -3.63882         2.40404
LJ           1.18902        -1.11533         2.25338
LJ          -4.79579         -3.2892          1.3394
LJ           5.93829        -3.49568         3.75325
LJ          -4.18992         2.81922         2.40243
LJ           2.89256         2.31303         -5.6883
LJ            2.2694        -4.61021         2.27593
LJ           5.48454         4.69049        -1.85785
LJ          -5.95828         2.46081         5.85084
LJ           3.22324      -0.0945172        -2.02242
LJ         -0.915911         4.83797         1.04553
LJ           4.61255          4.4987        0.948259
LJ           6.29004         2.06466        -1.42922
LJ           2.24428         6.28034       -0.830698
LJ          -4.43838        -5.80944         5.95423
LJ         -0.795932         1.64242         4.03742
LJ          -3.18334        0.487289        -5.27869
LJ          -2.77254         1.67715        -4.44206
LJ          -4.66824         5.22212         2.23447
LJ           3.66195        -3.75369        -0.53179
LJ          -5.35124         6.29163         5.08066
LJ           1.98793        -5.81136        0.413487
LJ          -4.99221        -6.02697          3.4393
LJ          -4.14075         3.99417        -3.28758
LJ          -1.91566         3.74536         6.24496
LJ           3.79549         4.33473        0.442549
LJ          -1.21326         3.22568         3.57576
LJ           2.06228         3.10504         1.20482
LJ          -1.62563        -6.38082        -1.94685
LJ           4.39218        -6.35368        -2.44417
LJ          -2.88396         3.87456        -5.51268
LJ           -4.7195         3.54899         5.53403
LJ           3.67516       -0.733172         2.53738
LJ           -4.8094         5.11612         5.58781
LJ           2.87322         -1.3187         5.10618
LJ          -5.72813         2.23199        -1.95501
LJ           6.32695         2.68456         3.18114
LJ          -1.58504        -6.34509        -6.22061
LJ           4.30147         4.57004         5.36514
LJ          -3.67161        -1.78226         2.75316
LJ           5.22913        -6.23396         4.81668
LJ           3.81078        -1.87895       -0.199035
LJ          -5.10891         5.30044        -2.30848
LJ           3.61423         1.40291         3.79488
LJ         0.0654184        -0.71374         2.55087
LJ          -4.21547        -1.96043         3.88161
LJ          -5.91446        -2.49178        -3.86279
LJ           3.90158         6.04942         2.48272
LJ          -5.21271        -3.02949        -6.14658
