108
#Comment!
LJ          -2.18664         1.36522        -2.29763
LJ         -0.518068         1.85798        -1.55006
LJ           6.17538        -5.52627         3.50058
LJ           4.72719         2.12252        0.653993
LJ           -3.9803         4.13302       -0.469514
LJ          -3.30692         6.16868       -0.158336
LJ           2.96447        -3.64593        -1.08591
LJ          -6.01131        0.918442           1.655
LJ          0.625715        -5.60821         4.65228
LJ           1.23067        -5.97221        -2.84435
LJ          -3.85043        0.706888        -1.95496
LJ           4.54255         3.48256         2.88071
LJ          -2.34764         4.45313        0.699242
LJ          -2.23248        -1.11606        -4.16007
LJ          -1.59254        -1.10538        -5.81707
LJ          -2.79167        -1.59838         6.43955
LJ          -3.27621        0.710059        -6.29305
LJ          -2.48137         3.79082       -0.514929
LJ          -4.24025       -0.756435         3.77728
LJ          -5.34427       -0.145426         2.10392
LJ           4.46565        -4.20758         3.55218
LJ         -0.631234         -4.0339        -3.28652
LJ          -2.14643          5.5387        0.313983
LJ          -5.93073        -2.79071        -4.02798
LJ           -4.9923         2.29196        0.953573
LJ         -0.374517        -2.87001          3.2666
LJ          -2.78955       -0.209545        -5.88214
LJ          -3.53917        -5.02808         4.49377
LJ           6.44941         2.69314         2.00579
LJ          -1.02096         2.23748        -2.97893
LJ         -0.348555        -1.40872        -5.27318
LJ          -4.69686        0.335872         3.26544
LJ          -3.78553        -1.06028       -0.944688
LJ          -4.98399         1.25061        -5.55385
LJ          -2.77572        -4.36712        -5.27207
LJ          -2.66134        0.840031         3.50641
LJ          0.781121        -1.38724       -0.563823
LJ          -1.33101         1.76528          5.2131
LJ          -1.79654         3.00942        0.133951
LJ           2.22889        -5.77023        -5.19044
LJ           3.72116         4.22308         4.00082
LJ          -2.88547        -1.91752         2.70627
LJ            3.5773        -2.33501        -3.36454
LJ           4.86204         4.04229       -0.364227
LJ          -3.00576         4.61225        -3.43939
LJ          -2.06043         5.46869         -1.5545
LJ           2.74361        -1.34843         -4.5179
LJ           2.66309         3.10673         5.92593
LJ           6.44153         3.43511        -2.33069
LJ         -0.735517         5.33467         -5.0914
LJ           4.73307        -2.88586        -5.61101
LJ           2.33049        -5.93297        -0.61898
LJ          -3.77905        -1.45114        -1.94182
LJ           1.53877       -0.648698        -2.20787
LJ          -2.09259         -5.7346         2.54391
LJ          -2.37231         4.05842        -6.33829
LJ         -0.124374        -1.77138        -2.62444
LJ          0.724284         -4.2803         1.32947
LJ          0.264598          2.3219         3.39415
LJ           1.38243        -3.25663        -1.80266
LJ           5.49825         3.07352         5.42648
LJ         -0.559912        0.405792        -5.80409
LJ           2.29178         0.44125         4.82653
LJ           5.87432         4.05309         1.57415
LJ         -0.341764        -2.30926          1.8736
LJ          -4.49481        -3.91261         1.62066
LJ           5.57527         2.18359        -3.78115
LJ          0.678058        -2.71781          3.9353
LJ          0.386443         5.33532        -1.72841
LJ            3.1315        -5.71181         4.29823
LJ          0.315504        -5.10192        -5.28388
LJ           5.86457        0.157249         2.09371
LJ          -2.60566        -3.86206         2.99472
LJ          -3.09689        -2.43283        -6.02657
LJ          -3.28706        0.685143        -2.99238
LJ          0.241588        -2.91804        -4.97065
LJ           5.38417        -3.02999         4.27572
LJ          -1.99863         1.09418         2.74985
LJ           2.71764        -3.50763         4.66865
LJ         -0.101247         3.98281         2.27645
LJ          -3.45406        0.666389        0.533866
LJ          -2.66178         1.96513        -5.41324
LJ          -5.04948        -5.42196          5.7311
LJ          0.332187         1.11137        -2.19676
LJ          -6.23302        -4.56861        -6.43358
LJ          -5.96359         4.45385        -6.11099
LJ          -4.72454           6.372         3.89981
LJ          -3.54409         2.01327        -3.02896
LJ           5.56835        -6.22548         2.82061
LJ          -3.73976         5.13794        0.500304
LJ          -5.43199       -0.696244         4.32856
LJ           5.44657        0.899518         3.77692
LJ             -2.48         4.89144         2.29954
LJ           6.24507        -2.59607        -5.14773
LJ           5.49659         3.18992         2.00426
LJ           6.35335        -4.29866        -4.73567
LJ           4.93322        -1.30935        -2.40843
LJ          0.559239         4.37432        -1.07062
LJ           2.48181        -4.68784         2.86922
LJ           4.99564        -4.43956        -5.70053
LJ          -2.17533         6.24551         -4.2764
LJ          -6.00662        -2.03629         4.43144
LJ          -2.93078         4.10175         5.32416
LJ          -4.03293       -0.559805        -2.61554
LJ          -2.63679          1.8445        -3.70952
LJ           -6.2814        -4.39613         4.90313
LJ          -1.45832         5.49635         1.81331
LJ           1.98612         6.46005         4.69095
