108
#Comment!
LJ          -2.83588        -1.70084         1.34927
LJ          -2.39045         2.86547        -4.49233
LJ           5.39177        -4.92196         5.23926
LJ           6.40473       -0.927107        0.379292
LJ          -6.10873        -6.30528       -0.868645
LJ          -5.55547        -4.56895       -0.998548
LJ           1.35883        -1.37551        0.301424
LJ          -5.32527        -2.66886         -1.8351
LJ         -0.452577         4.50213         4.32673
LJ           2.21865         3.51297         2.13133
LJ          -3.74394       -0.805893       -0.841614
LJ           -5.5916        -2.90029          5.3411
LJ          -1.74221         3.02479         1.04516
LJ          -5.00473         2.47498        -4.38323
LJ          -1.75232        -2.69598        -6.12329
LJ          -2.08332        -4.38085        -5.50055
LJ          -2.75589        -1.03607         2.25995
LJ          -2.74973         3.80519        0.501637
LJ          -2.30555         0.71454         5.97117
LJ           5.39086        -1.21154         1.34645
LJ           4.27184         -2.7883        0.938707
LJ          -2.13957         -4.3461        -4.33119
LJ         -0.823203          2.3231         1.96065
LJ          -5.60018        -3.61487        -6.40701
LJ           5.96167         2.49072         2.61915
LJ           1.16365         5.97895         2.07895
LJ          -1.96644         1.72727        -6.28529
LJ          -5.55438          4.9075         3.06822
LJ          -4.24081        0.641325         1.69947
LJ           4.32827         4.03028        -1.93021
LJ          -3.89787        -2.59757         4.97086
LJ          -4.40537         2.14729           4.246
LJ           4.78114        -4.29394        0.997347
LJ          -4.48693         1.04401         3.81582
LJ          -2.13972          6.1771        -1.42276
LJ          -4.89843         5.12501       0.0375572
LJ          -1.06106        -2.74509        0.220299
LJ          -2.38421         2.98354         3.13316
LJ          -3.76246         4.26623        0.798697
LJ            2.1255         4.44252         4.89021
LJ           2.13774         5.26572        -5.58959
LJ          0.365061       0.0644763         2.32443
LJ           5.06865        -5.22762         -5.6661
LJ           6.35279        -3.17406        -3.11991
LJ          -2.41903         4.06956        -1.39738
LJ          0.760826        -5.73121        -5.19192
LJ           2.85422        -1.96158       -0.387263
LJ           2.73943         5.99494        -4.76868
LJ           3.45032         3.22255       -0.245849
LJ          -1.89538       -0.789684         -1.3928
LJ           5.70265        -1.13513        -3.24525
LJ           3.38421         2.47056        -3.47462
LJ          -5.59721         -2.1781        -4.69451
LJ          0.843921        0.490593        -6.39262
LJ          0.949593         6.23339        -5.56263
LJ           3.60364         2.65225        0.803324
LJ           2.63665       -0.892918        0.450024
LJ           3.07629        -2.44815        -4.14417
LJ           2.76204         5.56864         5.13327
LJ           3.67627        -2.78983        0.215968
LJ           2.54172         2.26144         -5.1748
LJ         -0.141026         1.54258        -0.33355
LJ          0.767448         3.12335         1.90191
LJ            5.8088         4.29976         1.84509
LJ           2.25077        -3.02418        -5.13186
LJ           4.81152         6.17701         2.58962
LJ           3.98728        -3.54784        -4.81096
LJ           1.05686        -5.12899        0.377706
LJ           3.61539         3.99576        -4.30801
LJ           5.54593        -6.40366         1.01051
LJ          0.156937        -2.12229         3.73779
LJ           5.25917        -1.94397        -2.25279
LJ          -4.59967        -3.19227         4.40699
LJ          -3.23594          5.8827        -2.19868
LJ          -3.06267        -1.97624        0.206166
LJ         0.0356836        -5.03526        -5.95496
LJ          -2.04998         5.08492         1.32792
LJ          -3.17987         1.16821        -2.00493
LJ          0.487174         -5.9598         4.91741
LJ          -4.28562         4.67399         2.53793
LJ          -3.05797         2.29892        0.638314
LJ           1.18269         4.33735         5.44754
LJ          -5.92431         5.67467         4.10279
LJ          -4.02091         1.66983        -4.49993
LJ          -5.54596        -3.08832         4.04981
LJ           5.61299        -5.24768        -4.81561
LJ          -1.53948          5.6972         2.41794
LJ          -3.57315         3.23884        0.124678
LJ            5.9354         5.52514         1.08498
LJ           5.49727         4.73746         2.92978
LJ           6.17361        -2.30685         2.52555
LJ           1.76693         3.77043         3.28489
LJ          -1.72248        -3.72363         5.64373
LJ          -5.93565        0.914584         -3.1054
LJ          -2.36276          2.6178       -0.949023
LJ           6.02185        -4.99243       -0.634387
LJ           -4.1259        -3.00893          2.3438
LJ           4.80123         5.81142         -3.9406
LJ           1.96748        -0.70748         5.50273
LJ            5.6569       -0.295952        -2.14895
LJ           6.18819         5.25473        -1.59258
LJ          -2.27278        0.864189         3.11061
LJ          -5.97997        0.040998         -6.3164
LJ          -2.69362        -3.51954         5.78991
LJ          -5.72525         1.71293        -3.69239
LJ          -4.40949        -4.35219         5.87108
LJ          0.842789         -3.1595         3.63826
LJ           5.38117        -3.86365        -6.32803
