108
#Comment!
LJ          -4.98691        0.364627         1.11183
LJ           5.26628       -0.796031         3.42884
LJ          -4.22321         -2.8047         5.85812
LJ          0.312896         3.07104         5.89818
LJ          -3.92481         4.44707         2.83655
LJ        -0.0140554        -6.15763        -3.73204
LJ           5.46624         5.29959         3.27976
LJ          -5.59446         3.39231         5.55822
LJ           3.76673       -0.289204         4.13301
LJ          -6.43967        -3.00471         5.98898
LJ         -0.504333         6.06259        -4.86785
LJ          -3.65937       -0.413461        -4.20629
LJ          -2.46248         3.96797         3.04861
LJ           2.47419         5.30999        -3.87608
LJ          0.940006         6.14506        0.142401
LJ          -2.10833         4.99696          2.3207
LJ           2.56472        -2.58592         2.30338
LJ           1.31815        -1.91444         0.31635
LJ           -6.1907        -4.11945         3.49332
LJ          -4.11701         4.38558        0.274633
LJ           1.34205         -3.8241        -5.05774
LJ           5.47952        -1.57044         5.32243
LJ           5.03312         2.37084         3.61201
LJ          -5.35303         5.24533         4.61343
LJ          -6.15684        -3.47268         4.91951
LJ           4.54802         5.93996        -5.92024
LJ            5.1448       -0.968381         -4.4264
LJ           3.15983       -0.559278         1.54196
LJ          -5.02261         2.92547         -3.2946
LJ          -1.39233         6.02855         1.29384
LJ           1.37262         1.75059        -3.04863
LJ         -0.665882       -0.357607         1.70263
LJ           1.45656         4.25517         1.01674
LJ         -0.675727         1.17498         3.14556
LJ          -4.01823        -2.53912        -1.87982
LJ          0.923216         3.59061        -4.87046
LJ          -4.31245         2.32382         3.00857
LJ           2.46689         1.27214       -0.226568
LJ           4.11272         6.04155        -1.05053
LJ          -3.95069        -1.18194        -1.16174
LJ           5.15379       -0.354024        -2.08981
LJ           2.78176        -6.10161         1.08891
LJ          -1.97378        0.616708         3.32634
LJ          -6.25942        -1.84779         3.63417
LJ            1.2277         3.74828          4.5167
LJ           1.53408         2.64331        -2.97229
LJ          -2.09916        -4.10397        0.100003
LJ           1.03549        -1.13939         1.75005
LJ          -1.06701         6.06722        -2.37261
LJ          -1.06415        0.649867         1.95288
LJ          0.700932        -4.49762         -5.9213
LJ          -2.71514        0.130882           6.047
LJ           4.85611      -0.0417593       -0.141764
LJ           3.62036        -3.43231        -2.27456
LJ           4.65439         4.77369        -5.89828
LJ          -4.41957         3.34034         6.38755
LJ           4.74225         5.57782          -2.543
LJ          0.322274        -0.12848       -0.727274
LJ           3.65994        -3.46149          1.4427
LJ         -0.762028        -5.69486        -4.60719
LJ           2.04802       -0.280899         2.48921
LJ          -2.65447         5.46448          4.6853
LJ           3.82841        -2.55617       -0.914941
LJ          -6.19602          4.2084        -2.74004
LJ           5.71078        -2.08688        -5.78604
LJ          -6.45967       0.0574107          3.5001
LJ        -0.0997173       -0.473952         4.01825
LJ          -4.53969        -3.97493        -1.53364
LJ           2.06349         5.97302          5.6883
LJ           1.57168        -2.68691         4.54126
LJ          -3.85504         2.68052       -0.781521
LJ           6.40271         3.64802        -4.44467
LJ          0.437669        -4.90309        -2.08329
LJ         -0.200271        -0.72835        -4.44772
LJ          -5.68949        -4.56229        -1.75592
LJ          -2.28257         3.65911       -0.557266
LJ           4.74116        -5.00848         5.27484
LJ         -0.691354         5.61459        -3.80861
LJ          0.420665       -0.564576        -2.15801
LJ          -3.89674          4.9489         4.15781
LJ          0.573356        -3.60973         5.11504
LJ          -6.32313        0.611815         5.46917
LJ           1.27205        -3.83191        -3.01833
LJ           4.47925        0.358276         4.30924
LJ           5.83214         2.50056         4.34614
LJ          -4.54851        -2.21305        -4.73617
LJ           4.92139         5.22786        0.636552
LJ           1.81149         -4.4415         1.24581
LJ           2.04736         3.89169         2.58154
LJ           3.51946         3.76272         4.68621
LJ           -3.8422        -1.36487        -2.88147
LJ          -4.96571         5.54437        -2.25022
LJ          -4.79412         4.28402        -2.90331
LJ          -0.78374        -2.27154        -4.79714
LJ           5.56399         6.12152          1.2021
LJ            2.0205        -5.00986        -5.60608
LJ           2.35179        -6.28398       -0.152795
LJ          -3.09088         2.42683         2.47342
LJ           3.60388         4.46951        -1.91622
LJ          -6.30707       -0.417864         5.83108
LJ            3.7094         5.79464        -4.82206
LJ            5.1809         2.86088        0.678404
LJ           4.19907         2.88378         5.08063
LJ          0.970511        -1.69374        -2.18871
LJ         -0.562844         3.32655        0.841921
LJ          -6.38466        -5.30786     -0.00600437
LJ           3.57474         6.07022        0.294122
LJ        0.00774907        -5.10512         5.60133
