108
#Comment!
LJ           1.66258         6.33103          2.2391
LJ          0.795678          1.4933         3.94103
LJ           5.56955         1.42547        -2.62513
LJ           2.47929        -2.36112         5.23175
LJ          -3.09864         4.83357        0.406239
LJ           5.80679        -3.44671         2.82816
LJ          -5.17891         1.68962        -3.85789
LJ           3.82858         -4.2291         6.24284
LJ           4.07386        -5.05191        -2.09428
LJ           2.57532         2.25142          6.0439
LJ          -4.25898         3.23082         -1.7474
LJ         -0.153246        -1.09074         2.44285
LJ          0.817022        -4.87153        -1.52779
LJ          -1.50897        -1.99119        -3.52159
LJ           1.68326        -3.37763         3.59719
LJ           -4.1338        -3.46059        -4.55952
LJ          -0.82857        -5.84181        -6.29935
LJ           4.59087         2.27373        0.881244
LJ           2.85898         5.69381         5.78182
LJ          0.081928         1.16609        0.960369
LJ         -0.801197        -4.31393        -3.60367
LJ         -0.221711       -0.379701        -1.77445
LJ          -5.67509         -3.6307          3.6202
LJ           5.16256         2.64595        -2.26772
LJ           4.56286       -0.217727         1.64434
LJ         -0.576036         2.09291        -3.84197
LJ          -5.03776        0.391736        -2.11532
LJ          -5.15391         4.04098        -6.21572
LJ          -3.70249        -2.66793         6.44827
LJ          -2.97268         1.86528        -1.97098
LJ         -0.707865        0.409812        -5.97728
LJ          -2.27332        -4.58367        -4.01058
LJ           3.88094        0.920855        -2.43522
LJ           5.96702       -0.835993        -2.76003
LJ           3.48216         2.51176         5.26469
LJ           5.28497       -0.329744        -2.14673
LJ           -5.0875        -3.53672         6.03038
LJ           3.77662        -2.84665        -4.05759
LJ          -1.74253        -2.30104        -1.89962
LJ           1.34479        -5.26442        -3.97824
LJ           3.34272         6.15226        -4.15412
LJ          -2.31278        0.805895         2.97456
LJ          -1.80415       -0.685059       -0.145026
LJ          -4.85773        -2.76647        0.626943
LJ         -0.973056        -2.90376        -2.42019
LJ           5.47894       -0.670967        -5.52803
LJ            2.7066         2.76137         4.47658
LJ            6.1931         2.47122        -3.45349
LJ         -0.511139        -6.44759        -5.13095
LJ           5.96018        -6.10297        -5.35698
LJ           4.83604        -2.99078         6.29732
LJ           -5.1556        -1.40774         2.14567
LJ           0.94448        -6.12344         -3.3537
LJ           6.28777         5.93191        -4.83671
LJ          -6.36648         4.36644         6.45764
LJ          -4.86019        -2.75933        -2.55008
LJ          -4.98851         5.62625        0.993169
LJ           3.55716         2.01738        -5.65422
LJ          -5.46015         5.44191        -5.29811
LJ           1.40626         5.48474         3.10117
LJ         -0.618135        0.981684        -2.28035
LJ          -3.41535        0.814057        -4.25055
LJ          -6.07234        -4.73342        0.902153
LJ           2.84522        -3.14746         3.70015
LJ          -3.65788       -0.749758       -0.232663
LJ             3.562         3.72025        0.954248
LJ          -6.09105        -5.35839        -3.69741
LJ           6.32372        -3.86486        0.737801
LJ           2.18886         2.26558        -5.90754
LJ          -1.47847         2.44595        -2.59089
LJ           3.97682         3.25613        -3.37788
LJ           2.92888        -3.34808       -0.129309
LJ           4.15032         -5.3168        -5.49035
LJ          -3.47472        -4.49439        -3.97084
LJ          -1.80935         -5.6212         2.18631
LJ            2.0962        0.237599          1.3865
LJ          -1.66531         5.29246        -2.13042
LJ          -6.31317           5.824        0.498653
LJ          -4.32992        -2.52575        -3.29169
LJ          -5.80572         4.07622        -4.05027
LJ           -3.3327        -4.21265        -1.66131
LJ          -6.27233        -3.16719        -3.52957
LJ         -0.143913         2.84527        -4.99527
LJ         -0.684443         1.28947       -0.967035
LJ          -5.78808         5.10051         3.11131
LJ          -3.47592         2.30335          -3.902
LJ           5.37057        -2.61199         2.41307
LJ           2.82341         2.14155       -0.843098
LJ           3.44338         1.97035        -2.13158
LJ           -4.7456        -3.77554         1.68046
LJ          -4.52596         1.38902        -5.54766
LJ           -2.8855       -0.245123        -2.15476
LJ          -6.12018         4.03477        -5.29725
LJ           6.21777        -1.79801         6.31085
LJ          -4.03426        -5.86232        -1.99697
LJ           4.30933        -5.43409         4.40007
LJ           1.02063         5.73614         4.08921
LJ           -4.1271         3.16579        -5.81415
LJ          -3.93033         2.82952        0.600253
LJ          0.658898        -5.56839         2.18874
LJ          -2.31649         5.95342        -1.27261
LJ           1.80215        -6.14308         5.01251
LJ           3.87074         -6.1703         1.83699
LJ         -0.555446        0.647222         5.20594
LJ          -4.44457       0.0235314      -0.0396129
LJ           3.20027         1.40319         4.84313
LJ           4.62089        -2.68542          3.6022
LJ           3.18171         4.39514        -6.24827
