108
#Comment!
LJ          -4.27179        -3.88207        -6.34034
LJ          -2.24564         6.14481         -5.1206
LJ          -5.82107        -5.58371          6.1852
LJ        -0.0404364        -5.97035        -3.68842
LJ           1.10315          4.1864          6.1888
LJ           5.67295         -3.9248         4.53768
LJ          -5.64424        -5.58162        -2.72412
LJ          0.842303        -5.09541        -2.79021
LJ          -5.14308         5.31154         5.84056
LJ          0.019117         -3.8053        -3.23762
LJ           2.33551         2.16003         5.49781
LJ           1.89798         5.27376        -4.37539
LJ           3.53803        -3.33669        -4.93192
LJ          -2.07376         1.71209         6.27494
LJ           -5.3787         4.44809        -1.41616
LJ          -5.43795         -4.0701        -2.05047
LJ          -1.58555        0.568039        -4.74725
LJ           1.95703        -4.50321         4.90663
LJ          -1.48348         2.91319        -5.01091
LJ           2.31332        -2.05714        -3.50203
LJ           3.72755        -2.27953        -5.35359
LJ           2.02205         4.39467        -3.78413
LJ           4.12271        -4.02084       -0.710027
LJ           -4.0182        -2.25237        -2.29952
LJ           5.40182         2.25407        -4.34724
LJ            5.0586         5.10291         5.44456
LJ          -5.40153         1.37582        -4.95971
LJ          -4.80489          3.9021        -4.32341
LJ          -2.65694       0.0118118        -3.57084
LJ          -5.08198         3.80994         5.39524
LJ          -4.22999         5.50955        -5.70569
LJ          -4.58239         1.85042        -4.73139
LJ           2.45653         1.70008         -1.0163
LJ          0.648678         1.32491        -5.73822
LJ          0.765359         3.29598        -4.77723
LJ           1.07812        -6.33113         -2.3598
LJ          -3.89574         3.50763       -0.167618
LJ          -4.47041         5.82456        -2.34006
LJ          -4.94181          3.1506       -0.454861
LJ          -5.33316        -3.60337        0.989236
LJ        -0.0471218        -5.14064        0.666747
LJ          0.562212        -1.88482        -4.97245
LJ          -4.48338         1.67022        -1.99115
LJ          -1.24902        -6.01464        -1.31302
LJ          -2.65016         -4.8005        -2.91966
LJ          -1.86403         -1.9051       -0.771262
LJ           2.67106        -3.83297        -2.80321
LJ           2.60916        -5.25637        0.384233
LJ           3.59511         4.80308         -1.9479
LJ          -3.30448         1.79109        -5.39481
LJ           4.56907        -2.23934        -1.46559
LJ           6.11719       -0.210018        -4.98294
LJ         -0.480457        -2.91395         2.99243
LJ         -0.957557         3.26268        -1.99866
LJ         0.0747081        -1.80897       -0.514718
LJ          0.891109        -4.90831         2.35899
LJ           2.24265        -4.40607        -4.25476
LJ           5.15625         1.68603        -3.63217
LJ          -1.43603        -2.02889        -1.65363
LJ           1.82559       -0.949532       -0.582036
LJ          -6.20654         5.99241        -2.37256
LJ          -4.13574         3.94534        -3.32409
LJ            0.9184         4.60097        0.194207
LJ          -4.81805        -1.10406        0.225536
LJ          -2.90135       -0.240162         2.14213
LJ         -0.155861         2.32571        -4.49183
LJ         -0.880127        0.120262        -1.79582
LJ           1.86468         5.28626        -3.36971
LJ        -0.0689161         4.00905        -3.66525
LJ          0.549702         4.32966        -1.24103
LJ         -0.200867         3.14822         1.80482
LJ           2.70411         5.53934         1.74471
LJ           -5.5005        -5.97216         1.88263
LJ          -5.14628        -3.42426         5.32288
LJ          -5.71746       -0.983828         3.54994
LJ          -5.37723         4.35538         1.85822
LJ           1.49296         3.66481         4.94034
LJ         -0.552532        -4.36655         4.35546
LJ           2.75813        0.999546         4.95426
LJ           1.61066        -4.64821         3.39822
LJ         -0.982783         4.68305        0.638212
LJ            5.2613        -5.30116         1.00912
LJ           4.28373        -5.58561         3.32872
LJ           3.56793         5.08278         5.77625
LJ           5.72678         -3.2948         2.48626
LJ           5.47699       -0.221898         1.45918
LJ          -4.77072         1.49604          4.3754
LJ           5.56495        0.974956         1.19743
LJ          -6.26209         1.61553         1.19923
LJ          -2.69868        -5.25396         3.98385
LJ           1.75785        -2.51026         3.62612
LJ           1.24387         -2.6225        -4.22603
LJ           3.89034         -3.8962        0.469199
LJ           4.20889         1.32593         2.11862
LJ          -5.65735         3.14063         2.96882
LJ           4.30486        -2.26512          1.4506
LJ           5.72556         2.17703        0.437105
LJ          -4.68782          6.3626         2.97002
LJ          -3.52777         2.88785         5.26543
LJ         -0.315993         2.02887         0.96349
LJ          -1.74484         1.64496         2.04884
LJ        -0.0766047         4.51953          1.1791
LJ         -0.414946         3.75161         -5.6627
LJ          -1.18071         1.86841         -5.1241
LJ           3.32555         4.46956         3.11721
LJ           6.14026         1.43786         2.03441
LJ        -0.0929295         1.82159         3.23103
LJ             5.584       -0.410088         5.82287
