108
#Comment!
LJ          -4.55724         1.50568         4.93218
LJ          -1.11623         3.55178        -4.23734
LJ          -4.49311         5.68159         4.60195
LJ           3.29206        -5.28431        -1.63001
LJ           2.15326         1.09436         3.26107
LJ          -2.15684        -4.09451         2.24337
LJ            4.7801        -2.61148       -0.870693
LJ           2.91676         0.95069        -3.34056
LJ          -2.01718         2.94654         3.41939
LJ           -4.4333        -3.72925        0.894089
LJ           2.01675        -2.71919         1.75978
LJ         -0.946887         4.55089         5.97301
LJ       -0.00806374        -6.39204         4.58881
LJ          0.475642         3.28533        -6.33807
LJ          -3.64026        -5.31674         1.17561
LJ          -4.93487        -6.27344        -2.71481
LJ           -2.0807        0.189102        -2.09256
LJ           4.36797         5.16831         2.49876
LJ          0.164684         3.21764        -4.64079
LJ           5.00341         -1.8379        -2.85869
LJ           4.30538        -3.06758         -2.8774
LJ          -1.63088         5.98479        -2.94989
LJ          -6.35137          4.4201        0.288046
LJ           -3.4128        -2.72581        0.154213
LJ           5.67341         4.84629        -5.15003
LJ           2.52666         4.96661         3.57312
LJ            4.2504        -3.68894         5.67322
LJ           4.61853         4.67633         5.13404
LJ          -1.74043       -0.253402         -1.1638
LJ           3.29853         4.54503         1.72277
LJ          -4.34588         3.50078         6.07347
LJ           6.21373         1.35035        -5.13884
LJ          0.313324         4.22796         2.26628
LJ          -3.50313       -0.639561        -3.53293
LJ           1.87031         3.75125         5.51602
LJ           2.06395         -5.9074        -1.00816
LJ          -4.58081       0.0734216        0.796096
LJ          -3.55132         4.46156       -0.575238
LJ          -2.00612        -1.26732       -0.541114
LJ          -5.76357       -0.448942        0.507342
LJ           2.30763        -4.13543         4.40503
LJ           1.37548      -0.0890929         5.53098
LJ          -5.92962         4.67959        -2.89576
LJ          -1.70376         5.76822           3.491
LJ           6.15686        -1.16067        -2.26464
LJ            3.3188         0.62208          2.3058
LJ           2.63395        -2.25478           5.795
LJ           1.48266        -3.99367        0.385131
LJ           1.25064        -1.79977        -2.53153
LJ           6.01717         1.65075         4.18446
LJ           6.07658        -5.02541         3.99945
LJ           4.30795       -0.520974        -5.97033
LJ          -2.81836        0.935891         1.11997
LJ          0.498819         1.76288        0.679489
LJ           2.17119        -3.18718        -1.36945
LJ         -0.428077        -4.83413         3.67249
LJ           2.45296        -3.26286         6.45736
LJ           5.18381      -0.0747351       -0.172491
LJ          0.667371        -5.31606        -5.01574
LJ          -1.09287        -0.98106       -0.743775
LJ          -3.57254        -4.94717        -3.62469
LJ           4.31759          5.2832        -1.90199
LJ          -2.60759         5.25056        -1.68207
LJ          -5.87421        -4.06165         0.85115
LJ          -3.74949        -2.91686         6.21138
LJ           2.06513        0.837504        -1.37322
LJ          0.685194       -0.114701        -3.11986
LJ            2.2617        -1.92049        -2.17111
LJ          -2.61876         5.36184        -2.73458
LJ           -2.7293        -6.33892        -1.86269
LJ         -0.867443         2.93666        -1.99412
LJ           5.05467        -6.46231       -0.470749
LJ          -4.61798        -5.40472         1.68338
LJ          -5.32232        -2.07289        -3.88627
LJ          -4.75542         2.94519         2.82188
LJ          -5.96988          4.2209        -1.54284
LJ           4.89263         1.08695        -5.22591
LJ          -1.60628       -0.585156         -6.2223
LJ          -2.06397       -0.730136         4.75201
LJ            2.9994        -3.37337         2.15885
LJ          -3.51554         2.97043        0.355116
LJ           5.28984        -5.79114        0.789641
LJ           5.84837         6.09006         2.30368
LJ           2.77035         3.51885         -5.7839
LJ           5.72095        -3.47311          3.1689
LJ           4.95347         2.02799        -1.10296
LJ          -2.89091         2.10585         2.45734
LJ           4.91288         1.92999        0.783787
LJ          -6.20468          1.9613         1.01868
LJ          -5.75823         4.94124           5.356
LJ           4.37667        -4.46296         4.10431
LJ          0.363412        -3.69282        -3.85482
LJ           4.25568        -3.73984         3.38953
LJ              5.18         2.98593         1.68782
LJ         -0.697223          6.3498       -0.304818
LJ           3.44976        -5.48889       -0.451615
LJ           2.73593         5.11204        -2.60065
LJ          -4.21496        -6.04664         5.02868
LJ          0.656359         4.36123         5.78253
LJ           2.92315          2.5051       -0.905232
LJ          -1.55236         1.95926         1.65967
LJ          -4.92177         3.60994         1.62553
LJ           3.36495         2.83209        -1.91749
LJ          -2.80704       0.0802937        -6.38527
LJ           3.58352         4.97736         5.26095
LJ           6.19847        -1.44168         3.33084
LJ          -4.10162        0.220058         3.46533
LJ           5.97622        -3.94172         6.32442
