108
#Comment!
LJ          -4.46736         5.30784         3.52734
LJ          -1.22334         3.52782        -4.51307
LJ          -3.31742          4.8487         3.91765
LJ           5.32533        -4.23882       -0.340742
LJ           3.30691         -1.0298         1.21667
LJ           1.23708        -4.23137        0.723899
LJ           3.27079       -0.309073        0.415175
LJ           5.15593         3.71574        -4.93024
LJ           -1.7709         2.95502         3.79206
LJ           6.01346        -0.36442         1.55031
LJ         0.0120804        -2.47881         0.58139
LJ          -2.04094         4.55791         4.52984
LJ          -1.33708         5.31912         5.01284
LJ           2.52507          4.1012        -5.52787
LJ          -1.41351        -5.46014         2.74083
LJ          -1.72497         5.36665        -5.97013
LJ            -2.609       -0.187432       -0.530522
LJ          -5.89469          3.8539         1.70759
LJ          0.624599         2.41567        -5.42401
LJ           5.10222       -0.967654         -1.8959
LJ           4.54534        -3.51113       -0.849219
LJ          -3.76497        -5.21232        -3.40616
LJ          -5.09049         3.07035         1.13385
LJ          -4.17941         -3.3363         2.15535
LJ           5.54289         5.72906          5.3688
LJ           2.94634         2.92726         1.37446
LJ           1.20689         5.93139         5.35463
LJ           5.52582         3.88942         2.93388
LJ           -2.2111        0.803479       -0.100184
LJ        -0.0766802         4.72259       -0.546102
LJ           -4.2048         1.35387         5.63355
LJ          -5.95234          1.6074        -5.95855
LJ         -0.366733         6.22193         3.12899
LJ          -4.48696       -0.660527        -1.23496
LJ          0.636611         3.39376         2.94306
LJ           4.48266        -4.50102       -0.969456
LJ          -4.77851        -2.06437        0.305271
LJ          -2.85144          3.9009        0.685498
LJ          -2.55518        -4.84692        0.039011
LJ          -6.21896         1.83524        0.580995
LJ           3.66129        -3.87589        -5.46011
LJ           1.96062         1.07333         3.89083
LJ           5.63131        -6.13831        -4.26815
LJ          -3.43404         3.73019         6.37609
LJ           3.02585        0.654961         -2.2312
LJ           2.70711        0.477209         2.76352
LJ           2.57846        -2.06426         3.36657
LJ           1.52955          -4.765         -1.9045
LJ          0.914494         1.93304        -1.79568
LJ          -5.35017         3.34615         3.14873
LJ          -5.85387         5.72334        -6.00733
LJ           3.61674        -1.83966        -5.54986
LJ           -5.9518        -0.70112        -2.32365
LJ           0.89591        0.582393         2.60976
LJ           2.41243        -4.44748        -1.36697
LJ          -3.31941        -2.15733         2.88771
LJ           2.89478        -2.06319         4.35781
LJ           5.30198        -1.00315         2.28687
LJ           3.08047         5.09158         5.85789
LJ          0.604329        -1.63938       -0.762503
LJ          -1.47388        -2.52217         -4.3729
LJ          0.851759         4.14226        -1.60528
LJ           6.42176         5.90428       -0.539027
LJ          -6.34842        -5.92982         1.87636
LJ          -4.45266        -4.53344        -4.03392
LJ           2.66556          1.1152         1.98182
LJ            1.8388         2.67067        -3.81188
LJ           2.40529         1.98985        -1.53982
LJ          -5.11846          5.5593        -3.12711
LJ          -3.81744        -5.82997        -2.44037
LJ         -0.675664         2.31875       -0.601304
LJ           5.63621        -6.44694       -0.949069
LJ          -5.27566        -4.89083         2.19648
LJ          -5.27638        -2.57246        -1.79762
LJ          -4.11229         5.70549         1.88978
LJ          -4.61826         3.69604        -4.40035
LJ           4.31294        0.445785        -2.36284
LJ          -3.37883         2.07926         -5.0988
LJ           2.52686        -3.06381         5.08809
LJ           4.68459        -4.54667         1.95308
LJ          -5.15783          2.3534        0.424277
LJ           3.79242         6.35562         1.96965
LJ           6.23551         4.80927         1.55173
LJ           2.96214         3.09952        -5.83995
LJ           -6.4105        -2.85239         2.66637
LJ           5.74794         0.16149        -1.47124
LJ          0.201165         3.62211       -0.838827
LJ          -6.35786         2.52701         1.37154
LJ            6.1151         1.28641         1.55403
LJ           4.59046         4.93996          4.9534
LJ            4.9274        -5.75133         4.14039
LJ         -0.341421        -5.72822        -5.55967
LJ           4.95938          -2.887         5.26617
LJ           5.72672         3.81371        0.933566
LJ           2.97926        -4.52331        -2.66697
LJ           3.91572         6.45042        0.957887
LJ          0.754845        -5.74289        -4.73138
LJ          -4.61208         5.70758        -6.37886
LJ         0.0994799         4.74636         6.32813
LJ           3.63693         2.36864        0.107351
LJ          0.698357         3.05961        0.481513
LJ           4.41323         2.76078         2.95978
LJ           5.33981         5.52016        -2.96084
LJ          -2.94177         -1.2043         6.23974
LJ           4.45148         3.73543        -5.62776
LJ           6.33066        -3.63338          4.7013
LJ           5.73086       -0.563148         4.19078
LJ           5.29392        -4.96281        -5.13245
