108
#Comment!
LJ          -4.32794        -1.63696         6.00205
LJ          -2.29157         4.56144         6.43241
LJ          -5.49985        -6.15065         5.59007
LJ           1.11551        -5.84826        -3.06587
LJ           1.44329         2.96168         4.92164
LJ          -5.13987         -3.9773         3.61899
LJ           6.11264        -4.55962        -2.08726
LJ           1.54697        -2.43613        -2.87793
LJ          -2.89084         4.34968         5.36923
LJ          -1.80495        -4.10817        -1.46772
LJ           2.35164    -0.000705924         3.96552
LJ          0.508995         4.79682        -5.17732
LJ            2.5108        -5.16644         6.04528
LJ          -1.17764         2.53141         6.33531
LJ           -4.6885         5.99806       -0.361327
LJ          -6.00006        -5.07058        -1.21426
LJ          -1.74129        0.582774        -3.64229
LJ            2.7304        -5.88175         3.70082
LJ          -0.67321         3.41196         -4.9728
LJ           3.41153        -1.82703        -3.08828
LJ           4.16227        -2.60007        -4.46594
LJ          0.579958         4.99075        -3.14012
LJ           4.84908         -6.0631       -0.471833
LJ          -2.91393        -2.36384        -1.45074
LJ           5.63902         3.63099        -4.06501
LJ           3.35421         5.73761         4.99878
LJ           6.32299       -0.691556        -5.72159
LJ          -6.32322         4.23487         -5.7678
LJ          -2.38107       -0.252829        -2.41495
LJ           5.99496          4.1115         3.90614
LJ          -4.38898         4.87755        -6.20852
LJ          -5.33055         1.65065        -4.92689
LJ           1.75163         2.97257        0.416601
LJ          -1.12172        0.532711        -5.13581
LJ           1.27558         3.20705        -5.90683
LJ          0.729146         6.05729        -1.35943
LJ          -4.11888         2.30046        0.402243
LJ          -4.11905         4.99595         -1.8682
LJ          -3.81765         1.13757       -0.610919
LJ          -5.76062        -2.23818         1.10376
LJ           1.13793        -4.67865         1.62186
LJ          0.889841        -1.12735        -5.99845
LJ            -5.171         3.71508        -2.63234
LJ          -1.42019        -6.43959        0.692712
LJ          -4.34783        -3.31928        -2.67123
LJ          0.190703       -0.842959          0.6385
LJ           2.63953        -3.16886        -4.63448
LJ           1.72258        -4.70827        0.771673
LJ           2.32664        -5.58071        -1.90155
LJ          -4.89914         1.80725         6.25827
LJ           5.16339        -3.46183        0.727623
LJ           5.30272         0.29555        -6.41455
LJ          -1.28183        -1.13195         2.30286
LJ         -0.122596         2.93759       -0.983327
LJ          0.986664         -2.4669       -0.857431
LJ           1.26598        -5.87169         2.69892
LJ           2.24304        -4.04897        -5.11597
LJ           5.15621        0.906066         -2.2419
LJ         -0.932629        -2.42497        -2.80718
LJ          0.736906         -0.8213       -0.738922
LJ          -5.44098         5.79895         -2.9312
LJ          -5.61291         4.87693        -2.91771
LJ         0.0761731         5.38637       -0.974263
LJ          -5.00454        -2.37863        0.168741
LJ          -3.24205        -1.35419         3.79737
LJ           1.01535         1.62703        -3.41627
LJ         -0.419384        -1.56004        -2.75342
LJ           2.45185        -5.11609        -3.21608
LJ          -1.30694         4.52122        -3.31408
LJ         -0.880542         5.18014        -1.39398
LJ         -0.862209         2.55126        0.831342
LJ           3.68103        -6.26279        0.961526
LJ           -5.1521        -5.72437         1.79108
LJ          -5.29876        -2.96029        -6.04846
LJ          -5.34845        0.618548         3.17372
LJ           -5.9111         3.72935        0.784871
LJ           3.00551         2.32588         6.04001
LJ         -0.975044        -2.83021         5.32157
LJ           6.22515        0.568901         5.35204
LJ           2.28619        -3.94813         2.79519
LJ           -2.1589         3.99097        0.375057
LJ           5.61159        -5.57933        0.446999
LJ           4.99591        -6.09794         2.89349
LJ           3.36918         4.46126         6.37199
LJ           5.45666        -3.52475          3.1121
LJ           5.71164         1.25536        0.835334
LJ          -4.25433         1.32082         4.19486
LJ           4.61801         1.76744        0.563223
LJ           6.43587         2.09554        0.721341
LJ          -3.69713         6.16041         4.85987
LJ           3.24956        -4.27641          4.1024
LJ          0.643993        -2.45771        -3.53172
LJ           4.23775        -3.94499         1.46979
LJ           4.97401         1.60625          1.8867
LJ          -3.65638         4.53998         1.70464
LJ           3.67226        -3.35262         0.52602
LJ           4.60761         3.28101       -0.697608
LJ           -4.4333        -6.21717         3.63414
LJ          -1.83793         3.44816         5.83408
LJ           1.00199         1.92583        0.130069
LJ          -1.89493         2.53677         1.97914
LJ          -1.69106         3.76725         1.53244
LJ          0.947296         3.37468        -4.03199
LJ          -1.79316         1.06147        -5.71855
LJ           3.72306         5.94557         4.01596
LJ           6.14468        0.206705         2.68758
LJ          -1.55509         1.32789         2.99835
LJ           5.74532        -1.99871         5.92458
