108
#Comment!
LJ           3.40052        0.167139        0.183218
LJ           2.15055        0.341671      -0.0519616
LJ           -3.4309       0.0850968       -0.368401
LJ          -5.53884        -5.24766       -0.758302
LJ           -1.6895        -5.21232         2.69828
LJ           3.47909         -2.8569       -0.200964
LJ          -3.13711        -1.27769        -4.47718
LJ          -5.14989        -5.01458        -2.26745
LJ           2.90919         1.13815        -4.47441
LJ          -5.73227           3.077        -1.24543
LJ          -2.32802         1.06483          6.3603
LJ          -5.51897        -6.25409         3.48137
LJ         -0.224477         4.48527         2.30157
LJ           4.81206        -3.51423         0.84031
LJ          0.746208        -3.20141        -1.92678
LJ         -0.600566        -6.30167         2.80974
LJ          -4.77965        -2.09398        -4.96171
LJ          -1.70619         3.03912         2.28729
LJ           5.56971    -0.000864347       -0.667333
LJ          -1.77907        0.391619        -4.31331
LJ           5.20116        -3.23777        -5.87143
LJ           5.40851        -5.02954         -3.7273
LJ            5.0056          1.2693        -3.96652
LJ          -3.99841         1.17594        0.634788
LJ           1.74481        -4.64134        -3.77181
LJ          0.527296          3.1029        -2.61328
LJ          -4.37424         2.47835         3.05603
LJ          -1.93011         3.64211         5.16092
LJ          -4.70951         6.09035          2.6649
LJ           4.02978         5.88263         1.13474
LJ          -3.97444         1.47948        -5.66682
LJ          -5.49216         2.52618          5.0994
LJ          -2.19596        -3.72389        -3.35641
LJ           4.30556        0.314264        0.881743
LJ           5.04094        -1.61076        -4.74061
LJ           6.25693         3.83354         5.05944
LJ        -0.0920938         4.56016        -2.83586
LJ          -1.08864         4.37422        -2.80069
LJ           -4.8141        -3.63715       -0.993687
LJ          -4.98211         3.50646        -1.70565
LJ           4.56696         1.53081          4.2035
LJ           3.60507         2.97025        0.577854
LJ          -3.88452       -0.371693        -6.20433
LJ           2.88538        -3.21244         -5.3477
LJ            2.2763       -0.145425         4.04776
LJ          -4.32255         2.73183        -3.02902
LJ           4.17661        -2.47969        -5.14262
LJ           4.21684         1.49176         1.25027
LJ          -2.09274         5.33601         3.47578
LJ          -3.76592         2.25457        -6.38146
LJ          -3.00662         0.44759        -3.11371
LJ          -1.93304         2.35846      -0.0379985
LJ           6.09594         1.34851        -5.12641
LJ          -2.96415         4.82257        0.402623
LJ           5.84708          -0.271        -3.18063
LJ          0.661342        -1.11865         1.98749
LJ           2.49122         6.44378        -1.04603
LJ          -6.34353       -0.348952        0.578441
LJ           3.63721       -0.876503        -4.57332
LJ           4.94268         3.92057         2.94613
LJ         0.0363145      -0.0810413         1.96508
LJ          -2.80956         5.07379       -0.655313
LJ          -4.09523         3.98915        -4.36828
LJ           6.26032       -0.543212        -5.79695
LJ           4.85802         5.38621        -2.05824
LJ          -3.59895        -5.05413        -5.89325
LJ          -1.32552         5.37394       0.0538822
LJ          -1.07191         1.89095      -0.0486919
LJ          -5.24406          4.6757          1.6943
LJ          -1.45008        -5.23069        -4.23568
LJ         -0.227328         1.86775        -4.13593
LJ           0.93596        -5.92212       -0.104173
LJ          -5.24597         6.29453        -5.29643
LJ           2.94213        -4.81564        -3.73997
LJ          -2.32006         4.67793         1.53117
LJ          -4.83475         2.24751       -0.831894
LJ         -0.646728        -0.22877          1.2759
LJ           1.81789        -3.74417       -0.640796
LJ          -2.22279        -4.30971          2.5895
LJ           5.46919          1.8924        -1.94445
LJ          -4.20669        -3.03779         5.69209
LJ          -5.01676        -5.67613         5.01222
LJ           2.24285        -3.62786         2.97245
LJ         0.0816346        -1.06241         3.98003
LJ           2.07785        0.828482        -6.12893
LJ          -2.50336         3.09389        -3.13725
LJ           6.12672        -1.19562         3.48769
LJ          0.729402        -2.40645         3.52687
LJ           1.73896         5.43076       -0.971537
LJ           2.65812        -5.38473      -0.0306427
LJ          -5.41841        -5.02917        -3.38766
LJ          -2.84082        -2.05895        -1.14383
LJ          -3.23896         1.35304        -2.14947
LJ          -5.37056         1.61809         2.43613
LJ         -0.726713        0.731717         -5.0965
LJ           1.79082         1.33526        -3.69561
LJ           5.51399          3.7664       0.0133858
LJ           1.61291         1.49334         4.59454
LJ          0.630283          -2.226        0.303429
LJ           4.92023         -4.0866        -1.31216
LJ          -6.22667       -0.666995         -3.4275
LJ           1.47824        -5.90276        -4.99289
LJ           1.52331        -5.61567        -1.48156
LJ          -1.99342       -0.341634         1.88724
LJ          -4.69675         1.24279         -2.4385
LJ          -4.06806         1.68257         1.52234
LJ          -6.34207         3.37764        -5.37382
LJ          -4.89306       -0.151271        -3.68398
