108
#Comment!
LJ           -4.0737        -6.22607         2.97059
LJ          -1.60615         3.71087        -4.87726
LJ          -4.41446         5.34941           3.497
LJ           5.96422        -3.60967      -0.0348168
LJ           3.76787        -1.98181        0.778619
LJ           2.59483        -4.20267       0.0905192
LJ           2.71323        0.860999        0.597688
LJ          -6.29277          4.8976         -4.8356
LJ          -1.69339         3.12037         4.01522
LJ           4.82944        0.619653         1.47528
LJ          -0.74053        -2.17281        0.306412
LJ          -1.98046         3.64929         4.95865
LJ          -1.26372         5.10519         4.81357
LJ           3.55134         3.97935        -5.24961
LJ         -0.965463        -5.16689         3.45577
LJ           -1.3423         5.55953            6.21
LJ           -2.7137       -0.108719        0.286859
LJ            -5.374         3.96018         1.58671
LJ         0.0147107         1.96522         -5.6901
LJ           4.65001       -0.631871        -1.27553
LJ            4.8717        -3.35643         0.22913
LJ          -3.43401        -5.11964        -3.44241
LJ          -4.22608         2.35422         1.47321
LJ          -4.50059        -3.53744         2.98524
LJ           5.48848         5.81564          4.4305
LJ            2.7052         2.13582        0.860897
LJ         -0.136356         4.54539         5.51373
LJ           6.01042          3.4763           1.814
LJ          -2.54015        0.998525        0.108283
LJ          -1.79857         4.56467       -0.884793
LJ          -4.16359         0.50677         5.44139
LJ          -5.50529         1.74779        -6.30969
LJ          0.323021        -5.92273         2.73205
LJ          -4.45708       -0.419997        -0.23403
LJ        -0.0651291         3.08671         1.76773
LJ           5.55986         -4.8646       -0.952591
LJ          -4.31607        -2.65754       -0.386479
LJ          -2.60795         3.67363         1.18181
LJ          -2.79706         -6.2676        0.289619
LJ           5.39918         2.14713        0.905156
LJ           3.69991        -5.13851        -4.61041
LJ           2.20617         1.28937         2.98115
LJ           5.36717        -6.07568        -4.55823
LJ          -4.36525         2.48324        -5.78367
LJ           1.76545         1.42897        -2.16206
LJ           1.79173       -0.651942         3.68996
LJ           2.51711        -2.06743         2.45162
LJ           1.68403         -5.1522        -2.92965
LJ           1.02053         3.15953         -1.6779
LJ          -4.13407         4.18264         2.54285
LJ          -5.30349         4.30656        -5.19466
LJ           3.56073       -0.963325        -5.12457
LJ           5.96745        -1.44358        -3.78608
LJ           1.04534        0.359126          3.3605
LJ           2.07264        -4.89599        -1.67547
LJ          -4.53484         -1.1741          2.4981
LJ           2.94946        -1.83421         3.69047
LJ           5.21489        -1.38269         3.38647
LJ           3.76173         4.32954         6.02871
LJ           1.26336        -1.96161       -0.676529
LJ         -0.650659        -1.56811        -4.67832
LJ          0.494288         3.82188         -3.7625
LJ           5.44853          5.6691        0.319382
LJ           6.39834         6.31506         2.28433
LJ          -5.73009        -4.07807        -3.97145
LJ           2.77933         1.91533          2.3842
LJ           2.28079         3.94589        -4.20896
LJ           2.39077         3.44708        -1.32863
LJ          -6.17096         5.57472         -3.3758
LJ          -4.50579        -6.12627        -1.74857
LJ         -0.468497         2.15982         0.59724
LJ           5.24619        -5.83312        -1.54235
LJ          -5.50714         -4.6907         2.40228
LJ          -4.67749         -3.2292        -1.10098
LJ          -3.93265        -6.17409         1.63382
LJ          -4.34207          4.1631        -5.33214
LJ            3.7021        0.654017        -1.17526
LJ          -3.94941         2.66286        -4.62922
LJ           4.64054          -3.722         5.05959
LJ           5.36946        -5.06554         1.86168
LJ          -5.20842         2.46013        0.228285
LJ           3.15819         6.00105         2.74511
LJ          -6.30036         4.50548         1.79944
LJ           4.05751         3.63507        -6.31624
LJ          -6.41661        -2.91828         2.64436
LJ            6.0005        -1.05378        -1.65861
LJ          0.485345         3.72277       -0.591048
LJ           -5.5226         2.80004         1.71332
LJ           6.01015         1.75402         1.81256
LJ           4.23144         5.15544         4.06018
LJ           5.19615        -6.07955         3.85552
LJ         -0.388716         6.43845        -6.05839
LJ           4.63692        -2.61101         6.23116
LJ           5.98624         3.50497        0.511588
LJ           4.60368        -3.70985        -3.51283
LJ           4.36001        -6.31103         1.55305
LJ         -0.275799        -5.00199        -5.77402
LJ           -4.6194         5.29182        -5.89986
LJ         0.0333433         3.91483         6.38549
LJ           4.29291         2.15462        0.259185
LJ           1.63559         3.53789       0.0128834
LJ           3.07553         2.46948         3.51605
LJ           5.95832        -6.01523        -3.63193
LJ          -2.92245        -1.67213         6.17439
LJ            4.7298         3.24078        -5.32934
LJ          -6.16671        -4.47593         5.43895
LJ           4.49194       -0.910137         4.39218
LJ           4.78336        -4.19794        -4.37651
