108
#Comment!
LJ          -4.41974        -5.54954        -6.04175
LJ          -2.23231        -5.60323        -4.20769
LJ          -6.00755        -5.17612        -6.31034
LJ         -0.902359        -6.09045        -4.16842
LJ          0.909342         4.94041        -5.87462
LJ           4.11424        -3.87914         5.17221
LJ          -4.64521        -5.28849        -3.07521
LJ         -0.194685         -5.7344        -3.15796
LJ            5.9636         5.88181         6.14791
LJ           1.48582        -3.70107        -4.45339
LJ           1.64726          4.4006        -6.17271
LJ           2.85787         5.63703        -4.30558
LJ           4.19566        -1.91935        -3.66758
LJ          -2.74741         1.28193         6.26859
LJ          -5.77556         3.30872        -2.17094
LJ          -5.06026        -3.46275        -2.77245
LJ          -1.61861        0.142544        -5.55918
LJ           1.33561        -3.44827         5.56203
LJ          -2.08018           2.742        -5.08866
LJ           1.53367        -2.25249        -3.62237
LJ           3.33493        -2.27347        -5.84506
LJ           3.08937         3.21478        -4.51994
LJ           3.84789        -2.81838         -1.9472
LJ          -5.74005        -2.27028        -2.73261
LJ           5.68215         2.19689        -5.77471
LJ           6.36087         4.75166          5.6581
LJ          -5.56966         2.33731        -4.71189
LJ          -4.41019         3.66505        -4.14492
LJ          -2.72012        0.296664        -4.56094
LJ          -3.62692         3.56345         6.44477
LJ          -4.13181         5.90675        -5.53377
LJ          -3.20906         2.58049        -4.09134
LJ           2.93771        0.747714        -2.05843
LJ           1.78532         2.05387        -6.11413
LJ           1.00255         4.29124        -5.16789
LJ           1.94948         5.76442        -2.83517
LJ          -4.18263         4.21137       -0.763322
LJ          -4.77152        -6.21041        -2.44594
LJ           -5.4012         4.87805       -0.357201
LJ          -4.99592        -4.56819        0.860866
LJ         -0.845096        -5.50535       0.0312297
LJ          0.422267        -2.56726        -4.06655
LJ          -3.92731     -0.00757361        -1.41601
LJ         -0.829487        -5.83024        -2.33248
LJ          -1.55437        -5.77271        -3.19682
LJ          -3.63196        -2.60265         -1.1604
LJ           2.56674        -4.34852        -1.71107
LJ           3.29194        -5.63258        0.131358
LJ           4.46747         2.95981        -2.05053
LJ          -2.69456         1.68497        -4.48135
LJ           4.03745        -1.30968        -2.81002
LJ          -6.13367       -0.641784         -3.6636
LJ         -0.406709        -3.73701         4.33783
LJ          -1.70116         2.98072        -2.83975
LJ          -0.66465        -1.24115       -0.374405
LJ          0.251548        -3.96854         2.17649
LJ            2.3675        -4.42541        -3.45055
LJ            4.7462          1.2944        -3.44092
LJ           -0.4484        -1.74831        -1.57316
LJ           2.53395        -1.14032        -0.46473
LJ           6.26569         5.09375        -1.89179
LJ          -2.55673         3.20551        -3.03339
LJ           2.71893         4.33671       -0.219852
LJ          -4.72483       -0.206081        0.327203
LJ          -2.62238        0.614236        0.940994
LJ         -0.354911          3.0734        -3.86102
LJ          -1.25672         1.29243        -1.08827
LJ           1.22007         4.11379        -2.60974
LJ          0.593865         3.57206        -3.38682
LJ           1.67613         4.29694        -1.03942
LJ          0.476428         3.61384         1.32892
LJ           3.06344         4.08225         1.68048
LJ          -5.78905        -6.13228         2.02626
LJ          -4.90281        -3.77697         4.29367
LJ          -6.01647        -2.13347         3.80843
LJ          -4.92194         4.73078         2.79774
LJ          0.330355         4.67952         4.29474
LJ         -0.178151        -5.39678         3.56351
LJ          0.938277        0.659353          4.3526
LJ          0.961259        -5.17667         3.81219
LJ         -0.167247         5.15029        0.848984
LJ           4.92673        -5.03984         1.37154
LJ            3.7556        -5.20349         3.64429
LJ           3.68971         5.44931         5.41103
LJ           5.91174        -3.12554         2.03223
LJ            5.4388       -0.925803         1.73446
LJ          -5.12595         1.67822         4.52416
LJ          -6.40643      -0.0694747         2.18236
LJ          -5.14354        0.692983         1.42882
LJ          -1.97865        -4.15179         3.32036
LJ          0.586204        -1.36399         3.19494
LJ           1.63922        -2.79029        -5.11098
LJ           3.40824        -3.42689        0.848298
LJ           3.77227         1.18959         2.20974
LJ           5.73127         2.17947         3.69303
LJ           4.87709        -1.64674         2.07145
LJ           5.82896         2.02925        0.638562
LJ          -4.83222         6.05828         2.42681
LJ          -4.86442         2.53335         4.95308
LJ          -1.35522         2.27433         1.84606
LJ          -1.56831         1.00857         2.18143
LJ         0.0582167         5.15947         2.14858
LJ         -0.903556         3.85785         6.25596
LJ          -1.26324         1.71445        -5.68449
LJ            3.0139         3.37734          2.5448
LJ           5.46318         2.25668         2.11553
LJ          0.748111          1.7404         4.06691
LJ            5.4744        0.788744         5.79345
