108
#Comment!
LJ          -2.23995        0.180904        -1.03277
LJ          -1.41725         2.14473         -2.6424
LJ           5.74727        -5.46252          4.2345
LJ           5.72955         1.22805        0.651603
LJ          -3.97489         4.56836       -0.904645
LJ           -3.9654        -6.03262       -0.387587
LJ           2.52595        -2.87248       -0.361944
LJ          -5.96892        0.221016        0.789331
LJ           0.68379          6.1287         4.54243
LJ           1.42127         6.13264        -1.12095
LJ          -4.22276          0.6114        -1.65412
LJ           6.20209         4.52793         4.78392
LJ          -2.07444          3.7945         0.53193
LJ          -2.79779         0.09299        -4.27793
LJ          -2.49666        -1.40515        -4.95371
LJ          -2.61078        -2.50491        -6.30852
LJ          -2.73481        0.262584         5.10372
LJ          -2.70005         4.22517       -0.330197
LJ          -3.81264       -0.459196         4.62271
LJ          -6.12205      -0.0727046         1.82872
LJ           4.30954        -4.24741         2.89875
LJ          -1.11071        -3.96681         -3.8386
LJ          -1.53773          4.6966        0.807547
LJ          -5.16839         -3.2918         -4.5185
LJ          -5.07039         1.84313         1.59958
LJ          0.266119        -4.37204         2.94288
LJ          -2.36209        0.321268        -5.95801
LJ          -4.31558        -6.04499         4.20527
LJ          -5.86735         1.34765         2.50301
LJ        -0.0925169         3.79468         -2.6201
LJ          -1.30316        -1.86607        -6.16912
LJ          -4.38617         1.38271         3.48825
LJ          -5.07417        -2.35231       -0.278708
LJ          -4.86593         1.21926         6.30048
LJ          -3.91509        -4.51092        -3.84013
LJ          -4.18849         2.04872         2.02003
LJ          0.376017        -2.11741       0.0275676
LJ          -1.62969         2.10484         4.57653
LJ          -2.77625         3.10894      -0.0508085
LJ           1.78565        -6.40608        -5.96974
LJ           3.20589         4.55858         4.95588
LJ          -1.85622        -1.30356          2.5769
LJ           2.87147        -3.24837        -4.61923
LJ           5.23888         5.84414        -1.26425
LJ          -3.36197         4.39937        -2.05536
LJ         -0.628403         4.98857        -2.51379
LJ            2.8498         -1.4317        -3.20969
LJ           2.69882         4.02502        -6.45603
LJ           5.51315         3.31851        -1.60818
LJ          -1.04353        -5.65895         -3.7061
LJ           4.73298        -2.66857          -4.955
LJ           3.09266          5.4595        -1.59801
LJ          -3.59292        -1.73694        -3.33777
LJ           1.41006       -0.213551        -3.52714
LJ          -1.16462        -6.28141         3.84983
LJ         -0.580225         3.67758         4.64876
LJ          0.742163        -1.42448        -1.80256
LJ           1.27815        -3.90324       -0.397055
LJ           1.04239         3.73679         4.08095
LJ            2.1999        -3.14211        -1.36276
LJ            4.6216         2.98151         6.35665
LJ          -0.10115       -0.453038        -5.70021
LJ           1.59381         1.15924         3.87643
LJ           5.45206         4.64798         1.53611
LJ         0.0333032        -1.53106         5.34479
LJ          -5.58714        -4.64865         1.82586
LJ            5.0024        0.501764        -4.18449
LJ          0.666893        -2.99457         2.46391
LJ           1.41464         4.57852        -3.07037
LJ           4.03409         -5.1564         3.21078
LJ          0.262649        -4.22606         6.39351
LJ           5.98176       -0.250431         1.15315
LJ          -3.25317        -3.74978         3.61047
LJ          -3.81436        -3.61552        -4.75237
LJ          -2.90825     -0.00958915        -2.10047
LJ           1.49951        -3.29282        -5.06544
LJ            6.0305        -4.57683         3.56981
LJ          -2.16458        0.808183         1.21905
LJ           4.35728        -5.02246          4.3059
LJ          -1.65591         3.72843         2.63713
LJ          -3.48869         1.35998        0.582749
LJ          -1.45666         2.69397        -6.03638
LJ          -5.29906        -5.96956         5.17583
LJ         -0.945627         1.15844        -2.89329
LJ           6.39251        -3.49842         6.31327
LJ           6.34803          5.3038         6.30869
LJ          -3.77786         6.18634         3.46249
LJ          -3.28653         2.09368         -1.7107
LJ           5.81292         6.40015         2.25517
LJ           6.01783         3.67249         1.20887
LJ          -5.85917       -0.322284         2.85481
LJ            4.3374         1.78882         3.59039
LJ          -2.10024         6.31394         3.52336
LJ          -5.61491        -2.30533        -4.62444
LJ           5.10804         3.38207         1.06365
LJ          -5.60483        -4.34858        -3.84053
LJ           6.09877        -1.67962        -0.98162
LJ           1.71187          4.8951        -1.74469
LJ           2.31539        -3.42319           3.687
LJ            5.8245        -3.14925         -4.8696
LJ          -3.60126         5.98047        -3.45388
LJ           -5.0594        -1.07997         3.86813
LJ          -5.77378         4.13289          5.1266
LJ          -4.37235        -1.51101         -4.1405
LJ          -3.61346         1.89562        -3.76081
LJ           -6.2704        -4.48913          5.2942
LJ         -0.952221        -5.90892         2.46773
LJ           3.96989        -5.44747         5.55684
