108
#Comment!
LJ           0.47228        -4.32687         5.04228
LJ           2.11259        -5.04258         4.38149
LJ           1.95792        -6.46094         4.75062
LJ           4.36264         4.68886         1.64956
LJ           0.81497       -0.117786        -1.59888
LJ           5.12704         1.36251        -3.33079
LJ          -3.42611         1.69529        -5.21444
LJ          -5.79644        -4.95904       0.0620472
LJ          -3.72634        -4.22308         5.07039
LJ         -0.637882         5.52065         2.48115
LJ           3.86432         4.00969        -1.96723
LJ          -1.69717        -0.33474        -4.60414
LJ          -5.29584          4.6807        -2.50974
LJ          -4.42063       -0.321782         4.14082
LJ           3.84469        -3.47806        -2.72249
LJ          -2.69201        -1.04205        -1.73182
LJ          -2.55699      -0.0241863         6.20365
LJ          -5.12341        -6.34429        -6.39954
LJ           6.38191         3.76216         -6.1941
LJ          -2.21148         6.24409        -6.03777
LJ          -6.09303        -4.39186        -2.09852
LJ           2.60777        -1.68291        -6.44916
LJ          -4.14814         4.25698       -0.777874
LJ          -5.85026         -4.5636         4.25594
LJ           6.07573        -5.24701        -3.84023
LJ         -0.983746        -6.28193         3.01257
LJ          -5.56476        -4.87898         3.31413
LJ           4.92275         4.37328         3.78443
LJ          -4.36275         3.27438        -1.66485
LJ          -2.52852       -0.921202         3.41997
LJ           5.57406         4.50454        -0.62779
LJ             -2.09         1.86102         3.34212
LJ           3.85173       -0.150729        -1.77604
LJ           2.67758         3.11894         -3.2253
LJ           1.88761         5.07368        -3.43608
LJ         -0.192727        -5.74649        0.853847
LJ           5.13295         5.17001        -5.84468
LJ          0.637316        -2.61808        -3.01781
LJ          -4.47623         3.83571        -6.26335
LJ           1.83391        -1.51605        -1.26158
LJ           5.79525        -5.48879       -0.211976
LJ          -1.35529         5.32438         3.82139
LJ          -3.94226         3.55449         5.29097
LJ           2.65416         3.43915         3.57069
LJ          -2.06881        -2.07321         2.12894
LJ           5.82251         2.21675        -4.85715
LJ           2.58833        -0.42151        -4.04303
LJ          -5.31955       -0.697335          3.3144
LJ           4.95384         -6.2521        -1.50468
LJ         -0.457214        -3.34906          2.1074
LJ          -6.34081        -2.94481        -3.81903
LJ          -2.72605         4.70467         3.55774
LJ           2.68749         -2.6247        -5.97368
LJ          -2.18084         2.98372         5.76633
LJ          -6.23667        -6.22142         6.13269
LJ          -1.48616         5.53671         5.65542
LJ            6.0307        -5.33718         1.03486
LJ           2.06221       -0.748283        -5.52248
LJ           0.60756         3.47082        -2.61697
LJ           1.35172        -5.82309        -4.87456
LJ          -4.31976        -1.71347        -1.84976
LJ           2.42612        -3.31655        -5.20947
LJ          -3.83844       -0.495085        -2.27695
LJ          -6.39359        -2.60142         1.49297
LJ          -4.76089        -5.10038         4.05253
LJ           1.35262         2.58697         1.25789
LJ           3.52005         2.15767         3.87085
LJ        -0.0631137         4.17512        0.928641
LJ            4.4843         2.08335         5.97751
LJ           2.49498         1.66751         2.15588
LJ           3.25718        0.860254         5.91824
LJ            3.7381         4.55514         5.74866
LJ           1.52493         2.16404         -3.0121
LJ          -1.40899        -5.58819        -5.56794
LJ          0.808765        -4.66407         2.15277
LJ           1.09331        -4.78269        -5.28228
LJ           2.18792         2.34878         4.88941
LJ           2.61721        -6.32623         2.78195
LJ          -6.40831       -0.304415        -2.54153
LJ          -5.21555         4.30973        -4.19726
LJ           4.12198        -1.17853       -0.645209
LJ          -4.71143         1.40531         4.05012
LJ         0.0496384         3.04032         2.07557
LJ          -5.92914        -1.57815        -2.34967
LJ          -4.50965         2.85888        0.453416
LJ          -1.55924        0.668028        -3.32569
LJ           6.36161        -5.84551         4.36872
LJ            2.8381        -4.37039        -4.19501
LJ           4.26695        -4.29647        0.830544
LJ          0.263947       -0.674238       -0.133796
LJ          0.606008         5.87568        -1.54067
LJ         -0.781493        -5.70491        -2.13464
LJ          -5.10353        -6.37783       -0.131256
LJ           4.52548         2.11984         3.44574
LJ           3.34553         1.67089         2.98577
LJ          -5.63561         3.30223        -1.88534
LJ          -6.26456         1.27134        -2.11422
LJ           4.75152         6.42351          1.9282
LJ          -6.28375        -1.63059         4.18203
LJ          -6.15297          3.1978         2.30229
LJ           1.82987         -2.9013       -0.187979
LJ           4.32946         2.27334         4.75734
LJ         -0.618325         -2.8407         3.47598
LJ           -3.3639        -1.60426        -2.88265
LJ           2.64602         5.91768         6.45112
LJ          -5.37213         2.32317        -2.55405
LJ           2.39281        0.393309        -6.01768
LJ          -1.69868        -3.61514        -4.62712
