108
#Comment!
LJ          -3.54375         2.61501        -1.16543
LJ           4.08931       -0.602378         2.47588
LJ          -4.50242        -3.26442         4.06129
LJ          0.937037       -0.268594         1.15575
LJ          -6.06867         1.02449        0.889414
LJ          -1.34393         2.54222        -2.04144
LJ           4.17656         6.06787         -5.7527
LJ          -5.13951         2.29299         6.09812
LJ           1.19841       -0.901428         3.93259
LJ           2.68526        -1.58562        -6.39031
LJ          -2.26915         3.30807        -3.84816
LJ          -1.94259         1.99683        -3.28519
LJ          -1.33415         3.90256         3.32665
LJ           5.84266        -5.58031        -4.05873
LJ           2.82598        -4.81682         1.17283
LJ          -3.22272         2.08331         3.67285
LJ           5.95037        -3.84343       -0.814094
LJ          0.270713        -5.82274         5.36807
LJ           5.95747        -3.98494         3.67081
LJ          -5.00453         2.72043      -0.0669364
LJ           4.22115        -4.58092        -5.98588
LJ            3.8566         2.85321        -6.10237
LJ           2.73274       -0.337855        -5.46592
LJ          -1.41679         2.73588        -5.73749
LJ           6.22753         1.04437         1.96578
LJ           1.09275          3.7026         5.56655
LJ          -6.20224       -0.803237        -5.09038
LJ        -0.0644608        -1.57032         3.90177
LJ          -4.72485         2.53317        -2.53526
LJ          0.131751         -4.1366        -3.34451
LJ          0.864269      -0.0549985        -2.65656
LJ          -2.77051       -0.577898         2.32544
LJ         -0.282455         2.70713        0.441889
LJ          -3.45675         3.65281        0.439785
LJ          -5.41719        -5.30551         1.94238
LJ          0.563662        -5.29671        -5.08442
LJ          -2.13357         1.13824         2.05846
LJ           0.70848        -5.78305          2.0044
LJ           2.05444         4.96052       -0.410145
LJ          -6.21015         -2.9588        -2.25752
LJ           5.05983         1.81259        -2.24378
LJ           5.78572        -6.23736         3.27727
LJ           5.68727        -1.22906         2.29289
LJ            6.1823        0.267077         3.48661
LJ         -0.915825         4.16858         4.67406
LJ           4.78352         4.42237      -0.0671629
LJ           0.56134          -3.066          2.8136
LJ           2.56121        -1.23042         3.27376
LJ          -3.37992         4.90213        -3.71141
LJ         0.0112909         1.06786         3.73067
LJ           3.24581        -4.30357         5.95577
LJ          -2.09815        0.947556         3.39228
LJ           6.41387        -1.85136        0.292696
LJ           5.66216       -0.643269        -2.43932
LJ          -5.85937        -6.04608        -2.64406
LJ          -5.25591         3.28108        -3.01296
LJ           2.18754        -4.80373        -2.83501
LJ         -0.832192        -2.85767        -3.96305
LJ          -5.58035        -2.85403         2.33816
LJ         -0.871043         6.04182        -5.08282
LJ          -6.32291          1.9182         3.11734
LJ          -2.63607         3.07898         5.07721
LJ           5.21118        -1.96807        -3.49524
LJ           5.94706        -4.88324       -0.812559
LJ          -4.38713        -2.91657        -5.94499
LJ           2.30299        -1.50499         1.38916
LJ           5.88757        -0.41202        0.518024
LJ          -3.28903         4.73377        0.589749
LJ           -5.8851         5.72621         3.89842
LJ           1.80842         2.10552         4.73472
LJ          -3.23436         4.14722       -0.888871
LJ          -6.16114          2.6624          6.1166
LJ          -0.31444        -4.21653       -0.298246
LJ          -1.07936        -1.69931        -5.00886
LJ          -1.92869         3.89771        -2.80347
LJ          -2.13095        0.651654        -2.93172
LJ           5.13195         4.80609         5.40056
LJ          -1.08312         3.72598        -3.99148
LJ          0.599938         -1.5568        -2.61844
LJ          -5.49457         3.53802          1.9132
LJ          -2.52529        -2.82737         3.93325
LJ          -6.23518         1.79623         -5.1629
LJ         -0.953938        -2.63022         1.18693
LJ           4.01984        0.527144         2.63842
LJ           6.26281         3.61034         4.52686
LJ          -5.37925        0.883962        -5.52193
LJ           5.18921         -5.0298         2.93747
LJ           4.47366        -3.91236         4.03018
LJ           2.60385         5.62008         2.41273
LJ           5.87277         3.86452         3.58655
LJ          -5.77444       -0.640335        -3.53665
LJ          -5.50777        -4.28904        -5.16165
LJ          -6.01538       0.0511527        -2.79002
LJ          0.923282        -3.45414        -4.33746
LJ           5.55652          5.1115        -2.34282
LJ           2.64063        -3.77795         5.14721
LJ           3.55941         3.37037         2.96145
LJ          -4.02461         2.40913        0.463907
LJ           3.04829         5.09797       -0.867838
LJ            5.2292         2.31905        -5.23752
LJ          -4.53397        -6.28099        -5.87483
LJ           5.92794         6.25466        -3.59065
LJ          -1.73937         4.82505        -6.02943
LJ         -0.564567       -0.454146        -0.86586
LJ          0.107092         2.34827        -2.00899
LJ            6.4342         -4.8431         3.39613
LJ           2.22767         4.22888         3.42144
LJ          -3.52408         6.24648         1.89287
