108
#Comment!
LJ             2.301         1.48544         1.70594
LJ           2.56616        0.844874        0.940206
LJ          -2.78243       -0.981903        -3.27797
LJ            5.8555        -4.03555       -0.830529
LJ          -1.91626        -5.91242         1.49529
LJ           6.16108        -3.28608        -4.71286
LJ          -4.43734        0.281513        -3.68709
LJ           5.89958        -4.59631         -2.1486
LJ           4.51141         3.96287        -6.11651
LJ            4.7026         6.10382         1.51548
LJ          -1.79645         1.94392         3.07208
LJ          -5.00914        -4.19046         5.01192
LJ          0.417782         2.22619       0.0108344
LJ           3.20669        -2.75704         4.24848
LJ          -1.72647        -1.69731        -3.89612
LJ          -2.09112        -5.07116          4.7259
LJ          -3.69189        -3.88655         -2.1607
LJ          -4.02344         2.92853          2.2264
LJ           5.37126        -1.13456        -3.03775
LJ          -1.49038        0.730396        -3.05005
LJ          -4.42661        -3.68975         -5.0049
LJ           3.79953          5.1203        -2.95294
LJ            5.9051         5.43364        -6.37324
LJ           -4.3015         2.06834        -1.67748
LJ           2.94099          5.6405        -5.80073
LJ           0.23977         4.13551       -0.467363
LJ          -5.35206        0.040854         4.78356
LJ          -3.33465         3.34683        -5.90742
LJ          -4.74997        -5.54193         4.93529
LJ           0.93927         4.01195         2.13772
LJ          -2.93351         1.24501        -4.83098
LJ          -4.43274         5.23971          6.3405
LJ         -0.654098        -3.10925         5.81574
LJ            3.9448        0.397385       -0.269709
LJ           5.55724        0.979696          -2.477
LJ           5.47603         3.34595         2.99327
LJ           3.12855         2.20466      -0.0323315
LJ            1.4675        0.966074        -2.18994
LJ          -3.20579        -1.01356          1.6115
LJ          -5.02793         3.46402        -2.46963
LJ           5.05364        -1.24478          5.3241
LJ            5.3726         1.58592         0.78339
LJ          -2.69729         0.22759         -4.5423
LJ          -0.18204        -6.03053         4.38888
LJ           1.36395       -0.274896         1.80846
LJ          -5.22716         1.75097        -4.77471
LJ           4.20709         -4.2069         6.24519
LJ           6.02968         1.68921        -1.28516
LJ           -5.5783         4.27537         5.69404
LJ          -2.33307         0.70903         3.88694
LJ           6.19524       -0.994051        -4.60726
LJ          0.902543         5.63368         1.05369
LJ           3.96488         2.60283         -5.1462
LJ          -5.78476         5.03668        -3.68409
LJ           5.90152         2.00428        -4.01933
LJ            1.2692         -3.3259       -0.354259
LJ           2.02777        -4.87978       -0.568016
LJ            4.9798        0.352152         2.57961
LJ           1.38516        0.261361         -5.6075
LJ            4.1055         4.28308         1.39741
LJ            0.9336        -2.09447       -0.190553
LJ          -3.19479         3.61492        -1.67212
LJ          -3.69185         4.11025        -2.90764
LJ           4.09038         -2.1817        -6.38374
LJ           1.86674         3.62595        -1.53445
LJ          0.365432        -3.13455         4.64505
LJ           1.43501         5.92667         3.49553
LJ           1.67423       0.0814962        -1.56881
LJ          -2.80173        -4.93965         3.17357
LJ          -2.66402         4.75791        -3.47726
LJ           1.03494         2.53526        -4.50335
LJ          0.657101        -5.79367       -0.100876
LJ          -6.38521        -5.58468        -3.23727
LJ          -6.36881        -3.88204        -3.07582
LJ          -2.89465         1.23051         1.16974
LJ          -4.90507         1.25788        -1.70121
LJ         -0.888258        -2.47306         1.37616
LJ           4.37087        -4.90033       -0.396928
LJ          -3.35431        -3.40374         5.40753
LJ           6.29434         2.49668         -3.0281
LJ          -4.20533        -3.31839         3.06227
LJ          -4.62895        -4.59864         6.36656
LJ           1.19896        -0.60558         4.62303
LJ          0.473924        -0.34684         6.07776
LJ           3.73445         2.44885        -6.29393
LJ          -3.53372        -1.35771        -2.35805
LJ           5.76042        -3.14628          2.0078
LJ          0.299089        -1.17216          4.8648
LJ           2.91624        -4.55636       0.0212252
LJ           4.96473        -4.56195         2.62205
LJ          -5.16586        -3.33471        -2.71521
LJ          -4.01952        -2.14537        -3.19266
LJ          -5.32697         2.72946        -1.38356
LJ           -5.2009        0.214803         3.23612
LJ         -0.801564         -1.0296        -3.68959
LJ           3.14936       -0.190992        -5.29708
LJ           5.22691         4.13209         2.41004
LJ          0.415901         2.80964         3.30695
LJ          -2.17242        0.622597       -0.721851
LJ           3.32861         -2.4421        -1.49601
LJ          -4.73845        -2.72498        -3.68415
LJ           1.76403        -2.57766        -2.75307
LJ           3.12893        -5.01427       -0.939676
LJ         -0.723402        -1.15265         3.14742
LJ          -4.97388         1.55044        -2.86532
LJ          -1.90258        -2.80707         2.70982
LJ           6.41308        0.742754         6.14928
LJ          -5.99243        0.956995        -3.32878
