108
#Comment!
LJ          -2.58653        -2.08306         6.19092
LJ          -2.82519         6.06927        -5.21572
LJ          -4.36185         3.81395        -3.82719
LJ           5.67031        0.664807      -0.0220374
LJ          0.740119        -3.37707         4.40966
LJ           -4.7667        -2.23237         -3.0677
LJ           -3.8059         5.74246         4.17846
LJ         -0.989297        -3.07187        -5.68747
LJ           6.08262         4.04029        -1.23362
LJ          -3.46981       -0.100477         4.59302
LJ          -4.56685          1.6257       -0.705462
LJ          -1.49325         3.22806         5.93874
LJ           5.31741        -4.90154        -4.31561
LJ          -5.83364         4.35979        0.432835
LJ           3.60297        -6.35821        -6.03645
LJ            2.2918         3.45818        -1.16884
LJ          -3.74134        -1.15126        -4.07806
LJ           -2.0539         3.19958       -0.130077
LJ           2.32411       -0.643978         3.70471
LJ          -2.53605        -5.41218         -5.3821
LJ          -5.43295        -3.41784         2.98047
LJ          -1.20471         5.87935         1.06928
LJ         -0.485823        -6.34591          5.4143
LJ         -0.937251         3.25122         -2.7643
LJ          -5.27766          -5.928         2.24085
LJ           3.06531        -3.80258         1.56913
LJ          -5.62369         3.88061        -2.37631
LJ          -6.35775          1.4387         6.35464
LJ            4.4016        -2.37408       -0.791967
LJ           -4.5671         5.87828         0.01362
LJ          -6.03255         -2.8631         5.96164
LJ          -1.81088          1.6332        -2.86389
LJ          -3.14746       -0.360259         5.99129
LJ           3.02334        -2.70111         1.17566
LJ          -5.40853          4.0165         1.43448
LJ          -1.78398         1.81439         4.05871
LJ          -6.04615       -0.399228         6.31813
LJ           5.93148        -1.13765         0.16303
LJ          -3.61833        -5.67226        -5.31444
LJ           3.90691        -1.15752        -3.22903
LJ         -0.674602        -5.40591         3.24567
LJ          -4.63095        -1.83355         3.16653
LJ           4.22588         4.49065        -1.31986
LJ          0.341173        -5.28205         3.15399
LJ           1.76709        -3.70365        -5.33984
LJ          0.645298        -1.48852         1.26134
LJ           3.85266        -3.14297         1.68683
LJ           6.33639        -5.36452         1.52636
LJ          -1.64646        -2.99888         -1.1282
LJ          -5.30064        -1.20799         6.35055
LJ           4.51925       -0.912519        0.801373
LJ            0.4791         2.25672         2.94155
LJ           2.07307         3.88003         2.93648
LJ         -0.855039        -4.56685         1.32687
LJ          -1.79516         3.42204        -2.24087
LJ           2.98767        -1.33918       -0.719548
LJ          -4.49407         -5.9546         5.39401
LJ         -0.895212         4.44583          6.4044
LJ          -4.04545        -3.53567         6.04822
LJ       -0.00496538        -5.58819        -5.52073
LJ           3.67124       -0.111703         3.76252
LJ          -2.90282        -2.08075        -3.48056
LJ         -0.510038         -3.1083         2.22943
LJ            1.1055        -6.40603        -5.05618
LJ           4.08918        -5.45662        -3.28268
LJ            5.6203         2.82375        -3.16726
LJ          -1.80265         0.34771        -5.46828
LJ           5.92446       -0.407088        -1.93692
LJ           2.56569         4.48766         5.53523
LJ          -5.82748         5.32172        -2.76051
LJ          -4.95572         2.05271        -3.82526
LJ         -0.744306        -1.42545        -2.77672
LJ          -2.80527        0.892581        -2.88697
LJ           2.44599         5.29497         2.49642
LJ          -3.34614        -5.75045        0.502792
LJ           -2.0435       -0.676613          3.8199
LJ          -5.20084       -0.283655          2.3946
LJ           1.39279         3.14627        -2.80974
LJ           1.45085         4.10073         5.33915
LJ           2.89731        -1.02936        0.254792
LJ           3.66143        0.569822         4.58589
LJ           3.52403        -3.81442         -4.4115
LJ          -4.28325        -4.91977         4.74514
LJ          -5.40925         4.22089        -5.74832
LJ           3.50008         3.23659        -4.33018
LJ           5.93607         1.98906        -3.91322
LJ        -0.0718879         1.09533         4.41253
LJ          -4.10374         1.50215         1.80651
LJ          -1.91913        -6.21996        -3.92387
LJ         -0.454799         2.34002         3.59193
LJ         -0.170778         4.84954        -2.81535
LJ           1.33288        -3.45808         1.83849
LJ          -1.37415         1.18354         2.83167
LJ           3.52473        -1.45798         3.50999
LJ           6.15026        0.796469         1.34206
LJ           1.31208         -3.2313        -4.31769
LJ            5.2245        -1.10885          4.4705
LJ         -0.362155       -0.807571        -5.53444
LJ          -1.57376         3.67836         2.62809
LJ          -1.77537         3.08396        -5.84034
LJ           1.34368        0.307496        -3.98943
LJ           1.44459         -3.2063        -2.58135
LJ          0.285279         -3.8685        -2.04851
LJ         -0.741393        -4.34654        -1.67739
LJ          -1.93196         2.21391         5.76373
LJ          -4.81189        -4.80798         5.88761
LJ           3.68012         3.85388         2.34994
LJ         -0.218463         1.14131         5.30518
