108
#Comment!
LJ           3.24141         3.63619         2.15482
LJ          -1.66385         1.59296         3.88188
LJ          0.294002        0.268116        -1.67271
LJ          0.287751       -0.403985        -6.09761
LJ          -2.32695         4.47309        -1.35507
LJ          -4.93124        -5.91406         2.67296
LJ          -2.02185        -5.25906         -3.0262
LJ           2.67203        -5.95731         1.69514
LJ        -0.0435772         5.84972         6.06342
LJ           3.04248        -4.08064        -6.03449
LJ           4.35636          5.3943         6.11649
LJ           4.45361         1.95064      -0.0850736
LJ          0.260684         2.89672        -4.36064
LJ           1.12725        -1.09529         5.42521
LJ            2.1896        -5.31394       -0.273257
LJ          -4.81516        -3.83291        -2.69416
LJ         -0.799798        -3.16434        -1.82783
LJ          -6.02869        0.841776          3.7646
LJ           1.86275         1.32957        -1.08017
LJ           1.24012         1.44353         2.06884
LJ          -2.08587        -3.87864         1.34809
LJ          -3.09059        -1.43948         4.04385
LJ           -4.8932        -1.70125         2.07448
LJ           1.29027         4.30525       -0.196094
LJ           3.35349        -3.29809        -0.66987
LJ          -3.35814         2.86211        -4.36877
LJ          -5.68198         4.10458        -6.45719
LJ          -4.52901         4.05146         4.14781
LJ           2.77341        0.617385        -3.27212
LJ          -4.47564       0.0258593        -1.68614
LJ           3.43132        -2.28747         5.92664
LJ          -5.83816         3.54499         2.46388
LJ           4.84806         3.45481         5.13326
LJ          -1.16603        -1.85514        -3.21397
LJ           4.75123         1.04017         -5.6863
LJ           2.14421        -1.35205        -3.59111
LJ           6.31318         4.72504        -1.96612
LJ           5.61707        -4.29569         4.43672
LJ         -0.730925        -4.65555         1.64232
LJ           -5.1631        -3.36038         5.37013
LJ          0.703179         1.75274       -0.710631
LJ         -0.791641        0.173212         4.54546
LJ          -1.25208       -0.655914         4.12766
LJ           3.57455         4.60472         3.98661
LJ          -6.02942         -4.4282          6.3144
LJ           4.69441        -2.97295         3.58752
LJ           1.83794         6.40584         2.21215
LJ         -0.877504        -6.00123         -5.7335
LJ           4.16164         1.53788        -1.18525
LJ          -1.82505         1.05924        -6.30131
LJ          -4.88757        -6.41868         4.43567
LJ           1.39604         3.06511           1.032
LJ          0.807816        -5.00672        -1.52568
LJ           4.99232        -3.57394        -2.29715
LJ          -5.31619         4.24108         3.10883
LJ          -2.96184        -1.84927        -2.44618
LJ          -3.65293         4.46576         1.57227
LJ           5.87998         4.13363        -1.13732
LJ           3.94332         -5.7692         5.41494
LJ          -3.24492        -3.71065          2.8242
LJ           1.91429       -0.857579         2.75414
LJ          -5.24624        -2.31917         2.82952
LJ          -6.38597         -3.7023         4.38476
LJ          -5.57934         1.41736         2.34183
LJ          0.219012         0.68407        -3.80659
LJ           2.88171        -5.56322         5.47842
LJ            5.7041          5.6448        -2.56319
LJ          -6.20544        0.937818         5.34319
LJ           4.17808        -2.93121         -2.4796
LJ           -1.0266         4.25764        0.185323
LJ           5.54193         5.44561       -0.626355
LJ           5.19853         1.81155       -0.698905
LJ           1.96711        -6.22884        0.565507
LJ          -4.00942        -5.54225        -6.33138
LJ         -0.807629         2.02014         3.52153
LJ          -4.42731        0.264763         4.92503
LJ          -2.49322         2.30406        -3.96374
LJ          -4.76067         5.35054         1.84641
LJ           4.84189         -3.0653         1.52733
LJ          -5.32191         5.59164         5.47472
LJ           1.32396        -5.83424    -0.000569803
LJ          -5.67667        -5.28819         1.68998
LJ          -3.36093         3.62375        -3.37295
LJ          -1.59425         3.11992         4.70117
LJ           1.81655         5.71892        0.659909
LJ           1.16714         2.58139         5.07418
LJ           3.56001         1.61698         1.35121
LJ         -0.416907         5.74462        -1.45924
LJ           3.94412         5.67032          -2.573
LJ          -3.56087         5.12361         5.61465
LJ          -4.75473          3.1736         5.89474
LJ           2.89119       -0.234068         2.07648
LJ          -4.53076         5.10797         5.95561
LJ           2.30724       -0.897144         3.80328
LJ           6.32392         2.22326        -1.28845
LJ           5.74665         3.13802         3.40189
LJ          -1.37531          6.3778         5.88827
LJ           5.50954         4.53329         -6.2819
LJ          -3.42555       -0.359527         2.20608
LJ          -6.38757        -5.15681          4.1002
LJ           2.47712       -0.412108       -0.320624
LJ          -6.04129         6.20994        -1.33495
LJ           3.68447         2.75737         3.57959
LJ          0.241657      -0.0370282          3.5086
LJ          -3.54974        -2.60324         2.99561
LJ          -6.15485        -1.83388        -4.98392
LJ           4.28632         -5.6671         2.39561
LJ          -3.54517        -4.37977        -6.14341
