108
#Comment!
LJ          -5.18564       0.0809806         1.42709
LJ           5.40911        -1.12627         3.18977
LJ          -4.03523        -2.67535         6.21921
LJ          0.214506         3.65758         6.46036
LJ          -3.51459         5.17813         3.15718
LJ          0.161387        -5.90976        -3.98076
LJ           5.62829         5.28783         2.64065
LJ          -5.66507         3.67217         5.03389
LJ           3.58057       -0.560302         4.17448
LJ          -5.32601        -3.99208         6.26396
LJ         -0.107713        -6.34706        -4.87877
LJ          -3.91945       -0.795675        -4.27611
LJ          -2.81536         4.33277         2.91439
LJ           2.06663         5.03058        -3.84951
LJ          0.787192         6.07131        0.154132
LJ          -1.95974          4.9616         2.36928
LJ           2.11718        -2.60078         2.79494
LJ           1.24608        -1.36243       -0.401888
LJ          -6.27021        -4.14643         3.51088
LJ          -3.97008         4.56384        0.319296
LJ           0.94003        -3.74387        -4.93296
LJ           5.77211        -2.29815          5.6505
LJ           5.45994         2.59963         3.14995
LJ          -5.75866         5.66965         3.98556
LJ          -6.03646        -4.13072         4.93819
LJ           5.06857         6.07568        -5.40381
LJ           4.95254       -0.978027        -4.35906
LJ            3.5685       -0.365521         1.38534
LJ          -5.06108         3.09131        -2.92119
LJ          -1.47781         5.85373         1.83665
LJ           1.36188          1.2304        -3.25192
LJ         -0.306488       -0.327308         1.63878
LJ           1.57462         4.41925         0.76798
LJ         -0.221228        0.541647         3.20245
LJ          -4.03638         -2.1756        -2.40264
LJ          0.940886         3.02681        -4.82375
LJ          -4.35576         2.34069         3.05914
LJ           2.70763        0.458833       -0.487498
LJ           4.30361         6.09696       -0.877617
LJ          -3.62223        -1.00202        -1.10195
LJ           5.10015       -0.687001        -1.76164
LJ           2.44729        -6.19596        0.548548
LJ          -1.19104        0.940396         3.43735
LJ          -6.30867         -2.2589         3.56322
LJ           1.47483         3.66999         4.37633
LJ             1.351         3.24503        -3.47569
LJ          -2.47337        -4.25177       -0.284173
LJ          0.755491        -0.68972         1.55592
LJ         -0.627633         6.17183         -2.2402
LJ          -1.31126        0.704044         1.85174
LJ          0.541271        -4.54784         -5.8439
LJ          -2.75977      -0.0510557         6.40782
LJ           4.74154        0.203958       -0.413793
LJ           3.28103        -3.87994        -2.03552
LJ           4.20622         4.71116        -6.38562
LJ          -4.38871         3.12708         6.13408
LJ           5.17158         5.18738        -2.81301
LJ           0.68737        0.120862       -0.389573
LJ           3.68195        -3.22466         1.21035
LJ         -0.881781         -5.5103        -4.54061
LJ           1.45103       -0.770276         2.37801
LJ          -2.74364         5.80182         4.63986
LJ           3.68467        -2.58021       -0.762409
LJ          -5.94418         3.72314        -3.01713
LJ           5.31212        -1.93288        -5.74928
LJ          -5.75812        0.398142         3.98926
LJ          -1.06219       -0.683228         4.41717
LJ          -4.87655        -3.37727        -1.91416
LJ           1.44722         6.04211         5.90396
LJ           1.53074        -3.39082         4.46492
LJ          -3.87623         2.45043       -0.804583
LJ           6.30288         3.71375         -4.1177
LJ          0.377059        -5.43875        -2.05415
LJ         -0.224661       -0.296554        -4.72823
LJ          -6.14733        -3.76209        -1.57851
LJ           -2.3672         4.08397       -0.219547
LJ           4.60779        -4.68634         5.23202
LJ         -0.609386         6.16619        -3.74819
LJ          0.454597       -0.679982        -1.91521
LJ          -3.81495         5.18549         4.49141
LJ           1.03483        -3.73237         5.28745
LJ          -6.21459        0.531149          5.3232
LJ             1.772        -4.03103        -3.36188
LJ           4.53672        0.564306         4.40205
LJ           5.84756         2.91239         4.26766
LJ          -4.37817        -2.70594        -4.59176
LJ           4.83774         4.98368        0.338195
LJ           1.18656        -4.85228        0.849936
LJ           2.23858         3.65763         2.85686
LJ           3.25095         3.67316         4.88812
LJ           -3.5174        -1.34791         -2.8517
LJ          -4.88645          5.0606        -1.80067
LJ          -4.71717         4.93169        -2.91165
LJ           -1.0371        -2.13197        -4.89613
LJ           5.29638         5.84225         1.65064
LJ           1.70021        -5.14288        -5.21944
LJ           2.17559        -5.86321       -0.418288
LJ          -3.14869         2.48532         3.02412
LJ           3.65576         4.47746        -1.89077
LJ          -6.11908       -0.994519         5.31943
LJ           3.08717         5.53019        -4.74195
LJ           5.02895         2.30727         1.27934
LJ           4.62375         3.58501         4.64614
LJ          0.958803        -1.62174        -2.52549
LJ         -0.658148          3.4787         1.25416
LJ          -6.22761        -5.07835       -0.443955
LJ           3.54172        -6.33254       -0.321688
LJ          0.673813        -4.93489         6.19077
