108
#Comment!
LJ           2.23664         1.91149         1.79069
LJ           2.40541        0.843822         1.14429
LJ          -3.26618       -0.777642        -3.41913
LJ           5.63007        -3.75676       -0.462787
LJ            -1.949        -6.02365         1.35862
LJ          -6.34416        -3.42483        -5.31387
LJ          -4.54876        0.273791        -3.76422
LJ           5.66061        -4.45335        -2.38893
LJ           4.78638         4.29105        -6.27702
LJ            4.5449        -6.17109           1.848
LJ          -1.75508         2.03007         2.62737
LJ          -4.90485        -3.90108         5.24946
LJ          0.491015         1.75961       -0.109811
LJ           2.97862        -2.64787         4.74212
LJ          -1.62421        -1.73434        -4.41571
LJ          -2.32654        -4.87067         4.96862
LJ          -3.49357        -4.04352        -1.52228
LJ          -4.34269         2.89062         2.19214
LJ           5.09869        -1.53544        -3.36101
LJ           -1.4383        0.731723        -2.89782
LJ          -4.15961        -3.77625        -5.03051
LJ            3.5589         4.73013        -2.84198
LJ           6.04043         5.97996         6.17878
LJ          -4.22071         2.53363        -2.05862
LJ           3.10863         5.21625        -6.38065
LJ           0.24004         4.50969       -0.410165
LJ          -5.48862        -0.29735         4.94512
LJ          -3.55254         3.30079        -5.63907
LJ          -4.74464        -5.34254         5.27663
LJ          0.468008         3.74706         2.28827
LJ           -2.8234         1.24606        -4.74192
LJ          -4.31063         5.59574         6.39783
LJ          -0.39698        -3.02654         5.22166
LJ            4.0042        0.302866       -0.555042
LJ           5.64514         1.27077        -2.43048
LJ            5.4217         3.10298         2.79137
LJ           3.52821         1.82487        0.375452
LJ            1.7959        0.682871         -2.2018
LJ          -2.65893       -0.546219         2.07508
LJ          -4.98092         3.42487        -2.54802
LJ           5.11489        -1.65674         5.50088
LJ           5.75512         1.56151        0.825805
LJ          -2.51946        0.256182        -4.17421
LJ         -0.432791         6.27169         3.92244
LJ           1.16568        -0.51332         1.54879
LJ          -5.35132         1.55353        -4.94408
LJ            4.2068        -4.61366         6.00818
LJ           6.43008         1.60249        -1.54388
LJ          -6.05541         4.15845         6.14377
LJ          -2.09514        0.535778         3.46409
LJ           5.69145        -1.21107        -4.74261
LJ           1.36066         6.04732         1.24183
LJ           3.73963         2.93071        -4.93907
LJ           -6.1732         5.01381         -4.3467
LJ           5.83073         2.30614        -4.36502
LJ           1.44598        -3.11222       -0.547401
LJ            2.2968        -5.05817       -0.594604
LJ           4.85469        0.429086         2.90043
LJ          0.883419        0.595535        -5.63161
LJ           3.95111         4.29177         1.50144
LJ          0.877046        -2.01164       -0.623536
LJ           -3.3371         3.41171        -1.85598
LJ          -4.01141         3.80867        -2.48938
LJ           3.97531         -2.3763         6.37879
LJ           1.41602         3.34282        -1.43126
LJ          0.699891        -2.62414         4.34094
LJ           1.83553         5.98815         3.98224
LJ           2.13462       -0.377845        -1.66996
LJ          -2.43343        -4.43836         3.43499
LJ          -2.51296         4.59553        -3.49445
LJ            1.2423          2.6858        -4.51415
LJ          0.586414        -6.33516       -0.180677
LJ           6.42309         -5.5277        -3.20249
LJ          -5.79745        -3.76326        -2.89162
LJ          -2.95574         0.73034         1.18524
LJ          -4.80914         1.21831        -1.44844
LJ         -0.950324        -2.89482         1.16265
LJ           4.55104        -5.02821       -0.267413
LJ          -3.56851        -3.28114         5.79754
LJ          -6.43785         2.54709        -3.10027
LJ          -4.16868        -3.38827         2.70333
LJ          -4.56359        -4.42803         -6.4182
LJ           1.14429       -0.281496         4.75791
LJ          0.422369       -0.204994        -6.36339
LJ           3.86757         2.65993         6.35295
LJ          -3.64631        -2.11579        -2.41554
LJ           5.69332        -3.44698         1.80002
LJ          0.482549        -1.01849         5.41352
LJ           3.02445        -3.94024      0.00658121
LJ           5.30251        -4.42539         2.99087
LJ          -5.05418         -3.0765         -2.7082
LJ          -4.09912        -2.02185         -3.4366
LJ          -5.53589         2.76366        -1.32001
LJ          -5.18231     0.000727912         3.44899
LJ         -0.968836         -1.3597        -3.46005
LJ           3.29212       -0.442751        -5.61024
LJ           4.90194         4.36723         2.54998
LJ          0.203839         3.11419         3.14363
LJ          -2.57946         1.04126       -0.851464
LJ           2.71422        -2.21387        -1.63785
LJ          -4.59077        -3.19061        -3.72101
LJ            1.8313        -2.10706        -2.39308
LJ           3.39979        -4.99233        -0.54781
LJ         -0.721698         -1.1045          3.3135
LJ           -5.1635         1.92963        -2.83428
LJ          -1.54725        -3.44755         2.86184
LJ           6.37601        0.350448         5.95494
LJ          -6.17494         1.12248        -3.54888
