108
#Comment!
LJ          -4.51031         4.97318         3.64165
LJ           -1.1413         3.48936        -4.43851
LJ          -3.08637         4.85478          4.0506
LJ           5.15978        -4.36259        -0.42558
LJ            3.2031       -0.844765         1.35728
LJ          0.949282        -4.23654        0.854424
LJ           3.39656       -0.533327         0.33482
LJ           4.97039         3.48166         -4.7833
LJ          -1.79116         2.93968          3.7584
LJ           6.21077       -0.686536         1.56071
LJ          0.179033        -2.53967        0.630436
LJ          -2.14625         4.63306         4.36902
LJ          -1.26737         5.45471         5.01378
LJ           2.33641          4.0922        -5.61074
LJ           -1.5991        -5.44809         2.60615
LJ           -2.0047         5.47696        -5.71326
LJ          -2.58194       -0.176105       -0.697067
LJ          -6.13947         3.96754         1.77478
LJ          0.755289         2.51413        -5.36533
LJ            5.3083        -1.11193        -2.00763
LJ            4.5204        -3.43485         -1.0549
LJ          -3.71788        -5.17988        -3.53854
LJ          -5.16352         3.19647         1.09159
LJ          -4.11387        -3.28866         1.98223
LJ           5.53578           5.645         5.58401
LJ           2.90836         3.10469         1.56401
LJ           1.47385         6.21569         5.33483
LJ           5.44151         3.98257         3.13553
LJ          -2.14985         0.73458       -0.153179
LJ          0.313733         4.71678       -0.491519
LJ           -4.2152         1.53518         5.67707
LJ          -6.04307         1.57889        -5.88487
LJ         -0.423432         5.98023         3.19767
LJ          -4.49405       -0.715752         -1.4463
LJ          0.785382         3.45783         3.19082
LJ           4.23852        -4.55931       -0.979159
LJ          -4.87521         -1.9324        0.449351
LJ          -2.90508         3.94862        0.580913
LJ           -2.5049        -4.54594      -0.0132955
LJ          -5.95824         1.72131         0.52518
LJ           3.60416        -3.62025        -5.64977
LJ           1.90683        0.977425         4.04086
LJ           5.75047        -6.32697        -4.13354
LJ          -3.22672         3.94825         6.16723
LJ           3.31804        0.498511        -2.23991
LJ            2.9447        0.618062         2.74853
LJ           2.57317        -2.05916         3.49966
LJ           1.49693        -4.68275        -1.68253
LJ          0.941259         1.64231         -1.8753
LJ          -5.64178         3.09562         3.19535
LJ          -5.98261         5.99318        -6.16741
LJ           3.62906        -2.02871        -5.64091
LJ          -5.74465       -0.539363        -1.99854
LJ           0.85586        0.675615         2.44894
LJ           2.50356        -4.35068        -1.32468
LJ          -3.06854        -2.37859          2.9651
LJ           2.89777        -2.13951         4.58027
LJ           5.32372       -0.906872         2.05568
LJ           2.80886         5.21865         5.99145
LJ          0.458811        -1.57654       -0.771028
LJ          -1.64875        -2.72468        -4.30829
LJ            1.0749         4.35056        -1.42954
LJ          -6.16525         5.83616       -0.620517
LJ          -6.29999        -5.77326         1.79241
LJ          -4.25686        -4.54779        -4.12337
LJ           2.61981           1.058         1.74689
LJ           1.74553         2.40202        -3.73171
LJ           2.38074         1.66847        -1.59063
LJ          -4.89995         5.56028        -3.07622
LJ          -3.71641        -5.90405        -2.37114
LJ         -0.705314         2.36677       -0.857482
LJ            5.5818        -6.44627       -0.918117
LJ          -5.23453        -4.93847         2.15051
LJ          -5.40515        -2.43216        -1.94392
LJ          -4.15548         5.47905         1.96547
LJ           -4.7379         3.74412        -4.17873
LJ           4.36121        0.506344        -2.61793
LJ          -3.21182         1.86146        -5.18016
LJ           2.09325        -2.89021         5.07844
LJ           4.54033        -4.44298         1.97022
LJ          -5.16435         2.26023         0.41805
LJ            3.9234         6.42591         1.90119
LJ           6.23194         4.95511         1.62276
LJ           2.70682          3.0304        -5.73385
LJ          -6.40832        -2.83931         2.67147
LJ           5.64711        0.387776        -1.45481
LJ         -0.090526         3.51696       -0.563264
LJ            6.3557          2.4769         1.31287
LJ           6.22125         1.34653         1.47352
LJ           4.82478         4.94821         4.98998
LJ           4.85715        -5.64235         4.17458
LJ         -0.292581        -5.55054          -5.423
LJ           5.02626        -2.95449         5.05209
LJ           5.63214         3.73394        0.953021
LJ           2.62121        -4.69907        -2.46883
LJ           3.83228         6.42531        0.736868
LJ          0.932782        -5.92257        -4.54409
LJ          -4.55974         5.81231         6.42113
LJ          0.328754         4.79589         6.29788
LJ           3.58436         2.38949      0.00504476
LJ          0.531442         2.95244        0.611851
LJ           4.70046         2.82564         2.83422
LJ           5.21211         5.23372        -2.83239
LJ          -2.94598        -1.10469         6.25366
LJ            4.2189         3.82904        -5.82827
LJ           6.23097        -3.45021         4.54582
LJ           5.99423       -0.495573         4.13271
LJ            5.3906         -4.9443        -5.33469
