108
#Comment!
LJ           4.24806       -0.260904       -0.911429
LJ           2.69232      0.00552498        0.239416
LJ          -4.20201        0.920909        0.881409
LJ          -4.73924        -6.03377       -0.985985
LJ          -1.07753        -5.62348         3.23349
LJ            2.8727        -2.84574         2.64353
LJ          -2.69575        -2.12921        -5.16376
LJ          -4.27049        -4.74108        -2.59847
LJ           1.21624        -0.29027        -2.99496
LJ          -5.76543         1.06096        -1.87639
LJ          -3.06288        0.725589        -4.35657
LJ          -5.55338         5.25657         2.41151
LJ         -0.622489         5.70373         3.64739
LJ           5.75484        -3.97887        -1.35993
LJ           2.60983        -4.30956       -0.570449
LJ         -0.291046          5.9415         1.80321
LJ          -4.88064         -1.0496        -5.83698
LJ         -0.322744         3.38877         2.18814
LJ           4.59522       -0.400385        0.881382
LJ          -1.73189       0.0263687        -5.02846
LJ            2.2557        -2.73615         6.40943
LJ           6.34604         -3.1714        -4.22195
LJ           3.95001       -0.298852        -4.13227
LJ          -2.61323        0.567541         2.65603
LJ          0.849124        -3.49019        -5.56418
LJ          0.655973         3.07505        -4.39608
LJ          -3.96285          3.7678         1.60479
LJ          -1.09587         3.80982          3.9438
LJ          -4.87619         5.24347         1.23214
LJ           5.92661        -5.85582        0.468245
LJ          -3.98184         1.56843        -4.94057
LJ          -6.21985        0.884599         4.16219
LJ          -1.86916        -3.78151        -2.00494
LJ           3.28515       -0.806614      -0.0892381
LJ          -5.72995        -2.79268        -6.22527
LJ          -6.07468         4.05127         6.32828
LJ          -1.50204          5.5543        -4.62215
LJ          -3.51713        -6.45612        -2.85402
LJ          -3.89405        -5.02179       -0.923132
LJ          -3.75211         4.51389        -1.83748
LJ           4.26598         3.27355         3.50634
LJ           3.26661         4.11124        0.777212
LJ          -4.69831       -0.675841          5.9241
LJ           3.74141        -2.41432        -3.29054
LJ           3.14219        -1.61741          5.0286
LJ          -3.51432          2.3863        -1.88068
LJ           4.79323        -3.16785        -4.51474
LJ           2.64119        0.726409          1.6569
LJ           1.10862        -5.52266          4.4553
LJ          -4.07439         3.65253        -6.00858
LJ        -0.0805105        0.635827        -2.85894
LJ          -5.27346          1.0536       -0.336948
LJ          -5.66402        0.998262        -4.78479
LJ          -2.46779         5.04207        0.912516
LJ           4.83717        -2.06863        -1.76162
LJ           0.10971         1.38368         2.73737
LJ           1.92998         5.63026        -1.19044
LJ          -4.70824       -0.945851       -0.445899
LJ           3.01181       -0.133922        -3.51307
LJ            5.3146         5.04251         5.16467
LJ          0.496573         1.76116         1.72406
LJ           -3.0369          6.1218       -0.798289
LJ          -4.75263         3.72481        -4.66197
LJ          -4.76166         0.40862        -5.90958
LJ          -6.21417         6.45709        -2.34966
LJ          -6.45478        -5.92755        -4.35944
LJ          -2.20282         4.60799        -1.89122
LJ          -1.13424         1.91372        0.837746
LJ           6.23425         2.74959         1.07797
LJ         -0.554427        -3.23007        -4.74971
LJ         -0.253527          2.8684        -3.26463
LJ           1.34069         6.00004        0.997601
LJ          -4.39702         5.46629         5.85722
LJ          0.735811        -5.45806        -4.02411
LJ          -0.80067         4.28466         2.39315
LJ          -4.17083          4.0458       -0.551073
LJ          -1.71982        0.639928       0.0146788
LJ           1.02144        -3.13728       -0.931039
LJ          -2.11126        -3.97634        0.869054
LJ           5.09811         1.34189        -1.25701
LJ          -4.13404        -2.90324        -5.52853
LJ          -5.27525         6.45955         4.00947
LJ           3.42487        -5.75529         1.77494
LJ           -0.3876        -1.99168         6.35973
LJ           1.03362       -0.309951         -5.9979
LJ          -2.13289         5.37974        -3.69888
LJ           6.34253         0.03915         4.40745
LJ           1.06134        -2.85206         3.69807
LJ           1.44378         4.65663        -2.04538
LJ           1.41477        -6.15155        -1.74757
LJ          -5.36397        -6.14341        -2.91294
LJ          -2.11413        -1.86697        0.104686
LJ           -2.8602         1.04524        -1.91869
LJ          -4.96518         3.05399         1.68699
LJ           -1.7594        0.669384        -6.42409
LJ           1.28219         2.19619         -3.2273
LJ           5.25324          3.2606        -1.55798
LJ           1.80406         1.90208         6.00133
LJ          0.940094        -2.98666         2.34202
LJ           1.88178        -5.24341        -2.18021
LJ           -5.6239       -0.486585        -3.80893
LJ           1.46954         4.99305         -6.0504
LJ          0.356882         5.60897        -1.78105
LJ          -3.09483        0.770058         0.46226
LJ           -3.7631         1.25228        -2.47875
LJ           -5.6774         4.53003         1.73003
LJ          -6.32204         4.90429        -4.42276
LJ          -3.71793       -0.368331        -4.19547
