108
#Comment!
LJ          -2.54746        -2.13035         6.27184
LJ          -2.86995         6.04837        -5.19965
LJ          -4.36356          3.8265        -3.85449
LJ           5.68061        0.672551      -0.0331269
LJ          0.737942        -3.36118         4.39089
LJ           -4.7377        -2.18223        -3.07218
LJ          -3.83241          5.7255         4.16577
LJ          -1.00783         -3.0275        -5.65796
LJ           6.14688         4.05476        -1.22359
LJ          -3.46816      -0.0521903         4.58669
LJ          -4.54833         1.62375       -0.721858
LJ          -1.46219          3.2585         5.90562
LJ           5.28226        -4.90398        -4.29662
LJ          -5.82651         4.31627        0.407441
LJ           3.64627        -6.33058        -6.02227
LJ           2.28632         3.45328        -1.17271
LJ          -3.71086        -1.13317        -4.12186
LJ          -2.08493         3.20258       -0.141688
LJ           2.33843        -0.62757         3.70153
LJ          -2.49535        -5.43092        -5.37588
LJ          -5.38751        -3.41603          2.9845
LJ          -1.17919         5.89588         1.13233
LJ         -0.482075        -6.36652          5.4291
LJ         -0.888882         3.22355        -2.72732
LJ          -5.28094        -5.94596         2.22904
LJ           3.07144        -3.83056         1.57287
LJ          -5.57461         3.91459        -2.34001
LJ          -6.38959         1.47201         6.34362
LJ           4.37324        -2.37419       -0.765249
LJ          -4.58907         5.85567       0.0370518
LJ          -5.99513        -2.83375         6.02157
LJ          -1.81632         1.60591        -2.85703
LJ          -3.08602       -0.342076         5.96766
LJ           3.03165        -2.72885         1.23917
LJ          -5.39502         4.00855         1.43058
LJ          -1.79723         1.79274         4.09179
LJ          -6.04844       -0.372795         6.26051
LJ           5.90875        -1.10631        0.161257
LJ           -3.6446         -5.6549        -5.30888
LJ           3.90781        -1.12742        -3.21908
LJ         -0.732724        -5.41047         3.24823
LJ          -4.67238         -1.8662         3.17446
LJ           4.16787         4.49253         -1.3475
LJ          0.356865        -5.31661         3.15136
LJ            1.7513         -3.7545        -5.35111
LJ          0.654086        -1.49264         1.29003
LJ           3.85643        -3.12079         1.71004
LJ           6.30058        -5.38926         1.52497
LJ          -1.64894        -3.03464        -1.09998
LJ          -5.30718        -1.16922          6.3839
LJ            4.5143       -0.971831        0.845353
LJ          0.482058         2.26801         2.92072
LJ           2.07394         3.86095          2.9255
LJ         -0.855927        -4.54628         1.30566
LJ          -1.76487         3.46772        -2.26072
LJ           3.01417        -1.39275       -0.744842
LJ          -4.51514        -5.97794         5.36778
LJ         -0.889354         4.47487         6.37756
LJ          -4.01409        -3.50176         6.02933
LJ        -0.0316431        -5.58402        -5.53701
LJ           3.68726        -0.10548         3.78435
LJ          -2.91915        -2.03183        -3.48786
LJ         -0.531486        -3.08936         2.19463
LJ           1.08523        -6.42104         -5.1512
LJ            4.0978         -5.4869        -3.32951
LJ            5.5356         2.78845         -3.1581
LJ          -1.79985        0.339726        -5.48666
LJ           5.96577       -0.457619        -1.94242
LJ           2.54082          4.5162         5.56818
LJ          -5.82155         5.26648        -2.75821
LJ          -4.92331         2.04329        -3.83648
LJ         -0.706101        -1.40743        -2.77207
LJ          -2.80504        0.893629        -2.90337
LJ            2.4389         5.34491         2.46792
LJ          -3.31068        -5.74673        0.498445
LJ          -2.03552       -0.643055         3.78625
LJ          -5.19813       -0.244784          2.4073
LJ           1.40049         3.11453        -2.83304
LJ           1.47796         4.06289         5.32282
LJ           2.88391         -1.0482        0.234544
LJ           3.70978        0.566589         4.60064
LJ           3.54033        -3.83967         -4.4269
LJ          -4.27844        -4.96124         4.72966
LJ          -5.42703         4.23936        -5.74397
LJ           3.45879         3.26992         -4.3257
LJ           5.95785         2.05653        -3.91977
LJ          -0.10452         1.07717         4.42443
LJ          -4.07803          1.5075         1.79203
LJ          -1.93968        -6.20955        -3.93461
LJ         -0.426005         2.35104         3.60467
LJ         -0.203345          4.8427        -2.80009
LJ           1.30743        -3.47907         1.84116
LJ          -1.41944         1.14961         2.84919
LJ           3.49776        -1.46972         3.54079
LJ           6.14423        0.805982          1.3387
LJ           1.26411          -3.245        -4.33725
LJ           5.23936        -1.13171         4.48097
LJ         -0.348021       -0.830726        -5.56457
LJ          -1.57053         3.72398         2.65343
LJ          -1.79605         3.07039        -5.88225
LJ           1.35835        0.295069        -3.97677
LJ           1.46346        -3.22322        -2.54733
LJ          0.228259        -3.83172        -2.04335
LJ         -0.763042        -4.32335        -1.67232
LJ          -1.93832         2.23756         5.73892
LJ          -4.85666        -4.76955          5.8832
LJ           3.72314         3.82502         2.37535
LJ         -0.227579         1.12151         5.36295
