108
#Comment!
LJ          -3.87579         5.70171         5.00394
LJ          0.429214        -3.36759         6.00564
LJ          -4.54242         2.36472        -1.20259
LJ           5.06129         0.19662        0.655427
LJ         0.0083656         -5.2586         5.47318
LJ            6.2932        -3.34586        -4.00285
LJ          -1.71056        -5.85848         4.68186
LJ           1.13808         5.73098         4.62721
LJ          -6.05006         1.53185        -5.88239
LJ           5.81177       -0.602384         2.24916
LJ          -5.76952         1.38312        0.130383
LJ          -2.07982         2.78913        -2.36816
LJ          -4.28943        -4.42162        -6.11222
LJ           -5.7426        -6.36421         3.08818
LJ            -1.218         4.45749         5.31358
LJ           2.39109         3.99033        -1.17851
LJ           6.42988        -3.47496        0.450051
LJ          0.983377         2.68736         1.13632
LJ           2.36449        -1.46387         3.61904
LJ          -2.66708        -3.53628         6.44767
LJ           3.67696        -2.63047        0.649118
LJ          -3.63694         4.20609        -4.95371
LJ        -0.0228699         -4.1448         5.20715
LJ          -3.05282         3.15738          6.4138
LJ          -5.06991        -4.03301         3.14682
LJ           2.59431         -1.7763         1.57038
LJ          -4.85989         6.16759         1.06591
LJ          -3.50656        -2.87186        -5.49863
LJ           6.42342       -0.810751        -2.49492
LJ          -2.62705        -4.18876        -0.94101
LJ           2.95632         6.31153         1.97396
LJ          -3.58768         3.32416        -1.99318
LJ           4.07271        -2.16984        -5.29477
LJ           2.99328        -1.30209           -2.95
LJ           5.84265         -5.7973          1.4656
LJ          -2.81459         2.65782        0.251735
LJ          -4.99345        -2.68709        -1.61072
LJ          -5.12903        -3.76065         0.31305
LJ          -4.48852         5.58322         6.14274
LJ           2.16972        -2.97258        -2.68052
LJ          0.139742        -6.12686         3.37612
LJ           -1.1961         1.83084         2.54028
LJ           5.91505        -5.38286         2.78862
LJ           3.35259         0.28615         2.72244
LJ           4.03165         1.20499        -3.51667
LJ         -0.146402        -1.23444        -1.34551
LJ           4.76738        -3.63356       -0.384545
LJ          -3.42853        -2.95258         1.83378
LJ          -1.00088        0.115888        -2.54609
LJ          -4.48542        -4.78019         4.00107
LJ            3.3276          2.9844       -0.991962
LJ           1.28809         6.23408         1.45509
LJ          0.282382         1.65965          5.8362
LJ         -0.801432        -6.11887         2.57722
LJ          -5.20699       -0.874301       -0.453307
LJ           1.16538         1.90499        0.209289
LJ          -2.25295         4.70653        -6.27234
LJ          -2.27242        0.802886         -5.2146
LJ           6.04203        -2.37833        -5.31188
LJ           2.73973        -6.23176        -3.66015
LJ           2.00477        0.185251         2.06019
LJ          -1.43023        -5.95582        -2.75695
LJ           2.44413        -5.55555         5.54127
LJ           1.86888         5.75174         3.86128
LJ           4.06971        -3.56285        -1.21079
LJ          -4.05366          2.2477         3.14925
LJ          -2.55101         1.84622        -4.11299
LJ         -0.206794         3.13295        -2.33941
LJ           4.07989         1.84478           2.165
LJ           5.87752         5.23979        -2.58421
LJ           5.11916         2.86067        -2.42129
LJ          -4.97471        -3.43908        -4.81667
LJ           -1.6084         1.77908           -1.71
LJ           5.11521          5.1252         4.80018
LJ           5.93141         6.06193       0.0714284
LJ          -1.60495        -2.63983         6.16225
LJ          -4.82616         -4.4593         1.27678
LJ           1.09445        -6.34517       -0.918218
LJ        -0.0209121        -5.32146         -5.9192
LJ           2.70005         0.79262         1.65886
LJ         0.0475295       -0.919751         1.70086
LJ           4.59182        -4.52443        -5.67944
LJ          -5.54304        -1.52728        -4.73197
LJ          -3.85226         2.25198        -5.97592
LJ          -5.46555        0.218874        -4.47464
LJ           5.96216        -2.94904        -2.99672
LJ           3.38297        -2.13497        -0.91224
LJ           4.19994         3.64968       -0.306434
LJ         -0.124272         5.70601        -3.34191
LJ         -0.687711         3.39092          4.8297
LJ           3.03234         5.11842         -3.7566
LJ          0.939605        -1.20824          3.2481
LJ           1.92959         4.54614      -0.0371066
LJ           5.52986         0.87255         1.81246
LJ          -5.48149        0.142487         2.40198
LJ          0.359063       -0.510194          -2.123
LJ           4.21016        0.673251          4.6539
LJ         -0.884956         1.21589        -2.56768
LJ          -1.71568        -1.02659         1.70774
LJ          -0.93016         3.56401        -2.71481
LJ         -0.533988         1.30439        -5.16872
LJ          0.882999        -1.98139        -6.26459
LJ           5.47821        -4.75991        -2.65962
LJ           2.73231        -6.33051        -2.54474
LJ          -1.12312        0.228366        -4.64936
LJ         -0.849268         5.80109        -5.28011
LJ         -0.528112         5.96162       -0.544486
LJ         -0.900121         3.29274         5.93117
