108
#Comment!
LJ           3.12367         3.76165         2.13372
LJ          -1.57924         1.61512         4.00125
LJ          0.551902         0.76842        -1.90165
LJ          0.357855       -0.830452        -5.84222
LJ          -2.41333         4.35661        -1.42761
LJ          -5.05485        -5.78095         2.21585
LJ          -2.21534        -5.92152        -3.26929
LJ           2.80059        -5.79728         2.02961
LJ          0.305244         6.11025         6.24494
LJ            3.1198        -4.44266         -6.1593
LJ            4.5381         5.21743        -6.42365
LJ           4.07121         1.78001       -0.343954
LJ          0.433402         2.78612        -3.87633
LJ          0.991382         -1.1587         5.60229
LJ           2.21259        -5.36252        0.139338
LJ          -4.68021        -3.69414        -2.62817
LJ         -0.757733        -3.32348        -2.14704
LJ          -5.78041        0.723616         3.64418
LJ           1.99266         1.64779       -0.521532
LJ           0.98574         1.57651         2.29663
LJ          -1.96966        -3.84568        0.867293
LJ           -3.5148        -1.13489          3.6026
LJ          -4.95275        -1.86745         2.10798
LJ           1.59441         4.22997       -0.259744
LJ           3.43985        -3.15398       -0.480086
LJ          -3.25165         3.13628        -4.30288
LJ          -5.82649         3.78419         5.81474
LJ          -4.41699         4.05662         4.29066
LJ           2.26793        0.432075        -3.47991
LJ          -4.37106        0.168652        -1.71664
LJ           3.24752        -1.93222         5.86351
LJ          -5.55585         3.12044         2.11321
LJ           4.53961         3.83632         4.85437
LJ           -1.6223        -1.70496        -3.29961
LJ            4.4713        0.823645        -6.04635
LJ           2.41278        -1.34012        -3.67943
LJ            6.3344         5.05848        -1.99486
LJ           5.53477          -4.187         4.70378
LJ         -0.727483        -4.51932         1.50108
LJ          -4.71736        -3.38592         5.61282
LJ          0.834106         2.17252       -0.906239
LJ         -0.839587        0.252901         4.57005
LJ          -1.40234       -0.760181         3.77245
LJ            4.0699         4.41756         4.15471
LJ           -5.7018        -4.30019        -6.29386
LJ           4.67241        -2.76419         4.01266
LJ           1.64686         -5.7334         2.42632
LJ         -0.203069        -6.34242        -5.53309
LJ           3.77671         1.77059        -1.40076
LJ          -2.07151        0.567324        -6.07365
LJ          -5.20274        -6.09722         4.56455
LJ          0.910417         2.75704         1.06551
LJ          0.828726        -4.85513        -1.90628
LJ           5.16147        -4.08741        -2.08039
LJ          -5.47942         4.09776         3.24935
LJ           -3.0612        -2.09563        -2.20591
LJ          -3.78322         4.54294         1.50798
LJ           5.65995         3.97577        -1.38097
LJ           4.07282         -5.8347         5.56616
LJ          -2.91422        -3.97864         2.83366
LJ           1.88707       -0.734126         2.22039
LJ          -5.35246        -2.12483         3.34887
LJ          -6.37483        -3.85155         4.26915
LJ          -5.96357         1.04042         2.36041
LJ         -0.497007        0.250111        -3.30013
LJ           3.05919        -5.82547         6.36469
LJ           5.74889         5.91712        -2.70703
LJ          -6.25327        0.535504         5.15279
LJ           4.11694        -3.46746        -2.70257
LJ          -1.04628         4.10431      -0.0611787
LJ           5.87754         5.62918         -1.1259
LJ           5.40022         1.62554       -0.747212
LJ            2.1521        -6.08121        0.888134
LJ          -3.90373        -5.44835        -6.16271
LJ         -0.625545         2.21666         3.34537
LJ          -4.77453        0.214297         4.19206
LJ          -2.44409         2.49333        -3.83534
LJ          -4.73175         5.30995         1.77727
LJ           5.14752        -2.88205          2.0734
LJ           -5.4954         5.42643         5.61063
LJ          0.853619        -5.74794       -0.239726
LJ          -5.89237        -5.04684           1.229
LJ          -3.12658         3.54892        -3.30233
LJ          -1.49126         2.90646         4.27625
LJ            1.1974         5.67194        0.817167
LJ           1.78427         2.37713         5.46628
LJ           3.45982         1.14715          1.7345
LJ        -0.0967401         5.52271        -1.32087
LJ           3.85494         5.42008        -2.60166
LJ          -3.60018         5.45735         5.06196
LJ          -4.79953         3.14659         5.99383
LJ           2.63541       -0.112677          1.9833
LJ          -4.50897         5.00762          6.1675
LJ           2.58569       -0.826231         3.98063
LJ           6.18802         2.33176        -1.17085
LJ           5.62445          3.2953         3.41605
LJ          -1.23681         6.31806         5.72742
LJ           5.79639         4.55216        -5.98282
LJ          -3.42526      -0.0134637         2.05363
LJ          -5.80172         -5.1211         3.91913
LJ            2.1189      -0.0112666       -0.357583
LJ           -6.3471         6.39938        -1.08511
LJ            3.7075         3.14971         3.50494
LJ          0.264764        0.141713         3.81674
LJ          -3.44593        -2.47128         2.81716
LJ          -6.21933        -1.65967        -5.28368
LJ           4.34649        -5.34327         2.35702
LJ          -3.09956         -4.7737         -6.1612
