108
#Comment!
LJ           2.76275        -5.21798           5.744
LJ          -5.52668        0.749746         -4.6672
LJ          -1.98552          1.4145        -6.37655
LJ           1.73661        -5.69778         1.73753
LJ          0.437981        0.129639        0.968719
LJ           2.42891        -4.80523         3.89295
LJ          -1.58678        -3.37201         4.23544
LJ          -3.91444        -4.76083        0.237198
LJ           3.82119        -3.44411         6.22498
LJ         -0.310806        -6.43152        0.878788
LJ          -4.42329          5.4814        -3.64445
LJ          -2.66162        -1.59611         3.25231
LJ          -4.91102         6.06751         5.97353
LJ          -4.19468         1.79916         5.01533
LJ            1.6965        -5.42268        -2.58077
LJ          -1.21204        -1.01137        -5.70693
LJ          -2.75251        -1.85904        -5.44071
LJ           5.50413         6.36593        -5.80454
LJ          -6.31949        -6.15878        -5.95497
LJ          -2.32902        -4.39126         3.43854
LJ          -3.51782       -0.386103        -3.01073
LJ          -3.08872        -1.50018       -0.770589
LJ          -1.85754         2.64022        0.734174
LJ          -1.26763        -2.00051         6.17986
LJ          -5.87884        -1.26133          5.7707
LJ          -2.97681        -5.37151          2.0848
LJ           1.01448        -2.27035        -5.47031
LJ            -1.538         2.40387        -3.58312
LJ          -2.59616        0.596053         1.74187
LJ           1.13892        -2.51862          3.8789
LJ           4.39152         -3.5062         4.21473
LJ          -2.61268           2.478         3.34493
LJ           2.24499         -2.8122        -3.79159
LJ           5.75283         3.19706        0.517969
LJ            3.5518        -4.69624        -3.10043
LJ          0.696593          1.8275       -0.850426
LJ          -1.79381         3.35074         4.49286
LJ          -4.25514         1.94948         6.11702
LJ           6.14116         4.86102         1.37656
LJ          0.479108         4.37746        -1.12192
LJ           5.35318        -4.25358        -2.96829
LJ          -1.16887         5.72242        0.733769
LJ          -1.42358         4.97689          4.9497
LJ          -5.82044        -4.93682         1.96366
LJ          0.239816       -0.372805         2.90683
LJ          -4.24274         3.59513         1.24176
LJ          -2.48161        -3.11533       -0.664378
LJ           4.33958        -0.46858         2.59026
LJ         -0.994726        -2.46978        -3.19591
LJ          -5.36909           1.056         2.14627
LJ            -3.954        -1.48066           2.109
LJ          -5.42289         1.98273        0.819714
LJ           6.14755        -3.74652           1.359
LJ          -2.10955        -5.69427       -0.613146
LJ          -3.33899         4.78892         4.02808
LJ           4.69073         -3.5766         5.16528
LJ         -0.489383        -2.59626         1.01506
LJ           4.40941         4.42216        -3.22746
LJ            1.0308       -0.110319         3.73325
LJ         -0.362129         1.60521         6.37939
LJ          -6.28554        -4.75449        -1.02701
LJ          -5.66131        -3.50542        0.480059
LJ          -1.51326         -1.4005       -0.929015
LJ          -6.01182        -2.58708         5.81112
LJ          0.304769        -3.00035        -6.00204
LJ          0.159304         2.94602         5.86581
LJ          -2.53635         5.65723          1.6809
LJ           2.64797        -6.35726         4.75821
LJ           5.97645         3.64082        -2.81795
LJ           2.63361         3.19758        -5.24473
LJ          -4.62942        0.840418        -3.67377
LJ           6.21055         -4.9812        -1.94785
LJ           1.65085          3.5616        -2.40341
LJ          -1.38571         6.22509          3.5066
LJ          -4.26694         5.45698          1.5228
LJ         -0.341446       -0.163372         5.71619
LJ           2.35474        0.665498         4.76428
LJ           2.47394         2.08553        0.212266
LJ          -5.07461       -0.288737         4.32451
LJ          -1.62417         -4.3896        -4.20572
LJ           4.91908        -5.62596        -1.71904
LJ          -2.96901       -0.581756         1.67313
LJ          -6.09133       -0.512172        -2.32628
LJ           5.43613        0.663383        -5.55374
LJ           5.92549        -4.76877         2.63212
LJ          -3.33561          2.9232         -3.1426
LJ           6.02684         5.72913         2.03776
LJ          -5.62077         -1.3621        -4.78013
LJ          -2.95078        -1.33921        0.673553
LJ           3.44543        -6.37825         2.36814
LJ          0.436181         3.29605        -3.53214
LJ          -3.63595        -2.03809         5.95516
LJ           5.79429        -5.48584         5.88473
LJ          -4.98343        -1.22701        -1.73236
LJ         -0.817475         3.43977          1.5721
LJ         -0.855095       -0.167429        -3.67256
LJ           2.58179        0.406605        -1.62349
LJ          0.197879         5.01892         3.89589
LJ           1.60355         -5.6452         6.40912
LJ            6.4409         3.94693        -4.80039
LJ          -1.02347       -0.848628         1.87136
LJ           2.79731        -1.70988        -2.35785
LJ           5.14732        -2.93073         6.00931
LJ          -2.27021       -0.886714        -2.64179
LJ           5.73606        -4.87193        -5.48298
LJ           6.08761        -4.26022         4.51402
LJ           4.74991         3.40962        -3.32866
LJ          -3.02897          2.7258          4.7891
