108
#Comment!
LJ           2.13826         5.86085          2.4021
LJ          0.653018         1.57259         4.35376
LJ           4.95193         1.30303        -2.31971
LJ           2.05928        -2.59494         5.99799
LJ           -3.4044         4.40814          0.3887
LJ             5.768        -3.71487         2.24592
LJ          -5.19501             2.4        -3.88604
LJ            3.6565          -4.277         5.59905
LJ           3.80942        -4.47671        -3.44862
LJ           2.48864         3.41338         6.14612
LJ          -4.83598         3.38581        -2.36689
LJ          0.322604       -0.677766         1.78157
LJ          0.737385        -5.78871         -1.7112
LJ          -1.02451        -1.83959        -4.17322
LJ           2.28089        -4.04026         3.16843
LJ          -3.89392        -3.71212        -3.71126
LJ         -0.629599        -5.68105        -5.59197
LJ           4.11598         2.32297        0.542879
LJ           2.73828         4.98319         5.15825
LJ          0.287284         1.04171         1.65812
LJ         -0.453264         -4.4187        -3.39514
LJ          -1.11386       -0.849577        -1.64845
LJ          -5.47933        -3.41365         3.45503
LJ           4.63972         3.06592        -2.05926
LJ           4.44124       -0.960094          1.5137
LJ         -0.777632          1.9436        -4.65765
LJ          -5.24517        0.817012        -1.02959
LJ          -5.03576         4.11565         6.23267
LJ          -2.96899        -2.16475        -6.02891
LJ          -3.18147         1.63893          -1.945
LJ         -0.368258        0.231845         6.07112
LJ          -2.81125        -3.28569         -3.1002
LJ           4.53583         2.11348        -3.34013
LJ          -6.34028        -1.36708        -3.08082
LJ           3.36625         2.13945         5.18919
LJ            5.0095       -0.631147        -3.06794
LJ          -5.27576        -4.34259        -6.37849
LJ           3.89422        -3.39486        -4.39383
LJ          -1.57984        -2.63868        -1.27154
LJ           0.17442        -4.68804        -4.23056
LJ           2.99929         5.66819        -3.62109
LJ          -1.64734        0.550365         3.50166
LJ          -1.85415       -0.817651        0.407938
LJ           -5.7475        -4.02567        0.427219
LJ          -1.43814        -3.06741          -3.079
LJ           5.23531       -0.983937        -5.59216
LJ           1.84154          1.8331         4.35128
LJ           5.98845         2.82077        -3.93261
LJ         -0.054523         5.84561        -4.90064
LJ          -5.89425        -4.98769        -4.76466
LJ           5.12971        -3.33224         6.06765
LJ          -4.28449       -0.771006         2.11564
LJ          0.741242         -5.4742        -3.34286
LJ           6.23963         6.18559        -4.09516
LJ          -6.23349         4.21759         6.08496
LJ          -4.57784        -3.22438        -1.55468
LJ          -4.47305         5.08046        0.826076
LJ           3.58491         2.55754        -4.94063
LJ          -6.20457         5.86793        -5.47553
LJ          0.695036         6.07307         2.95354
LJ         -0.117959        0.593891        -1.89293
LJ          -3.91715        0.292355        -4.99942
LJ          -6.07386        -4.82739         1.57337
LJ           3.13997        -2.73688         3.44033
LJ          -4.18148        -1.47639       -0.217164
LJ           3.94737          4.5616        0.492915
LJ          -5.82349        -5.74474        -3.23821
LJ            6.3791        -3.18145         1.40266
LJ           2.68771         3.25318        -5.30493
LJ          -1.44081         2.64307        -2.34296
LJ           4.34495         3.08197        -3.01234
LJ           3.28294        -2.76171      -0.0891657
LJ           3.83461        -5.62811        -6.34131
LJ          -3.47218        -4.69993         -4.3593
LJ          -1.56931         6.46294         2.31248
LJ           3.08664        0.222141         1.66476
LJ          -1.88892          4.9723        -2.52681
LJ           -5.8071         5.70978        0.896639
LJ          -4.79266        -2.36078        -4.30757
LJ          -6.18386         4.24404        -4.55696
LJ           -3.2799        -4.22697        -2.10629
LJ          -6.34321        -2.28524        -2.99613
LJ          -0.37399         3.11861        -4.43626
LJ         -0.825198         1.56367       -0.191066
LJ          -5.09995          5.2714         2.65132
LJ          -4.32099         1.49606        -3.96788
LJ            5.2389        -1.83503         2.81321
LJ           3.38252         2.44628      -0.0709739
LJ           3.37055         2.50344         -2.3865
LJ          -4.53379        -3.90302         1.08779
LJ          -4.68293         1.81261        -5.90507
LJ          -1.99486       -0.081033        -1.45466
LJ          -5.73237         4.21826        -5.57966
LJ           5.64617        -1.76631         6.43378
LJ           -4.5438        -6.34255        -2.07819
LJ           4.23092        -6.22389         4.11969
LJ          0.671469         5.78048         4.42755
LJ          -4.91553         3.25055        -5.24845
LJ          -3.77744         3.07978         0.62635
LJ         -0.126754        -5.42353         2.45626
LJ          -1.66256         5.14094       -0.981249
LJ           2.79768        -5.24155          3.6446
LJ           3.92989         6.43817         1.97735
LJ         -0.487154         1.10514         5.44027
LJ          -4.15588       -0.245643        0.372546
LJ           3.99428         0.78421         5.11812
LJ           4.43124        -2.78209         3.02508
LJ           2.44823         4.83824         6.40283
