108
#Comment!
LJ          -4.50899         3.48088         4.81586
LJ           1.67516        -2.52034         4.94249
LJ           -4.3777         2.04129       -0.405682
LJ           4.91858      -0.0866038        0.603871
LJ         -0.629426        -5.51512         4.89294
LJ           5.85751        -3.42813        -5.12039
LJ          -1.73298        -5.49013         5.14015
LJ          0.272045         4.17365         6.33957
LJ          -4.68619        0.962564         4.95768
LJ           4.10855        -2.11276        0.401371
LJ          -5.80389         1.04263       -0.108831
LJ          -2.23264         3.80547        -1.30075
LJ          -2.83921        -3.87837           6.389
LJ          -5.23347        -5.89927         4.07744
LJ          -3.00144         4.79505         4.28832
LJ           1.71059         4.60733       -0.904257
LJ          -6.30143        -3.76737         2.10697
LJ           1.96782          2.3009         1.33254
LJ           2.55294        -1.38458         3.24922
LJ          -2.64275        -2.84223         6.29571
LJ           2.27032        -2.11873       -0.964599
LJ          -4.36262         3.35833         6.26726
LJ          0.638681        -3.52235         5.91858
LJ          -2.48075         2.52399          5.3541
LJ          -4.63113        -3.60211         3.69673
LJ           2.10692       -0.323653         2.92077
LJ          -4.35541        -5.76173         1.92433
LJ           -2.6186        -4.87214        -5.55931
LJ          -6.40508        0.942202        -2.44529
LJ           -2.0066        -3.10896        -1.13193
LJ            1.2649         4.79494        0.885191
LJ          -4.53953         3.22822        -1.24304
LJ           2.23176         -2.8573        -4.65734
LJ           3.15157        -1.77573        -3.16938
LJ           4.44462        -4.58466         2.10234
LJ          -3.11899         2.81633         -1.4175
LJ          -4.33133        -3.16099         0.22792
LJ          -4.79789        -4.56889         0.26671
LJ          -5.00795         5.98882         4.68766
LJ          0.596887        -3.50972        -2.07041
LJ           1.25294        -6.22397         3.02354
LJ        -0.0124479         3.18865         2.32504
LJ           6.23101        -4.56603         3.47872
LJ           3.78097         2.74638         1.96758
LJ           5.30293         3.68712        -3.45087
LJ          -1.07619        -1.64299         -1.3986
LJ           5.23021         -3.7248       -0.912194
LJ          -2.76595        -2.03128         1.92588
LJ          -1.09898       -0.373519        -2.97588
LJ          -4.47072        -5.83659         3.39176
LJ           2.49664         3.02769          -1.539
LJ           1.74509        -5.13634        0.674789
LJ         -0.618353        0.854993         -5.8047
LJ          -1.25492         6.38575          2.2486
LJ          -6.43004        -2.37516        0.167517
LJ          0.808831         2.24684        0.565774
LJ          -1.63691          3.6363        -5.58221
LJ          -2.47279       -0.743561        -4.08396
LJ           5.47488        -1.69241        -4.57345
LJ            3.6595          6.4577        -3.81443
LJ           1.49964        0.542317         1.91882
LJ         -0.780361          5.5807        -2.50071
LJ           3.46578         6.36938        -6.23117
LJ           4.09555         5.24067         5.13549
LJ           5.05896        -4.56078        -1.91526
LJ          -2.48833         3.18283          1.8952
LJ           -2.6542         2.50412        -3.88951
LJ         -0.650669         2.71241       -0.961039
LJ           4.41729        0.782289          1.0775
LJ           5.16039         3.52207        -2.39185
LJ           4.07414         3.07052        -2.07817
LJ           6.27178        -4.09477        -5.89764
LJ          -1.55461         2.42021       -0.339039
LJ           6.11873         5.22714         5.63101
LJ           4.45754         5.74737        0.198386
LJ          -1.63208        -3.51009        -5.96676
LJ          -4.41283        -6.09627        0.918661
LJ           1.35677        -5.01064        -0.65615
LJ         -0.567173        -4.50118        -4.75327
LJ           2.71478         1.45825        0.867518
LJ          -1.13073        -1.62031        0.355112
LJ           5.17276        -5.31558         6.36929
LJ          -6.30219       -0.348077        -3.47434
LJ          -3.67575         1.10396        -5.92845
LJ          -4.27108       -0.858969        -4.45855
LJ          -5.40178        -3.57409        -2.98391
LJ           4.15218        -2.60141         -2.4169
LJ           2.76472         5.55546        -1.58266
LJ          0.380632         5.40108        -3.17822
LJ          -0.79067         4.12723         5.41625
LJ            4.1847         5.38789        -3.89475
LJ          0.539719        -1.19836          3.8471
LJ           2.59206        -5.63096       -0.846839
LJ           6.07126         1.70381         1.83089
LJ          -5.17381       0.0482601         3.10199
LJ        -0.0438993         1.30661        -2.48983
LJ           4.39217         1.13865         5.87186
LJ         -0.101336         2.32996        -2.54325
LJ          -1.70468        -2.58477         1.56334
LJ          -3.36395         4.85925        -3.00867
LJ          -1.67843         1.03481        -5.31845
LJ          0.737114        -1.37263         5.40759
LJ          -5.67166        -5.18741        -2.78872
LJ           4.11523         5.58105        -2.02225
LJ          -0.96664        0.604545        -4.14914
LJ          0.550253         4.93682        -4.55327
LJ          -2.19496        -6.29843        -1.24691
LJ          -1.32755         2.82957        -6.16028
