108
#Comment!
LJ            -3.395        -4.00732         2.35214
LJ          -2.06283         3.51067        -5.33791
LJ          -6.09796        -4.75499         3.65924
LJ           6.18543        -2.63327        0.716188
LJ           4.99331        -4.06269     -0.00625109
LJ           5.24297         -4.0449         -1.1587
LJ           1.90112      -0.0191549        0.335345
LJ          -5.62788        -5.48131         -3.4713
LJ          -1.37175         3.65352         4.28512
LJ           2.62937          1.6956         1.60436
LJ          -2.17191        -1.60905       -0.244989
LJ          -3.25923        0.985018         5.39086
LJ          -1.02474          4.0791         2.88954
LJ           5.70075         3.47214        -5.09885
LJ         -0.985281        -3.93215         4.96983
LJ          -1.78755        -5.81932         -6.1193
LJ          -3.10603       -0.073407         1.57277
LJ          -3.85068         3.98973         1.44865
LJ          -1.08549          1.2686        -6.23474
LJ           4.94512        -1.12359      -0.0218629
LJ           5.97031        -3.06086         1.73665
LJ          -2.82511        -4.74014        -3.81524
LJ          -2.52651         1.36788         1.75015
LJ          -5.39098        -4.06819         4.40503
LJ           5.31789         4.19015         3.39753
LJ           1.74527         3.90937         1.43557
LJ          -1.67028         3.07447          6.3383
LJ          -5.76698         3.71164         1.82246
LJ          -3.33837        0.973312        0.629233
LJ           -4.9898         4.22395        -1.47287
LJ          -4.10276        -1.06881         5.11992
LJ          -4.95844          1.9909         5.53212
LJ           2.41236        -5.15541         1.91846
LJ          -4.15743        0.119856         1.75554
LJ          -1.15372         4.29471        0.115055
LJ          -5.38147        -5.81023       -0.978728
LJ           -2.6849        -2.58353         -0.1438
LJ          -2.61269         3.43494          2.0059
LJ           -3.3277         4.81434        0.728754
LJ           4.37271         3.27447         2.79986
LJ           2.61213         5.25727        -3.34094
LJ           1.95743         1.08562           2.122
LJ           5.26783        -6.08677        -4.84229
LJ          -5.43026       -0.291408        -4.50934
LJ         -0.547541         3.08957        -1.96247
LJ           1.23379        -3.26581         5.57872
LJ           2.58056        -1.97498         1.15047
LJ            2.3115        -5.78884        -3.85459
LJ           2.35891         4.46991        -2.60455
LJ          -2.82932          2.8463        0.210291
LJ          -5.73024         1.54524        -4.11867
LJ           3.47725        0.663275        -4.33169
LJ           5.44435        -2.48144        -5.14983
LJ          0.798825         0.73619         4.56579
LJ           1.26212        -5.90582        -3.26523
LJ           6.10839        0.627834         1.71849
LJ           2.88712        -1.29525         2.24962
LJ           4.37074        -1.81484         5.88689
LJ           3.21359         4.88237         5.64074
LJ           2.48721        -2.58733       -0.458057
LJ          0.897171        0.237774         -5.2616
LJ         0.0641793         3.15854         4.63286
LJ           3.46337         4.90795         1.49041
LJ           5.98527         5.11244         2.82557
LJ           4.70217        -3.52404        -4.07609
LJ            3.5248         3.94855         2.63738
LJ           3.21296         6.44234        -4.90006
LJ           1.73757         5.67654       -0.577845
LJ           5.05074         5.21396        -4.02609
LJ          -5.91314         6.22396       -0.201666
LJ         -0.192918        0.259483         2.14701
LJ           4.69885        -4.04427        -2.23569
LJ          -5.74129        -3.87759         3.01532
LJ           -4.3579        -5.61673        -1.30482
LJ          -3.60725        -4.26366        0.845837
LJ           -1.1337         5.45306         -6.2985
LJ           1.53098         2.44951        0.561911
LJ           -3.9023          2.1115        -3.58653
LJ          -4.11691        -4.86983         5.13091
LJ          -6.27786        -6.43113         1.97169
LJ          -4.72974         2.36597        0.275954
LJ           2.31463         5.33856         4.10988
LJ          -6.02329         4.30275         2.65238
LJ           6.37904         2.86489        -5.60195
LJ          -6.35572        -3.25624         2.52683
LJ           5.94394        -3.30057        -2.21216
LJ         -0.331255         4.89579        0.936774
LJ          -4.53491         3.10108         1.47319
LJ           5.93149         3.84659         1.53869
LJ           4.76707          5.7183         2.49994
LJ           5.69673        -4.69542         3.05877
LJ         -0.405485         5.24557         5.96147
LJ           2.60357        -2.66616        -6.20064
LJ           6.09176          1.9995        -1.05042
LJ          -5.48537        -0.68346        -2.35525
LJ           5.23636        -5.96227         1.51902
LJ          -2.32164        -4.04233         4.91613
LJ          -5.92379          6.3298        -5.65374
LJ           1.20983         1.58525          6.4327
LJ           5.34612         1.32624       -0.903421
LJ           3.86419         4.36427       -0.611285
LJ          0.436808         1.51271         3.53054
LJ          -6.07186        -3.25239        -5.04408
LJ          -2.89389         -2.5409         6.04298
LJ           5.67398         2.27383        -4.23358
LJ          -5.41861        -5.61485        -6.45691
LJ           2.67579        -1.94747         4.13052
LJ           5.08852        -3.52134        -5.51452
