108
#Comment!
LJ           2.84766         4.27218         2.39029
LJ         -0.867494         1.64723         4.49029
LJ            2.2378         1.52675        -1.63272
LJ          0.730455        -2.64881        -4.99485
LJ          -2.86924         4.08136        -1.17127
LJ          -5.93645        -4.98772      -0.0550363
LJ          -3.10716         4.19829        -4.23418
LJ           3.16263        -4.90108         3.44952
LJ           1.64444        -5.68697        -5.63177
LJ           3.15842        -6.38452         6.35344
LJ            5.6821          4.2843        -4.67515
LJ           2.36978         1.23209       -0.708415
LJ          0.571772          3.7107        -2.65418
LJ           0.35969        -1.42762        -6.32242
LJ           2.27891         -4.8956         1.23211
LJ          -3.97432        -3.00679         -2.2643
LJ         -0.491205        -4.04873        -3.52711
LJ           6.30545         1.57609         2.50036
LJ           2.31621         3.00803         1.70479
LJ          0.559979         1.38608         2.83673
LJ          -1.22025        -3.83949       -0.977489
LJ          -3.66708        -1.35778         0.57443
LJ          -5.10305        -2.54924         2.60178
LJ           2.79867         3.85125       -0.543811
LJ           3.81695          -2.544        0.333728
LJ          -2.54727         3.46184        -4.79165
LJ          -5.92155         2.43207         3.06559
LJ          -4.43431         4.13144          4.8114
LJ         0.0919291       -0.452127        -4.36943
LJ          -3.90894        0.778285        -1.85003
LJ           2.31367       -0.450139         5.38175
LJ          -4.60528        0.753267        0.130507
LJ           4.73167          3.2418         6.44035
LJ          -3.56972       -0.994832        -3.52031
LJ           3.39029        0.144634         5.44418
LJ           3.53993        -1.19697          -4.057
LJ          -6.02687         5.58121        -4.19942
LJ           5.21042         -3.7364         5.67574
LJ         -0.963267        -3.81513        0.667295
LJ          -2.95008        -3.63075        -6.12752
LJ           1.73301          3.6948        -1.78012
LJ         -0.979426        0.239325         4.30235
LJ          -1.94373       -0.976889         2.39776
LJ           4.76998         5.65349         1.88632
LJ          -4.08112        -3.71729        -5.08739
LJ           4.66703         -1.9744         5.83946
LJ           1.22212        -2.46766         3.10522
LJ           2.75895         5.12067        -5.01156
LJ           2.07367         2.80944        -2.92057
LJ          -3.13369        -1.56758         -5.0733
LJ           6.33659        -4.58785         5.13511
LJ           -1.1168          1.3449          1.3631
LJ          0.821812        -4.17849        -3.50292
LJ           6.43929        -5.36188       -0.938428
LJ          -5.55575         3.92678         4.73903
LJ          -3.54374        -3.19987        -1.29326
LJ          -3.95698         4.53399         1.10631
LJ           4.98181         3.46246        -2.49504
LJ           4.77368        -6.16634         6.36719
LJ          -1.52977        -4.98232         2.84828
LJ           1.13362       -0.596924        0.336522
LJ          -5.68731        -1.22869          5.3573
LJ           -6.1739        -4.52347           3.561
LJ           5.31408       -0.688146         2.57815
LJ           -3.6546        -1.73097        -1.18084
LJ           3.99529         6.42032        -2.98893
LJ           6.41988         6.45609        -2.74743
LJ          -6.36328        -1.20225         4.00641
LJ           3.48207        -5.56498        -3.76477
LJ          -1.17729         3.48081        -1.22376
LJ           5.46019         5.63723        -1.97414
LJ           4.64284       -0.204327       -0.279266
LJ           2.69249        -6.27434         3.13873
LJ          -3.76252        -5.37943        -5.50071
LJ         -0.429698         3.58022         2.84605
LJ          -6.09904       -0.058078         2.75383
LJ          -2.55839         3.65732        -3.51105
LJ          -5.04105         5.50022         1.66008
LJ          -6.42444        -2.07447         4.54557
LJ          -5.90119         4.40057         6.34564
LJ         -0.988113        -5.35872        -1.20695
LJ          -6.42789        -4.09809       -0.525843
LJ           -1.7849         3.43604        -2.57597
LJ          -1.35413         2.37513         2.53349
LJ          -1.37544         5.60137         1.43191
LJ           4.48187          1.4564        -5.78298
LJ           3.86548       -0.330635         3.73722
LJ           1.31869         4.50537       -0.670318
LJ           3.54999         4.33126        -2.70764
LJ          -3.97542        -6.07235         2.77911
LJ          -5.39908         3.56437         6.17185
LJ           1.31085        0.287965         0.90755
LJ          -4.73611         4.53575        -6.23698
LJ           3.75168        -0.66007         4.69281
LJ          -5.89116         4.02033         -1.5951
LJ           4.86809         4.14933         3.52068
LJ         -0.506618         6.06604         5.12879
LJ          -6.15814         4.82064        -4.88736
LJ          -3.49663         1.38894         1.48248
LJ          -3.45333        -5.03306         3.48138
LJ          0.625642         1.93953       -0.504419
LJ           5.72556        -5.13541        0.267663
LJ           3.82062         4.92553         3.02602
LJ         0.0323164        0.979855         5.23483
LJ          -3.19402        -1.71338         2.05764
LJ           6.43333       -0.912813         6.31787
LJ           4.39046        -4.01796         2.19105
LJ         -0.920156         -6.0809        -6.21107
