108
#Comment!
LJ          -4.19036         4.34293            5.19
LJ           1.11811        -2.69245         5.46376
LJ          -4.47836         2.13683       -0.726797
LJ           4.94169         0.10209        0.633383
LJ         -0.392518        -5.42698          5.1565
LJ           6.02721        -3.44331         -4.6521
LJ          -1.69313        -5.65568         4.92426
LJ           0.72637         4.86139         5.55007
LJ          -5.28694         1.20734          5.8576
LJ           4.84833        -1.48144         1.21642
LJ          -5.79856         1.18211    -0.000687521
LJ          -2.16611         3.38402        -1.76683
LJ          -3.54323        -4.14546         -6.4222
LJ            -5.473        -6.13639          3.6344
LJ          -2.24513          4.6768         4.72053
LJ           2.16542         4.26851        -1.00858
LJ           6.13129        -4.05266         1.50608
LJ            1.6673         2.39411         1.25401
LJ           2.50329        -1.45359         3.47722
LJ          -2.64525        -3.10957          6.2943
LJ           2.87061        -2.33814       -0.247094
LJ          -4.08954         3.79868        -6.22477
LJ          0.339321        -3.79812         5.62861
LJ          -2.73466         2.78709         5.78807
LJ          -4.83144        -3.74951         3.45399
LJ           2.33039       -0.964467         2.27909
LJ          -4.57381        -6.18607         1.92542
LJ          -2.99266         -4.0145        -5.40613
LJ          -6.45098        0.188378        -2.45844
LJ          -2.27509        -3.57969        -1.05008
LJ           2.01669         5.43258         1.37316
LJ          -4.15501         3.32644        -1.61432
LJ           3.02853        -2.56112        -4.93902
LJ           3.07689        -1.55657         -3.0803
LJ           5.43896          -4.691         1.67547
LJ          -2.99137         2.73269       -0.644013
LJ          -4.60114        -2.92983       -0.593764
LJ          -4.95969          -4.199        0.259242
LJ          -4.80534         5.84438         5.35226
LJ           1.27629        -3.27863        -2.33665
LJ          0.783993         -6.1801         3.18491
LJ         -0.527826         2.59965         2.42042
LJ           6.08619        -4.91652         3.21819
LJ           3.59125         1.69652         2.38164
LJ           4.75473         2.58401        -3.53355
LJ         -0.674435        -1.48244        -1.36425
LJ           5.03871        -3.68477       -0.665504
LJ          -3.10308        -2.43845         1.89775
LJ         -0.950393       -0.171315        -2.73409
LJ          -4.43501        -5.44638         3.36232
LJ           2.83794         3.16004        -1.25788
LJ           1.53196        -5.78958          1.0233
LJ          -0.18164          1.1956        -6.40342
LJ          -1.07387         -6.3589         2.38094
LJ          -5.90501        -1.71369       -0.098639
LJ          0.910546         2.08595        0.357602
LJ          -1.90569         4.10693        -5.87605
LJ          -2.44007      -0.0941705        -4.58771
LJ           5.69904        -1.95344        -4.91585
LJ           3.28809        -6.42406        -3.72456
LJ           1.65989        0.389104         1.99542
LJ          -1.09215         6.20256        -2.60988
LJ           3.02022        -6.11926         6.19846
LJ           3.06919         5.45226         4.63071
LJ           4.50897        -3.88953        -1.61862
LJ          -3.16895         2.77688         2.43956
LJ          -2.61599         2.22464        -3.98125
LJ         -0.407981         2.76762        -1.73046
LJ           4.32784         1.18408         1.47408
LJ           5.50202         4.29928        -2.47788
LJ           4.50966         2.96826        -2.17817
LJ          -5.90187        -3.80254        -5.43123
LJ          -1.58205         2.08562       -0.875727
LJ           5.68208         5.18138          5.2711
LJ           5.09994         5.88247        0.144148
LJ          -1.56923        -3.11994        -6.30345
LJ          -4.57125        -5.38778         1.04742
LJ           1.23147        -5.57791       -0.787052
LJ         -0.327689        -4.85908        -5.25074
LJ           2.61544         1.28813         1.18549
LJ         -0.577238        -1.29362        0.916033
LJ           4.92039        -4.97346         -6.1783
LJ          -6.00593       -0.892154        -4.00631
LJ           -3.7585         1.58998        -5.93891
LJ          -4.74495       -0.355154        -4.48018
LJ          -6.15492        -3.68425        -2.90757
LJ           3.94074        -2.64919        -1.78242
LJ           3.00972         4.97447       -0.935931
LJ          0.199895         5.52214         -3.2398
LJ         -0.720762         3.79907          5.1056
LJ           3.65385         5.32263        -3.85296
LJ          0.687043        -1.19976         3.58781
LJ           2.52145         5.75397       -0.627296
LJ           5.87716         1.35595         1.84081
LJ          -5.30402       0.0874378         2.80019
LJ         0.0424393        0.476732        -2.36823
LJ           4.31338        0.936771         5.34449
LJ         -0.433445         2.03621        -2.42089
LJ          -1.70178        -1.92209         1.64122
LJ          -2.29951         4.34377        -2.92773
LJ           -1.2196         1.22496        -5.29726
LJ          0.844342        -1.79828         5.87896
LJ           -6.3589        -4.62416        -2.78145
LJ           3.53649         6.04317        -2.28156
LJ         -0.976468        0.383354        -4.30638
LJ        -0.0578022         5.30831        -4.89457
LJ          -1.47728         6.34051       -0.924901
LJ          -1.13077         3.02272         6.46134
