108
#Comment!
LJ           4.52174       -0.663323        -1.50378
LJ           3.57854         -0.1892         1.09012
LJ          -4.50065          1.9821         1.11017
LJ          -6.30796        -4.28018       -0.947594
LJ         -0.883062        -5.72913         3.39563
LJ           3.94743        -2.91841         5.18213
LJ          -2.45228        -3.16694        -5.98723
LJ          -2.86659        -2.04994        -2.59979
LJ           -1.3568        -1.02629         -1.2235
LJ            6.2007       -0.691925        -1.60955
LJ          -4.56155        0.651568        -2.24898
LJ          -4.17956         5.28287         2.05506
LJ         -0.867681        -5.66033         4.66179
LJ          -6.16507        -4.51389        -3.91209
LJ            4.7306        -5.62272         0.94688
LJ         -0.276671         5.46107        0.738969
LJ          -4.84065         -1.9289         5.89311
LJ           1.27083         3.96296         2.20382
LJ           3.31631       -0.667273         2.04846
LJ          -1.68636       -0.515626        -5.83364
LJ         -0.461804        -0.47486         5.66319
LJ          -5.71038       -0.969357        -4.88042
LJ           2.89953        -1.32515          -5.119
LJ         -0.858381      -0.0268804         4.93269
LJ          -1.15152        -3.08932         6.09787
LJ          0.518936         2.47325        -5.92258
LJ          -3.40282         5.97623         0.70432
LJ         -0.846709         4.37325         4.32009
LJ          -6.03662         4.76543       -0.784212
LJ          -4.69427        -4.56965       -0.447764
LJ           -2.4028         3.02444        -3.00177
LJ           -6.0241         1.37681         2.31802
LJ         -0.293119        -3.50992        -2.46473
LJ           2.40509        -2.14294        -1.95461
LJ          -2.49147        -3.69403         5.06587
LJ          -5.26279         4.31891        -5.04372
LJ          -2.53081        -5.99198         5.71741
LJ          -5.07987        -5.71781        -2.64492
LJ          -5.10547         6.07653        0.531521
LJ          -2.01436          5.9585        -1.42102
LJ           3.92459         5.30717         2.68261
LJ           3.00121         5.53601         1.03571
LJ           -5.5039        -1.93276         4.82372
LJ           4.36197        -2.67991        -1.20854
LJ           3.95825        -3.10666         -6.0146
LJ          -2.87736         1.08828        -1.51067
LJ           5.45028        -4.08145        -3.53564
LJ          0.886057       -0.153119         1.74781
LJ           5.88434        -3.21822        -5.98666
LJ          -4.02787         4.79375          5.8662
LJ           1.74664         1.38824         -2.8049
LJ           4.71076       -0.400073      0.00641754
LJ          -3.51335        0.442212        -4.91918
LJ          -2.11971         5.24937         1.38605
LJ           4.00464         -4.9149        0.372884
LJ         0.0642564         3.43757         2.24403
LJ          0.415263         5.07491        -1.70706
LJ          -2.79641        -1.51754        -1.63893
LJ           3.86434       -0.715878        -2.18616
LJ           5.79869         6.28406        -5.17494
LJ          0.896591         1.76769         1.81614
LJ         -0.912425         5.37201         -1.0321
LJ          -6.12944         3.96782         -3.6543
LJ          -4.48719         2.56555        -5.36797
LJ          -6.26324        -6.30009        -2.14811
LJ           3.32977         5.84294        -2.43034
LJ          -3.34211         3.86457        -3.79804
LJ          -1.18259          1.7025         1.89895
LJ           4.72193        0.447916        0.498349
LJ           1.62257        -1.65248        -3.40225
LJ          0.661721         3.98202        -2.32864
LJ           1.96705         5.39506         2.82263
LJ          -3.46615         4.45695         3.92065
LJ          -1.81388        -6.14193        -4.37704
LJ          0.515371         4.64908         1.51036
LJ          -3.19846         6.14477        -1.32672
LJ          -2.73914         2.42821       -0.221058
LJ           1.56616        -2.76525        -1.81548
LJ          -1.94852        -3.58919        -1.11572
LJ           4.58723         1.00482       -0.589226
LJ          -3.93203        -2.52116        -3.62866
LJ          -5.93711         6.37567         4.18531
LJ            4.6142         4.64305        0.367308
LJ          -1.97797        -2.09287        -5.81565
LJ         -0.305447        -1.63505        -5.38107
LJ          -2.41486        -5.40861        -3.72154
LJ            5.6106       -0.928039          6.2471
LJ           1.48121        -3.88944        -6.27646
LJ           1.52246          3.6987        -3.09147
LJ          0.147705         5.09407        -3.54061
LJ          -5.14819         5.49703        -3.81157
LJ          -1.28627        -1.67584         1.53892
LJ          -1.93351       -0.167007        -1.97019
LJ          -5.11997         3.17524         1.32963
LJ          -3.02998        0.467811         5.36707
LJ          0.423063         2.70888        -3.11586
LJ           4.95613         2.56496        -3.34744
LJ            1.8892         2.43988        -5.28454
LJ         -0.605186        -3.66376         1.85505
LJ          -1.62764        -5.99504        -3.25211
LJ           -4.8103      -0.0885288        -4.40143
LJ           1.44927         2.57405         5.75524
LJ          -1.16292         4.65228        -2.49649
LJ          -5.15576         2.25793       -0.530161
LJ          -2.32146         1.57851        -3.18033
LJ           5.79971         4.72955        -0.66703
LJ          -5.99203        -6.20388        -3.20529
LJ          -2.38806      -0.0538785        -4.95184
