108
#Comment!
LJ           4.62001       -0.589473        -1.42884
LJ           3.63029       -0.200506          1.1278
LJ          -4.51476         2.03475         1.10061
LJ          -6.35019        -4.19687       -0.925077
LJ         -0.874365        -5.73643         3.40115
LJ           3.98358        -2.92818         5.22937
LJ          -2.45512        -3.22927        -6.02581
LJ          -2.80744        -1.89621        -2.60014
LJ          -1.46956        -1.04472        -1.15917
LJ           6.15446       -0.762363         -1.5917
LJ          -4.61401        0.653739        -2.16972
LJ          -4.11351         5.26468         2.00544
LJ         -0.879111        -5.59555         4.70329
LJ          -6.13721        -4.53439        -4.01384
LJ           4.82957        -5.69564         1.02246
LJ         -0.291288         5.50223        0.651157
LJ          -4.84625        -1.96518         5.83402
LJ           1.27709          3.9113         2.20049
LJ           3.25511       -0.672593         2.08561
LJ          -1.69998       -0.537978        -5.85332
LJ         -0.511974       -0.408795         5.70901
LJ          -5.66768       -0.873088        -4.90407
LJ           2.85542        -1.36633        -5.15621
LJ         -0.835459      0.00380849         4.93295
LJ          -1.24246        -3.09454         6.05973
LJ          0.532244          2.4477         -5.9861
LJ          -3.38232         6.05982        0.715991
LJ         -0.864856         4.42262         4.39384
LJ          -6.05635           4.713       -0.905282
LJ          -4.60391        -4.52111       -0.489274
LJ          -2.34736         3.09489        -2.92734
LJ          -6.01521         1.39759         2.24292
LJ         -0.310218        -3.52423        -2.51182
LJ           2.38677        -2.18408        -2.03477
LJ          -2.35933        -3.72685         5.00472
LJ          -5.22827         4.32882        -4.97279
LJ           -2.5721        -5.93623         5.61509
LJ          -5.14938        -5.73611        -2.63986
LJ          -5.10714         6.09218        0.599356
LJ          -1.93844         6.00847        -1.37986
LJ           3.90903         5.38947         2.64678
LJ           3.00284         5.59736         1.04834
LJ          -5.52986        -1.98305         4.79286
LJ           4.35597        -2.82869        -1.15322
LJ           3.97526        -3.13431        -5.88818
LJ          -2.84691         1.03688          -1.505
LJ           5.49229        -4.12308        -3.49408
LJ           0.81796        -0.18664         1.74831
LJ           6.09792        -3.15001        -5.88159
LJ          -4.02868         4.84104         5.82077
LJ           1.74306         1.45971        -2.80348
LJ           4.64979       -0.502847       0.0222808
LJ          -3.40788        0.422786        -4.93309
LJ            -2.117         5.25893         1.39777
LJ           3.95736        -5.00956        0.442515
LJ         0.0990599         3.42369         2.21624
LJ          0.342137         5.03359        -1.74771
LJ          -2.71445         -1.5386        -1.68834
LJ           3.86787       -0.784951        -2.24028
LJ           5.81939         6.33355        -5.06981
LJ          0.911866         1.73753         1.81656
LJ         -0.849073         5.34034        -1.06026
LJ          -6.18187         3.98255        -3.62237
LJ          -4.47808         2.64514        -5.33362
LJ          -6.27005        -6.30819        -2.17182
LJ           3.20587         5.79532        -2.35261
LJ          -3.38661         3.82701        -3.86614
LJ          -1.18077         1.69558         1.94199
LJ           4.66512        0.411923        0.559141
LJ           1.72647        -1.60149        -3.31416
LJ          0.735182         3.94788        -2.27774
LJ           2.03917         5.46584         2.91052
LJ           -3.4302          4.4155         3.84707
LJ          -1.92053        -6.18749         -4.4565
LJ          0.581944         4.67922         1.45613
LJ          -3.14057           6.236        -1.41341
LJ          -2.78061         2.50906        -0.20651
LJ           1.65818        -2.73146         -1.8198
LJ           -1.9415        -3.57218        -1.19674
LJ           4.54782          1.0229       -0.609546
LJ          -3.91702        -2.50357        -3.54824
LJ          -5.97072         6.39354         4.22516
LJ           4.65107         4.53776        0.310528
LJ             -2.05        -2.04689        -5.81312
LJ         -0.372202        -1.68208        -5.32176
LJ          -2.43044        -5.31169        -3.71321
LJ           5.58299        -0.96878         6.32105
LJ           1.50509        -3.95623        -6.18659
LJ            1.5234         3.71048         -3.1144
LJ          0.114338         5.09666        -3.63567
LJ          -5.17947         5.44991        -3.84875
LJ          -1.25257        -1.66949         1.59627
LJ          -1.90203       -0.239387        -2.00209
LJ          -5.11914         3.12659         1.33499
LJ          -3.07863        0.457499         5.32374
LJ          0.370761         2.68895        -3.11975
LJ           4.94462         2.53673        -3.41911
LJ           1.87565         2.46867        -5.22367
LJ         -0.667893        -3.69039         1.83554
LJ          -1.75869        -6.02272        -3.23812
LJ          -4.77856      -0.0818485        -4.42563
LJ           1.44622         2.47082         5.72121
LJ          -1.25555         4.63661        -2.50239
LJ          -5.23498         2.31619       -0.553586
LJ          -2.27249          1.5828        -3.18743
LJ           5.67826          4.7268       -0.758137
LJ          -5.95141        -6.13089         -3.1424
LJ          -2.33647      -0.0347547        -4.99537
