108
#Comment!
LJ          -3.80775          2.0778       -0.574567
LJ           4.21291       -0.732089         2.92304
LJ          -4.81669        -3.31342         4.19886
LJ           1.04296        0.118674         2.50111
LJ          -6.07824           1.229         1.22508
LJ           -1.2375         3.78677        -2.31252
LJ           4.37409         5.72235         -6.3828
LJ          -5.03236          2.3894        -6.30392
LJ           1.41546       -0.525144         3.52317
LJ           2.91979        -1.00426         6.38524
LJ          -2.15224         3.78903        -4.34142
LJ          -2.32473         1.46255        -3.58702
LJ          -1.38115         3.76635         3.22119
LJ           5.05169        -5.98975        -4.07325
LJ           2.56638        -5.79256        0.562033
LJ           -2.9069         2.56377         3.66162
LJ           5.20577        -3.61338       -0.209556
LJ          0.672966        -5.00568         4.30125
LJ            -6.413        -3.66857         3.49497
LJ          -4.87246          3.1196       0.0278291
LJ           3.65846        -4.45661        -5.70852
LJ           4.31128         1.98443         6.27286
LJ           3.07588         0.46405        -6.36512
LJ          -2.34299         3.19785        -6.12884
LJ           6.18327      -0.0608425          2.4562
LJ           1.82124         4.23779         5.76353
LJ           6.33314       -0.896713        -4.94644
LJ            0.6913        -1.24089         3.35487
LJ          -4.79458         2.47484        -3.31687
LJ         -0.251668        -4.82714        -2.38807
LJ          0.846583      -0.0964157        -2.65548
LJ           -2.3324       -0.580387         2.16817
LJ          0.101958         3.03405        0.712893
LJ          -3.36431         3.48618          1.4796
LJ          -4.36521         -5.2125         1.49921
LJ          0.699753        -6.17382        -5.03983
LJ          -2.60778         1.49704         2.24859
LJ           1.03101         5.87099         1.41957
LJ           2.37204         5.38329       -0.353544
LJ           -5.7173        -2.58095        -1.98508
LJ           5.26636         1.41084        -3.08498
LJ           5.18178         6.44282         3.27233
LJ          -5.92155       -0.964923         2.49259
LJ           6.38923      -0.0172773         3.83566
LJ         -0.244487         3.94988          5.2863
LJ           4.01373         4.42603       -0.346212
LJ        -0.0211063        -3.29694           2.219
LJ           2.46968        -1.73578         2.93738
LJ          -2.95074         5.29601         -3.5711
LJ         -0.102675         0.98787         3.37844
LJ           2.57844        -4.40289         6.43518
LJ          -2.47568         1.15042          4.0108
LJ           5.94076        -1.45899        0.470687
LJ            5.3175         -1.0205        -2.50833
LJ          -6.30675         6.34796        -3.31939
LJ          -5.20683         3.62194        -4.07148
LJ           2.70703        -5.32549        -2.65225
LJ         -0.798749        -2.19611        -3.34101
LJ           6.38354        -3.26868         2.60268
LJ         -0.959899         5.85283        -5.35956
LJ           5.56986         1.58862         2.86942
LJ          -2.70253         3.43824         4.71265
LJ           4.78781        -2.33502        -2.82591
LJ           6.06208        -5.73415        -1.26886
LJ          -4.99549        -2.75393        -5.92057
LJ           3.31802        -1.27353         1.42978
LJ           5.11847        0.240025         1.29739
LJ          -3.50912          5.4393      -0.0893669
LJ           5.72562         5.91115         3.94105
LJ           1.72033         1.08148         4.79815
LJ           -3.3862         4.15418       -0.620809
LJ          -6.16471          3.0442        -6.26534
LJ         -0.058956        -4.21156       -0.705347
LJ         -0.782571        -1.75404        -4.41504
LJ          -2.25494         4.46979        -2.53995
LJ           -2.1306         1.29015        -2.33549
LJ           5.23267         5.69421          5.4188
LJ         -0.993497         4.15645        -3.65365
LJ          0.602384        -1.29281        -2.52867
LJ          -4.60426          3.6633         2.18183
LJ          -1.85406        -2.99336         4.19431
LJ          -6.32132         1.35553        -5.77706
LJ         -0.491918        -2.39647       -0.278251
LJ           4.35749        0.723111         3.29673
LJ           6.16634          2.9283         4.61208
LJ          -5.54068        0.574942        -5.43419
LJ           5.34147        -5.49993         2.29112
LJ            3.7352        -3.61856         3.40682
LJ           2.21904         5.42572         2.38567
LJ           5.31424         3.86822         3.78584
LJ          -5.33818       -0.766443        -3.35159
LJ          -5.38587        -4.93838        -4.55142
LJ          -5.74146        0.899029        -2.78265
LJ          0.620241        -3.21645        -4.46953
LJ           5.60766         5.37654        -1.47651
LJ           2.55868        -3.94271         5.30056
LJ           3.44721         4.01049         2.06464
LJ          -3.85754         2.26649         0.55407
LJ           3.19264         4.95171        -1.45058
LJ           5.61663         1.57937        -4.79226
LJ          -5.55056        -6.40676         -5.7187
LJ            5.8623         5.69684        -2.66641
LJ         -0.106069         3.95145         6.38285
LJ         -0.125266       -0.673601        -0.96823
LJ         -0.019466         2.53808        -1.39945
LJ           6.29092        -5.09731         2.56111
LJ           2.67575         4.42913          3.0724
LJ          -3.49625        -5.81829         2.31375
