108
#Comment!
LJ          -6.37074        -1.61023         3.26084
LJ          -6.12402        -3.30654         2.17719
LJ          -2.88836        -2.03235        -4.55456
LJ         -0.564407        -5.28994        -3.80476
LJ          -1.45007        -4.90804         2.87803
LJ           1.25882        -4.87457         -1.6836
LJ          -4.36292         4.84964          2.1196
LJ          -6.40284         5.25949         1.52097
LJ           2.74913        -1.89158         4.40038
LJ           1.21256         4.06505        -3.93121
LJ         -0.530212        -6.28204        -5.30545
LJ          -5.01137        -3.17917        -4.93083
LJ          -5.08897        -6.23908         2.64956
LJ          0.258193         4.68955        -1.56535
LJ          0.670168         6.26178       -0.393604
LJ          -1.76024         2.31757         4.14154
LJ         -0.451604        -2.67708         5.56421
LJ           3.19324         2.54417        -1.47482
LJ          -6.40672        -4.77986         4.60697
LJ          -3.95007         5.42456        0.396163
LJ          -0.81528        -3.00932         -3.3086
LJ          -5.43447        -6.25168        -5.35682
LJ          -5.60557          3.0858        0.985006
LJ           4.86759        -5.14622        0.398914
LJ          -5.59381         5.10329         3.83732
LJ          -5.08354        -6.40903        -2.31665
LJ           3.99144        -1.32072        -4.34886
LJ           5.85376        0.752489         0.41614
LJ          -3.72459         2.93786       -0.863221
LJ         -0.457562           -5.31         2.94214
LJ           1.65339        -1.47174        -4.98311
LJ          -1.03971        0.754709         2.14632
LJ           1.89341            6.03        -0.80008
LJ           2.22962        -3.39672         2.82438
LJ          -5.68292        -2.67532        -3.19239
LJ           1.10859       0.0961428        -4.12768
LJ          -3.73673          2.5438         3.61351
LJ           4.36091         -3.9643        -2.13019
LJ           5.36594         5.61023      0.00859091
LJ          -1.78987        -0.10482        -1.03156
LJ           4.56159        -2.17473       -0.439909
LJ          0.543373         5.71941        -1.43567
LJ            3.2218          2.5582         3.80458
LJ           5.92461         -3.9169         3.13548
LJ             1.946         2.86036         4.21167
LJ         -0.391185         4.49176         5.75854
LJ          -4.27353        -4.67024        -1.77384
LJ           1.94467       -0.163781         1.35458
LJ         -0.398077         3.74841        -2.62251
LJ          -2.85194         1.05293         1.60319
LJ          -1.30261        -4.34731        -5.98747
LJ          -3.37536       -0.779587        -4.27145
LJ           3.98624         1.25223        -2.04524
LJ           1.41122        -2.08776        -3.04649
LJ           1.89899         5.06834         3.89165
LJ          -5.24279         1.21862         5.85703
LJ          -6.16566         6.12098        -2.36398
LJ            3.3524         1.69413       -0.461927
LJ           3.51961        -1.99486         1.43924
LJ         -0.736263        -4.50755        -4.37668
LJ          -1.79882        -3.01939         1.98088
LJ          -2.83921        -4.75675        -6.29106
LJ           2.37964        -2.96032       -0.409152
LJ          -5.17333         1.73938        -4.37122
LJ           3.01195       -0.840072        -5.35761
LJ          -2.77201         2.51835        -5.77469
LJ           6.43043        -1.73845        -6.25887
LJ           5.76059      -0.0317605        -3.90212
LJ          -2.13065         -6.4518        -5.32347
LJ           1.93853         6.19198         3.12514
LJ          -4.07915         1.50471        -1.03142
LJ           6.13508         1.43205        -4.76624
LJ           1.11818         5.51738        -2.44885
LJ         -0.314283         2.09983        -6.22344
LJ           5.37414        0.857028       -0.981021
LJ           -2.0963        -6.38812         1.85755
LJ           3.90044        -2.83029         4.98739
LJ          0.599062        -3.24998        -3.31189
LJ           -1.0274        -1.44144        -3.60753
LJ          -3.18971        -6.27743         5.64987
LJ           2.86004        -4.53693        -6.06323
LJ          -4.84273       -0.119222         3.86229
LJ           4.44237        -4.71202        -4.21052
LJ           4.69556         1.31069         4.56235
LJ           6.06822         6.03259         3.28548
LJ          -3.46227        -5.27391        -3.70088
LJ           4.75917         4.49621       -0.791512
LJ          -1.63562         4.95634        -1.39698
LJ           4.09628         1.93721         3.57985
LJ           2.01758         3.25075         6.13883
LJ         -0.744105           1.132        -4.43514
LJ           -4.5089         2.51859         1.06561
LJ          -4.95122         -5.0904         -3.5017
LJ          -2.33932        -1.58627        -5.55645
LJ           1.96658         5.75292         1.57897
LJ           1.72016        -3.52723        -3.78766
LJ          0.889615        -3.12027        -1.18424
LJ          -3.19184         3.15302         4.77517
LJ           3.72798         4.75207        -2.25659
LJ          -5.41728        -4.08875         2.10226
LJ         -0.205704         4.35097        -6.00748
LJ           4.27855       -0.579356         5.04315
LJ          -6.42042         6.44871         1.49094
LJ         -0.221857       -0.964267          -2.956
LJ          -1.63826         4.24476         3.95805
LJ          -5.25997        -3.63852        -3.06188
LJ           3.78704        -6.20224        -1.52297
LJ           4.53671        -5.96397        -6.20022
