108
#Comment!
LJ           -4.6403        -6.25092        -6.00344
LJ          -2.69274        -5.09279        -4.84548
LJ          -6.05205        -4.98641        -6.08698
LJ          -1.60837        -6.14661        -4.44225
LJ          0.246291         6.06186        -5.67215
LJ           3.32236        -3.86302          5.4846
LJ          -4.10747        -5.15106        -3.23486
LJ         -0.145828        -5.76476        -3.86453
LJ           5.04002         6.10061         6.26853
LJ           2.10903        -3.98862        -4.71806
LJ           1.80052         5.20191         -5.7449
LJ           3.30857         5.78077         -4.2209
LJ           4.58072        -1.88679        -4.16403
LJ          -3.05568         1.07319         6.34461
LJ            -5.966         2.75235        -2.51503
LJ          -4.90742        -3.06567        -3.14007
LJ           -1.7651       -0.288792          -5.906
LJ            1.0154        -2.92015         5.88444
LJ          -2.27074         2.73609        -5.11148
LJ           1.29352        -2.28028        -3.63911
LJ            3.1133        -2.29344        -6.04399
LJ           3.59608         2.65491        -4.89339
LJ           3.69225         -2.1869        -2.59493
LJ           6.36265        -2.38368        -2.95876
LJ           5.83363         2.14487         6.42242
LJ          -5.90529         4.65195         5.80424
LJ          -5.63221         2.84501        -4.57825
LJ          -4.24694         3.47979        -4.14924
LJ          -2.67683        0.554996        -5.12512
LJ           -2.8753         3.38427         -5.9729
LJ          -3.99175         5.96583        -5.34548
LJ          -2.44682         2.86213        -4.10132
LJ           3.08661        0.375515        -2.60873
LJ           2.35909         2.44065        -6.30128
LJ           1.26417         4.31882        -5.10654
LJ           2.46903         5.15246        -3.05844
LJ          -4.49432         4.61792        -1.04136
LJ          -4.96784        -5.72311        -2.50875
LJ          -5.49229          5.7013       -0.385881
LJ          -4.83231        -5.06442        0.803656
LJ          -1.24569        -5.69368       -0.296921
LJ          0.367781        -3.06106        -3.65085
LJ          -3.65099       -0.857993        -1.11171
LJ         -0.741021        -5.97501        -1.65464
LJ         -0.779304        -6.08825        -2.92284
LJ          -4.52168        -2.95137          -1.364
LJ           2.52438         -4.5999        -1.20262
LJ            3.6461        -5.80732      0.00766248
LJ           4.90729         2.02059        -2.11105
LJ          -3.07396         1.48393        -3.84377
LJ           3.78829       -0.291139        -2.34005
LJ          -5.79324       -0.876533        -2.98805
LJ         -0.668033        -3.88639         5.47519
LJ          -0.79226         2.52663        -3.05075
LJ          -1.03362         -1.0161       -0.466944
LJ          0.246663        -3.85728         1.67828
LJ           2.37655        -4.37529        -3.04403
LJ           4.53733         1.10061        -3.34064
LJ         0.0379467        -1.54329        -1.37139
LJ           2.89342        -1.23791       -0.410194
LJ           6.06419         4.62488        -1.64133
LJ          -2.93548         3.23445         -2.8475
LJ           3.68871         4.21882       -0.291513
LJ          -4.68952        0.293833        0.422559
LJ          -2.44676         1.07118        0.364058
LJ         -0.369807         3.60186        -3.40751
LJ           -1.4507         1.88334        -0.72967
LJ          0.988877         3.62762        -2.05705
LJ          0.756309         3.25107        -3.23577
LJ           2.16825          4.2602        -1.10217
LJ          0.794104         3.71496            1.09
LJ           3.22241         3.60363         1.31129
LJ          -6.03376        -6.13684         2.00746
LJ          -4.78688        -3.94903          3.7738
LJ          -6.16628        -2.72514         3.93323
LJ          -4.68853         5.04396         3.23159
LJ         -0.255105         5.19256          3.9753
LJ       -0.00773611        -5.87094         3.07528
LJ          0.320473        -0.17557         4.32358
LJ           0.62256        -5.38527         4.06524
LJ          0.321128         5.33586         1.17283
LJ            4.7492        -4.89823         1.55354
LJ           3.49102        -5.00142         3.81058
LJ           3.76066         5.63362         5.22886
LJ           5.98182        -3.01206         1.80187
LJ           5.84311       -0.795526         1.72046
LJ          -5.42668         1.39116         4.40535
LJ          -5.96086       -0.590146         2.60638
LJ          -4.63871        0.154886         1.50423
LJ          -1.58864        -3.59494         2.99143
LJ       -0.00836977       -0.784497         2.98305
LJ           1.88777        -2.51662        -5.86973
LJ           3.17275        -3.20086         1.02923
LJ           3.57712         1.13393         2.25371
LJ           4.94414         1.67925         3.99808
LJ           4.86413        -1.78079         2.58425
LJ           5.87609         1.94543        0.844903
LJ           -4.8113          5.7123         2.27739
LJ          -5.43477         2.78425         5.02926
LJ          -1.91748         2.25754         2.35409
LJ          -1.46336        0.825313         2.15503
LJ         0.0738211         5.64845         2.41984
LJ          -1.13546         3.90254         5.76811
LJ         -0.935954         1.81242        -6.22361
LJ           2.87547         2.56104         2.57107
LJ           5.14193         2.62914         2.13924
LJ          0.866801         2.36214         4.20832
LJ           5.42708         1.41985         5.79537
