108
#Comment!
LJ           2.29844         5.69446         2.47162
LJ          0.545938         1.60326         4.53296
LJ            4.6844         1.29572         -2.2367
LJ           1.90422         -2.6848          6.2829
LJ          -3.55599         4.23573        0.397464
LJ           5.76819        -3.79199         2.00173
LJ          -5.15686          2.6502        -3.91206
LJ           3.60348        -4.30048         5.36907
LJ           3.70446        -4.27072        -3.94913
LJ           2.48323         3.86298         6.19115
LJ          -5.05223         3.43739         -2.6063
LJ          0.500154       -0.511995         1.53269
LJ          0.706916        -6.13079        -1.79678
LJ         -0.845979        -1.79973        -4.40034
LJ           2.45399        -4.29658         3.00677
LJ          -3.78905        -3.74986        -3.36516
LJ         -0.589978         -5.5347        -5.41757
LJ           4.28451         2.27242         0.69931
LJ           2.69609         4.77862         4.80632
LJ          0.363131        0.984813          1.9184
LJ          -0.34677         -4.4441        -3.23394
LJ          -1.45857        -1.01719        -1.60718
LJ          -5.41277        -3.33289         3.38594
LJ           4.47025         3.18008        -1.80712
LJ           4.39337        -1.24002          1.4727
LJ           -0.8314         1.94896        -4.96492
LJ          -5.31925        0.974761        -0.62092
LJ          -4.93134         4.12446         6.02746
LJ          -2.69554        -1.97722         -5.8584
LJ          -3.25607         1.55432        -1.93815
LJ         -0.237201        0.154439         5.73369
LJ          -2.99931        -2.81916        -2.75699
LJ           4.85029         2.39931        -3.72235
LJ          -6.10335        -1.06883        -3.25916
LJ           3.36087         1.95729         5.21744
LJ           4.90387       -0.732056        -3.40008
LJ          -5.34793        -4.64548        -6.17783
LJ           3.94492         -3.5913        -4.52838
LJ           -1.5113         -2.7678        -1.06184
LJ         -0.222901         -4.5181        -4.37418
LJ            2.8706         5.48713        -3.42203
LJ           -1.3959        0.454929         3.70009
LJ           -1.8747       -0.865498         0.60697
LJ          -6.13916        -4.48117         0.35802
LJ          -1.64371        -3.12503        -3.32512
LJ             5.159        -1.12828         -5.6441
LJ            1.5195          1.4859         4.25972
LJ           5.91099         2.95362        -4.10588
LJ          0.156031         5.52853        -4.71512
LJ          -5.48789        -4.59385        -4.52736
LJ           5.23572        -3.45371         5.98234
LJ          -3.95753       -0.531475         2.09549
LJ          0.631385        -5.19109        -3.35887
LJ           6.16663          6.3325        -3.75869
LJ          -6.18917          4.1757         5.92865
LJ          -4.47752        -3.41166        -1.16522
LJ          -4.28947         4.87144        0.754874
LJ           3.70981         2.70569        -4.63713
LJ          -6.41253         5.97342         -5.5977
LJ          0.439846         6.29498         2.93443
LJ         0.0550082        0.434425          -1.734
LJ          -4.11475         0.12333        -5.27082
LJ          -6.05147        -4.84501         1.81039
LJ            3.3347        -2.57455         3.33601
LJ          -4.37279         -1.7152       -0.195198
LJ           4.09223         4.87165        0.319938
LJ          -5.72999        -5.90032        -3.08843
LJ           6.40416        -2.92835         1.66142
LJ           2.75505         3.68647        -5.14202
LJ          -1.42938         2.71151        -2.25065
LJ           4.34163         3.16735        -2.95365
LJ           3.41611        -2.54172      -0.0734033
LJ           3.71455         -5.7309         6.25487
LJ           -3.4869        -4.79982        -4.49697
LJ           -1.4707         6.15166         2.36061
LJ           3.46354        0.212058          1.7682
LJ          -1.97525         4.86142        -2.63654
LJ          -5.57751         5.65212         1.05243
LJ          -4.94508        -2.31748        -4.70867
LJ          -6.33108         4.29994         -4.7706
LJ          -3.26264        -4.20619        -2.30177
LJ          -6.36174        -2.45738        -2.75378
LJ         -0.483695         3.15977        -4.22096
LJ         -0.876091          1.6599       0.0904642
LJ          -4.84207         5.33637         2.46862
LJ           -4.6867          1.2091        -4.00552
LJ           5.14527        -1.60133         2.97937
LJ           3.24695         2.63443      -0.0727781
LJ           3.44085         2.71779        -2.51773
LJ          -4.44871        -3.97907        0.905015
LJ          -4.73959         1.98974        -6.01773
LJ          -1.64607      -0.0117593        -1.18361
LJ          -5.59802         4.26497        -5.57917
LJ           5.41003        -1.74362        -6.42053
LJ          -4.73857         6.40902         -2.1138
LJ           4.19207         6.41101          4.0125
LJ          0.549782         5.80334         4.50787
LJ           -5.2597         3.30619        -5.05475
LJ          -3.71209         3.20765        0.629966
LJ          -0.42009        -5.38591         2.56025
LJ          -1.41693         4.82517       -0.909602
LJ           3.18787        -4.91222          3.1302
LJ           3.94638         6.31765         2.03394
LJ         -0.453503         1.29356         5.52353
LJ          -4.05135       -0.381053        0.513382
LJ           4.27426        0.602158         5.22536
LJ           4.37356        -2.78083         2.78988
LJ           2.16974         4.90729         6.41652
