108
#Comment!
LJ          -4.55332         1.25941          5.0362
LJ          -1.19482         3.64238        -4.43966
LJ           -4.6046         5.77234         4.66699
LJ           3.13258        -5.33107        -1.77206
LJ           2.09614         1.24021         3.39169
LJ           -2.3847        -4.08271         2.35179
LJ           4.88258        -2.76103       -0.962389
LJ           2.77162        0.760162        -3.23461
LJ          -2.03979         2.94379         3.38068
LJ           -4.2327        -3.92399        0.750988
LJ           2.16503        -2.63132         1.96351
LJ         -0.913413         4.55122         6.17406
LJ          0.176179        -6.28697         4.55649
LJ          0.339407         3.18501        -6.35459
LJ          -3.78876        -5.29793         1.06269
LJ          -5.13218         -6.1917        -2.47004
LJ          -2.03526        0.225194         -2.1841
LJ           4.21704         5.27936         2.55178
LJ          0.141385         3.25009          -4.659
LJ           4.87665        -1.84166         -2.8823
LJ           4.29958        -3.02649        -3.00159
LJ          -1.43798         5.90909        -2.90667
LJ          -6.44026         4.52819          0.1644
LJ          -3.37183        -2.68854       0.0260481
LJ           5.68876         4.78745        -5.00273
LJ           2.50183         5.10186         3.71862
LJ           4.39472        -3.44765         5.79227
LJ           4.63968         4.69799         5.28527
LJ          -1.82176       -0.245984        -1.28965
LJ           3.51828         4.54003         1.90883
LJ          -4.35906         3.64209         6.08682
LJ           6.32796         1.37492        -5.11978
LJ          0.425853         4.13624         2.12761
LJ          -3.32231       -0.558972        -3.66347
LJ           1.83294         3.70177         5.61955
LJ           1.94144        -5.99663        -1.02071
LJ          -4.53777        0.251177        0.766795
LJ          -3.59905         4.50463        -0.67531
LJ          -2.15831         -1.0734        -0.54349
LJ          -5.77525       -0.586895         0.55679
LJ           2.20506         -4.1787         4.19498
LJ           1.33761       -0.168276         5.63861
LJ          -5.86275         4.59909        -2.88027
LJ          -1.67943          5.8265         3.27919
LJ           6.34964         -1.3246        -2.29389
LJ           3.07938         0.50832         2.17448
LJ           2.64636        -2.26508         5.96837
LJ           1.49621        -4.05049         0.41287
LJ           1.26861        -2.09816         -2.5373
LJ           6.16834         1.66752         4.34749
LJ           6.03973        -4.94879         3.72695
LJ           4.36403       -0.363555        -5.98659
LJ          -2.55478         1.02438          1.3196
LJ          0.465815         1.84838        0.548535
LJ           2.11337        -3.09479        -1.37396
LJ         -0.236323        -5.01728         3.71507
LJ           2.42046        -3.38406        -6.34585
LJ           5.17934      -0.0134709        -0.33774
LJ           0.54455        -5.10216         -4.8576
LJ         -0.922261        -0.98263       -0.732415
LJ          -3.71566        -5.11432        -3.57406
LJ           4.52892         5.22427         -2.0483
LJ          -2.32796         5.23398        -1.74158
LJ          -5.81355        -3.93527        0.793581
LJ          -3.71012        -2.79846         6.02414
LJ           2.02918        0.826383        -1.60135
LJ          0.610249       -0.258167        -3.11008
LJ           2.25822        -2.18709        -2.21197
LJ          -2.55687         5.26131        -2.74622
LJ          -2.63612        -6.37921        -1.81273
LJ          -0.88824         2.91027        -1.77686
LJ           5.00044        -6.45139       -0.419261
LJ          -4.58172        -5.42326          1.6494
LJ          -5.31906        -2.14248        -4.05404
LJ          -4.82163         2.76711         2.84882
LJ          -6.03341         4.19978        -1.27055
LJ           4.75953         1.08849        -5.37373
LJ          -1.54736       -0.767255        -6.32809
LJ          -2.36433       -0.569503          4.7306
LJ           2.87927        -3.29099         2.17276
LJ          -3.40097         3.03733        0.355281
LJ           5.39219        -5.75426        0.686468
LJ           5.79181         6.14533         2.34935
LJ           2.82982          3.5942         -5.8324
LJ           5.57706         -3.5664         3.28417
LJ           5.03967         1.97592       -0.987144
LJ          -3.05426         1.99939         2.67063
LJ           4.85703         1.91117        0.787104
LJ          -6.20371         2.02232        0.981127
LJ          -5.59162         4.94125         5.38331
LJ           4.42369        -4.46485         4.07279
LJ          0.412774        -3.55906        -3.74055
LJ           4.17524        -3.72835         3.20084
LJ           5.15812          2.8923          1.7201
LJ         -0.927982         6.21597       -0.148403
LJ           3.46895        -5.31837       -0.367605
LJ           2.87389         4.97455        -2.45344
LJ          -4.19461        -6.00674         4.90545
LJ          0.476028         4.32475         5.74385
LJ           2.77961         2.45295       -0.811884
LJ          -1.73904         1.88595         1.74925
LJ          -4.68187         3.61979         1.61763
LJ           3.18151          2.8761        -2.09656
LJ          -2.73806        0.169086        -6.33888
LJ           3.75874         5.14165         5.16747
LJ           6.19314         -1.3147         3.28177
LJ          -3.89511         0.27466         3.41645
LJ           5.97847        -3.80334         6.29494
