108
#Comment!
LJ          -3.21604        -3.20008         4.95025
LJ          -1.38399        -5.50863        -5.77238
LJ          -4.40988         3.24578        -2.73812
LJ           5.47747        0.437583        0.485771
LJ          0.803182        -4.03471         5.07051
LJ          -5.83814        -4.13804         -2.9273
LJ          -2.63669          6.4104          4.4551
LJ         -0.262841        -4.83023         6.07198
LJ           4.91207         2.28117        -2.29544
LJ          -4.83057        0.654634         3.26877
LJ          -5.29869         1.70167      -0.0544579
LJ           -2.1523         2.65321        -5.16187
LJ          -6.25845        -4.80796        -5.03688
LJ          -6.05522         5.86713         1.49315
LJ           1.87037         5.47514          6.3246
LJ           2.43851         3.66288        -1.11126
LJ          -4.87283          -2.024        -2.29243
LJ         -0.843714         3.07935        0.314612
LJ           2.19061        -1.16294         3.83752
LJ          -2.69621        -4.43434        -5.74352
LJ           5.73422         -3.4737         2.81569
LJ          -2.21406         5.23302        -1.40081
LJ         -0.630606        -5.51423         4.79959
LJ          -2.48872         4.08992        -4.41193
LJ          -5.29373         -5.2018         2.67286
LJ           2.84563        -3.37245        0.821192
LJ          -5.69772         4.50533        -1.41566
LJ          -5.08935    -0.000521763        -6.12336
LJ           5.49541        -2.32627        -1.80446
LJ          -3.66172        -5.94962       -0.624844
LJ           5.47392        -4.00952         3.61968
LJ          -1.98421          2.6661        -2.92227
LJ          -5.58613        -1.19783        -6.27591
LJ           2.74828        -1.81859        -1.07378
LJ          -5.98419         4.54938         1.49363
LJ           -2.2795         2.35864         2.74143
LJ          -5.81255        -1.49396        -4.49753
LJ          -6.21129        -2.29507        0.243641
LJ          -3.69535         5.83772        -5.49184
LJ            3.8401         -2.3463         -3.5974
LJ         -0.697949         -5.6184         3.29392
LJ          -3.14354       -0.427897          2.8643
LJ            5.2316         5.58716        0.378562
LJ           1.86605        -3.33207         3.03123
LJ           2.46853        -1.78586        -4.59437
LJ           0.32794        -1.35259        0.147322
LJ           4.29049        -3.33796        0.804596
LJ          -5.02569         -4.4045         1.60989
LJ            -1.442        -1.63164        -2.00101
LJ          -5.07452        -2.58162         5.17851
LJ           4.33345         1.13569        -0.84124
LJ          0.782422         3.57329         2.77632
LJ           1.35424         3.15807         3.90356
LJ         -0.767275        -5.36103         2.33416
LJ          -3.17493         1.54404        -1.52339
LJ           2.08623        0.508824        -0.24598
LJ          -3.34014         6.32063         5.72259
LJ          -1.27376         3.16465         -6.0442
LJ          -5.43323        -3.49144        -6.16853
LJ           1.13081        -5.81898        -4.80613
LJ            2.7821       -0.481336         3.01958
LJ          -2.32062        -3.82278        -3.19771
LJ          0.513409        -4.00839         3.58166
LJ           1.69336        -6.04175        -1.37624
LJ           3.75715         -4.2417        -1.48505
LJ           -5.9096         2.21621        -6.11759
LJ           -1.8636        0.636698         -4.8206
LJ           4.31647         1.67786        -1.91629
LJ           3.25567         3.36105         4.20222
LJ          -6.05568        -5.50594        -2.83827
LJ          -6.12977         2.45071        -3.25418
LJ          -2.38765        -2.20041        -3.25336
LJ          -2.47949         1.20566        -2.29782
LJ           3.47677         4.95898         3.42697
LJ          -4.81453        -6.12605        0.428607
LJ          -2.07908        -1.63001         4.94672
LJ          -5.19097        -1.87018          1.9837
LJ           1.10689         4.46938        -1.86843
LJ          0.667194         5.61204         5.98224
LJ             3.466       -0.174911         1.62913
LJ           1.84964        0.382173         3.76425
LJ           3.65881        -3.14066        -4.17257
LJ          -4.53558         -3.5279         6.08197
LJ           -4.7163         3.48079        -5.89281
LJ           5.13899         1.92156        -4.49495
LJ           5.10367       -0.490784        -3.54763
LJ           1.35612        0.164897         1.95689
LJ          -5.12487         1.26739         2.37383
LJ          -1.17133         6.29372        -3.64654
LJ         -0.642141         2.60839         3.81976
LJ           1.13175         5.01024        -3.35719
LJ           1.61854         -2.2811         2.08617
LJ          0.226801         2.07681         1.63158
LJ           4.44971       -0.668935         2.48643
LJ          -6.42538        0.379509         1.47744
LJ           2.05239        -2.32937        -3.15464
LJ           4.49746       -0.225512           3.923
LJ         -0.955392        0.168785        -4.30986
LJ          -1.58209         1.68168         1.90026
LJ          -1.32675         3.27351        -4.11751
LJ          0.740179        0.781481        -4.49526
LJ          0.889995        -2.72227        -4.09745
LJ           2.34933        -4.93631        -2.31343
LJ          0.493222        -5.11927        -1.98949
LJ          -1.70677         1.14463        -6.15485
LJ          -3.23476        -5.83869         6.38787
LJ           1.96489         4.79094         1.12543
LJ           -0.4076         2.09929         5.57418
