108
#Comment!
LJ          -3.35248         -3.8361         2.29595
LJ          -2.06229         3.43079        -5.36207
LJ          -6.32924        -4.74886         3.67527
LJ           6.17558        -2.55655        0.779256
LJ           5.11707        -4.23982      -0.0644639
LJ           5.45743        -4.02199        -1.29399
LJ           1.84511       -0.106362        0.322299
LJ          -5.59399        -5.28186         -3.3593
LJ          -1.32783         3.71799         4.29882
LJ           2.62565         1.82299         1.63949
LJ           -2.2993        -1.57005       -0.289455
LJ          -3.42585        0.727451         5.39357
LJ             -1.02         3.96451           2.766
LJ           5.84931         3.42648        -5.05617
LJ          -1.02479        -3.83698         5.10909
LJ          -1.81362        -5.71272        -6.07626
LJ          -3.05608       -0.174411         1.61888
LJ          -3.70628         3.97211         1.41209
LJ          -1.16794         1.22287         -6.2818
LJ           4.97102        -1.16585        0.077484
LJ           5.98201        -3.01019         1.73994
LJ          -2.77759        -4.71042        -3.84471
LJ           -2.3982         1.40878         1.80317
LJ          -5.40613        -4.02154         4.57927
LJ           5.24312         3.99771         3.34475
LJ           1.68048         4.07148         1.48734
LJ          -1.72094         3.01856         6.44195
LJ          -5.76491         3.78703         1.92647
LJ          -3.40828        0.945511        0.687461
LJ           -5.2422         4.19783        -1.51427
LJ          -4.09648        -1.19408         5.09606
LJ          -4.92072         2.00586         5.44184
LJ           2.57841        -5.09529         1.85454
LJ           -4.2096        0.187157         1.92128
LJ          -1.22351         4.43385      0.00141548
LJ          -5.23544        -5.92747       -0.958328
LJ          -2.54485        -2.57462       -0.123816
LJ          -2.65421         3.43571         2.03724
LJ          -3.37814         4.77776        0.759466
LJ             4.318         3.38413         2.97196
LJ           2.52886         5.12154        -3.33416
LJ           1.83677         1.00226         2.14348
LJ           5.25004         -6.0193        -4.90703
LJ          -5.50555       -0.496291        -4.39601
LJ         -0.728602         3.22622        -1.94559
LJ           1.19545        -3.47056         5.72588
LJ           2.59132        -1.95312         1.06217
LJ           2.36464        -5.85685        -3.90854
LJ           2.45962         4.52197        -2.59929
LJ          -2.74812         2.58961       0.0881825
LJ           -5.8277         1.34272        -4.05672
LJ           3.47129        0.791468        -4.26929
LJ           5.56053        -2.44444        -5.11038
LJ          0.780531        0.720757          4.6936
LJ           1.21245        -5.98876        -3.41802
LJ           5.93066        0.770768         1.65387
LJ           2.87861        -1.26558         2.13111
LJ           4.28061        -1.84639         6.08635
LJ           3.16901         4.92876         5.60698
LJ           2.58608        -2.63494       -0.434133
LJ           1.01952         0.38376        -5.31026
LJ          0.022509            3.09          4.2666
LJ           3.27202         4.79161         1.48773
LJ           5.99701         5.06206         2.77605
LJ           4.51094        -3.49077        -4.13787
LJ           3.59572         4.10392         2.64062
LJ           3.28521        -6.27479        -4.91751
LJ           1.68881         5.82887       -0.510767
LJ           4.94874         5.12484         -4.0446
LJ           -6.0258         6.22377       -0.101021
LJ         -0.172247       0.0840512         2.25847
LJ           4.67844        -3.88398        -2.24612
LJ          -5.64133        -3.79657         3.09053
LJ          -4.32653        -5.80673        -1.32267
LJ          -3.57845        -4.10822        0.792848
LJ          -1.05598         5.62082        -6.26859
LJ           1.28025         2.63853        0.594531
LJ           -3.8484         2.04647        -3.48995
LJ          -3.79314        -4.95862         5.11612
LJ          -6.11079          6.3897         2.00178
LJ          -4.61808         2.32081        0.262589
LJ           2.25687         5.28331         4.21895
LJ          -5.97354         4.38606         2.78326
LJ          -6.35149         2.77685        -5.54037
LJ          -6.36776        -3.22436         2.53973
LJ           5.92594          -3.484        -2.26821
LJ         -0.411132         4.96919         1.05556
LJ          -4.47106         3.13848         1.40328
LJ           5.90379         3.95883         1.44859
LJ           4.81706         5.67813         2.54528
LJ           5.80211        -4.54087         3.06639
LJ         -0.253093         5.13288          5.7574
LJ           2.31778        -2.71123        -6.27402
LJ           6.14285         1.91168        -1.19173
LJ          -5.26559       -0.450988        -2.24258
LJ           5.26919        -5.88026         1.39294
LJ          -2.44787        -3.96554         4.72218
LJ           -6.0669         6.27663        -5.52848
LJ            1.2837         1.41333         6.44014
LJ           5.37955         1.22337       -0.989726
LJ           4.02598         4.43958       -0.674974
LJ          0.237285         1.47466         3.47371
LJ          -6.03565        -3.01484        -5.14951
LJ          -2.89208        -2.61045          6.0299
LJ           5.76453         2.22873        -4.17889
LJ          -5.33769        -5.53538         6.43016
LJ           2.54691        -2.03568         4.09606
LJ           5.10315        -3.56571         -5.5939
