108
#Comment!
LJ          -4.14814         -6.4357         3.07528
LJ           -1.5424         3.67994        -4.81449
LJ          -4.27178         5.08605          3.4627
LJ           5.87811        -3.70449      -0.0702513
LJ            3.6912        -1.82519        0.853068
LJ           2.36615        -4.20709        0.200211
LJ           2.80432        0.660437        0.562901
LJ          -6.39842           4.675        -4.91715
LJ          -1.70152         3.07461         3.96008
LJ           5.06128        0.531707         1.49808
LJ          -0.61697        -2.22541        0.355214
LJ          -1.98794         3.82394         4.90956
LJ          -1.28291         5.15773         5.02188
LJ           3.35448         4.02527        -5.27441
LJ          -0.96577        -5.28079         3.32594
LJ          -1.28789          5.4152         6.14718
LJ           -2.6957       -0.133449        0.149391
LJ          -5.48714         3.93585         1.59724
LJ          0.117451         2.03937        -5.64567
LJ           4.63603       -0.590586        -1.39217
LJ           4.80562        -3.36898       0.0510299
LJ          -3.48971        -5.15392        -3.40834
LJ          -4.39895         2.50029         1.45166
LJ          -4.44083        -3.50181         2.84733
LJ           5.46088         5.95703         4.49614
LJ           2.80226         2.26271        0.887196
LJ          0.112464         4.78354         5.47445
LJ           5.90111          3.5303         2.03498
LJ          -2.48212        0.977282       0.0742732
LJ           -1.5139         4.59644       -0.827009
LJ          -4.16948        0.648209         5.47229
LJ          -5.58486         1.72208        -6.25102
LJ          0.132337        -5.98898         2.80809
LJ           -4.4652       -0.458576       -0.404032
LJ         0.0530859         3.13949          1.9674
LJ           5.36832        -4.80585       -0.968689
LJ          -4.40846        -2.58339       -0.299656
LJ          -2.64757         3.71237         1.09806
LJ          -2.75476        -6.02816        0.245943
LJ           5.62237          2.0764        0.859069
LJ           3.80238        -4.90624        -4.73093
LJ           2.19396         1.30134           3.121
LJ           5.38201        -6.00995        -4.55522
LJ          -4.22462         2.75783        -5.82338
LJ           1.97427         1.29529        -2.17675
LJ           1.84854       -0.409207         3.50692
LJ           2.51784        -2.07337         2.57975
LJ           1.64212        -5.09484          -2.784
LJ          0.930165         3.05882        -1.55271
LJ          -4.28405         4.19755         2.76878
LJ           -5.5253         4.57564          -5.281
LJ           3.56979        -1.11005        -5.19569
LJ           6.13908        -1.32066        -3.54593
LJ           1.09906        0.312328          3.2578
LJ           2.14347        -4.81442        -1.59871
LJ          -4.32913        -1.33528         2.56431
LJ           2.94834        -1.86822         3.82681
LJ           5.23352        -1.32595         3.18784
LJ           3.71949         4.47689         5.90488
LJ           1.15506         -1.9061       -0.693789
LJ          -0.78892        -1.72842        -4.62686
LJ          0.535568          3.8657        -3.37357
LJ           5.60321         5.71513        0.168516
LJ           6.42819         6.42694         2.21589
LJ          -5.51817        -4.15163        -3.98431
LJ           2.73608         1.75309         2.33969
LJ           2.20453         3.72947        -4.13852
LJ           2.41348         3.20577        -1.36557
LJ           -5.9864         5.56699        -3.33044
LJ           -4.3857        -6.05986        -1.89055
LJ         -0.507102         2.18228        0.396291
LJ           5.32224        -5.96344        -1.44513
LJ          -5.46955        -4.72691         2.36639
LJ          -4.76293        -3.09604        -1.18834
LJ          -3.96017        -6.34838          1.6596
LJ          -4.29801         3.88027        -5.22798
LJ           3.86599        0.518545        -1.36369
LJ          -3.91707          2.6959        -4.74032
LJ           4.27757        -3.62393         5.05788
LJ           5.25433        -4.97267         1.87861
LJ          -5.19582         2.43384        0.222326
LJ           3.25485         6.05622         2.62466
LJ          -6.31562          4.5079         1.71151
LJ           3.93102         3.51808        -6.21809
LJ          -6.41675        -2.90629         2.64806
LJ            5.9885       -0.846246        -1.62239
LJ          0.578412         3.59409        -0.72321
LJ          -5.63281         2.77723           1.673
LJ           5.98112         1.59309         1.74758
LJ           4.20717         5.09473         4.29808
LJ           5.20084         -6.1701         3.99864
LJ         -0.392992        -6.37869        -5.98552
LJ           4.69867        -2.64852         6.07872
LJ           5.95166         3.60327        0.585293
LJ           4.32859        -3.83992        -3.36092
LJ           4.28883        -6.33793         1.44144
LJ        -0.0872968        -5.10192        -5.58395
LJ          -4.64209         5.36468        -5.97465
LJ        -0.0994867         4.13535         6.39222
LJ           4.12397         2.21023        0.281207
LJ            1.4122         3.47625      0.00997776
LJ           3.30753         2.52744         3.43261
LJ           5.85323        -6.25263        -3.50231
LJ          -2.92562        -1.59377         6.18536
LJ           4.65571         3.31988        -5.41385
LJ          -6.23742        -4.33474         5.31536
LJ           4.69627       -0.844451         4.37526
LJ           4.78556        -4.41953        -4.51119
