108
#Comment!
LJ          0.650002        -4.85647         4.85991
LJ           2.78161        -5.56784          4.4154
LJ           1.50462        -6.44231         4.58788
LJ           4.40808         4.89096         1.60567
LJ           1.02355        0.165243        -1.03602
LJ           4.88333        0.825436        -3.76843
LJ          -3.23395         1.41012        -5.51402
LJ          -5.75841        -4.65976        0.297037
LJ          -4.14977        -4.04983         5.39684
LJ         -0.819585         5.80207         2.33639
LJ           4.27367         4.13935        -2.06381
LJ          -1.51799        -0.23316        -3.87364
LJ          -5.35227          4.8253        -2.73995
LJ          -4.71655       -0.519878         3.61184
LJ           3.66246        -3.62594        -2.88622
LJ          -2.94937        -1.41185        -1.74164
LJ          -2.61551       -0.285867         6.31033
LJ          -5.24899        -6.05629        -6.45355
LJ           6.38661         3.98612        -5.90472
LJ          -2.25792         5.44519        -6.30725
LJ          -5.67376        -3.94995        -2.31472
LJ           1.97607        -1.81875         6.00989
LJ           -3.7561         4.01953       -0.678384
LJ          -5.80175        -4.77034         4.66105
LJ           6.20197        -4.91237        -4.05295
LJ          -1.22881        -6.32436         2.97389
LJ          -5.04849        -4.86271         3.53888
LJ           4.43877         4.10693         4.21558
LJ          -4.38311         3.22544        -1.01139
LJ          -2.11264       -0.995457         3.31333
LJ           5.61343         5.10811        -0.26313
LJ          -2.14154         1.87777         3.27526
LJ           3.72135       -0.467641        -1.88845
LJ           2.94774         3.30678        -3.15209
LJ            2.0019         5.32134        -3.41067
LJ        -0.0195366        -6.11453         1.25864
LJ            5.7877         5.16058         -6.1872
LJ          0.334085        -2.28597        -3.31583
LJ          -4.55513         4.05887         6.18074
LJ           1.74161        -2.10028          -1.362
LJ           5.83792        -5.52628        -0.66652
LJ           -1.3744          5.7269         3.63057
LJ          -4.75381         3.56399         5.25531
LJ             1.811          3.7549         3.46727
LJ          -2.20375        -2.14978         2.05642
LJ           6.03326         2.36469        -4.41214
LJ           2.14886       -0.577603           -3.73
LJ          -5.74965       -0.895851          3.5248
LJ           4.42984        -5.96712        -1.65275
LJ         -0.829628        -2.92783          2.2752
LJ          -6.20047         -2.6977        -3.37814
LJ          -3.28921         4.60025         3.53557
LJ           3.17794        -2.55175        -6.38657
LJ          -2.22347          3.2325         5.22839
LJ          -6.08136         -6.1518          5.7219
LJ         -0.909123         5.74175         5.68199
LJ           6.23977        -4.72241         1.02467
LJ           2.27738       -0.155645        -5.42831
LJ          0.422908         3.15459        -2.09422
LJ          0.992984        -6.36393        -5.08731
LJ           -3.8754        -1.81149        -1.37203
LJ           2.70985        -3.52298        -5.80274
LJ          -3.83015       -0.592392        -2.23948
LJ          -6.18027        -3.12312         1.29464
LJ          -4.16126         -4.8353         4.31077
LJ          0.748795         2.30784         1.58106
LJ            3.1308         2.48685         3.93541
LJ          0.241058         4.40273         1.13815
LJ           4.75835         2.02394         6.41439
LJ           2.40885         1.52267         1.98322
LJ           3.41223        0.915781         6.11323
LJ            3.8546         4.59291         6.39233
LJ           1.54339         2.23073        -2.96778
LJ          -1.45364         -5.6184        -5.98755
LJ           1.36702        -3.60648         2.43562
LJ           1.09707        -5.17182        -5.52686
LJ           2.15627         2.25584         5.06698
LJ           2.62232          6.2433         2.55347
LJ          -6.30326       -0.377774        -1.98238
LJ          -4.81613         4.71003        -4.22581
LJ            4.6434        -1.28605       -0.151547
LJ          -4.57974         1.27989         3.84187
LJ         -0.169965         2.63676         1.59061
LJ          -6.07571        -1.19468        -2.68158
LJ          -4.67733         3.16322        0.473085
LJ          -1.81008        0.871561        -3.29377
LJ            6.4012        -6.13145         4.30326
LJ           3.23226        -4.15651        -4.03644
LJ           3.74339         -3.9275        0.882033
LJ          0.653043        -1.08387       -0.228111
LJ          0.568002          5.6883        -1.69361
LJ          -1.02394        -5.44008        -2.50483
LJ          -5.44577        -6.34906        0.253718
LJ           4.76602         1.89054         3.13219
LJ           2.88356         1.75793         2.93298
LJ          -5.61515         2.69523        -2.11311
LJ          -6.24635         1.53459        -2.15611
LJ           4.65583          6.0955         2.29816
LJ          -5.67227         -1.7185         4.09894
LJ           -6.4186         3.08286         2.79317
LJ           1.52824        -3.00694       0.0010642
LJ           4.24232         1.93045         4.01923
LJ         -0.235494        -2.72158         3.55818
LJ          -3.41607        -1.50573        -2.80293
LJ           2.85828         6.10552        -6.36907
LJ          -5.68442         1.54494        -3.10139
LJ           2.74857        0.566421        -6.02206
LJ          -1.89131        -3.09668        -4.70059
