108
#Comment!
LJ          -4.54999        -6.20026        -5.95694
LJ          -2.61208        -5.18414        -4.72807
LJ          -6.04513        -5.02077        -6.12897
LJ          -1.47725        -6.14291        -4.40255
LJ          0.368464         5.85299        -5.71028
LJ           3.47093        -3.86582         5.42646
LJ           -4.2072        -5.17887        -3.20426
LJ         -0.143726         -5.7561        -3.73277
LJ           5.21277         6.06113         6.24704
LJ           1.99208        -3.93943         -4.6702
LJ           1.76712         5.04752        -5.81669
LJ           3.22693         5.75507        -4.23984
LJ           4.50976         -1.8936        -4.07385
LJ          -2.99966         1.11271         6.32752
LJ          -5.93015         2.85598        -2.45035
LJ          -4.93283        -3.14264        -3.07265
LJ           -1.7321       -0.212876        -5.84507
LJ           1.07492        -3.01929         5.82227
LJ          -2.22917         2.73871        -5.10961
LJ           1.30271        -2.29336        -3.64156
LJ           3.16112        -2.28788        -6.00835
LJ           3.50179         2.75992        -4.82294
LJ           3.72108        -2.30719        -2.47204
LJ          -6.41408        -2.36254        -2.91532
LJ           5.80665         2.15954        -6.36306
LJ           -6.0281         4.66956          5.7764
LJ          -5.62299         2.74819         -4.6043
LJ           -4.2783         3.51788        -4.14814
LJ          -2.68881        0.501281        -5.01775
LJ          -3.01916         3.42064        -6.07218
LJ          -4.06572         6.03448        -5.43454
LJ          -2.58604         2.84036        -4.03817
LJ           3.14253        0.349729        -2.48977
LJ           2.25126         2.36765        -6.26695
LJ           1.22188          4.3174        -5.12753
LJ           2.37014         5.26707        -3.01364
LJ          -4.43189          4.5387       -0.990964
LJ          -4.93217        -5.81291        -2.49746
LJ          -5.47844          5.5504       -0.378004
LJ          -4.86242        -4.97084        0.813805
LJ          -1.17131         -5.6579       -0.233203
LJ          0.411447        -2.94785        -3.72067
LJ          -3.70225       -0.698795        -1.16963
LJ         -0.759982        -5.94824        -1.78051
LJ         -0.925868        -6.02919        -2.96322
LJ          -4.35454        -2.88614        -1.32468
LJ           2.53212         -4.5528         -1.2963
LJ           3.57965        -5.77527       0.0307151
LJ           4.82502         2.19797        -2.09798
LJ          -3.00752          1.5166        -3.95771
LJ           3.74951       -0.384359        -2.44214
LJ          -5.85627       -0.829324        -3.11534
LJ         -0.620013        -3.85828         5.26262
LJ         -0.974585         2.60625        -3.00639
LJ          -0.96912        -1.05492       -0.442686
LJ          0.247853         -3.8777         1.77098
LJ           2.37642        -4.38647         -3.1182
LJ           4.57742          1.1363        -3.36186
LJ        -0.0485407        -1.58511        -1.41596
LJ           2.82588        -1.21953       -0.419988
LJ            6.1009         4.71303        -1.68876
LJ          -2.86254           3.205        -2.93505
LJ           3.51159         4.24144       -0.277334
LJ           -4.6961        0.198873        0.408428
LJ          -2.48085        0.985139        0.471436
LJ          -0.34222         3.50954        -3.49192
LJ          -1.41371         1.77306        -0.79736
LJ           1.01963         3.70695        -2.18181
LJ          0.719234         3.32104        -3.25029
LJ           2.07406         4.26804        -1.08984
LJ          0.735411          3.6928         1.13473
LJ           3.19357         3.69746         1.37685
LJ          -5.99314        -6.13252         2.01008
LJ          -4.80759        -3.91778         3.87127
LJ          -6.13884        -2.61343         3.91044
LJ          -4.73178         4.97604         3.15742
LJ         -0.145595         5.09581          4.0368
LJ        -0.0260095        -5.77669         3.17509
LJ          0.436684      -0.0196754         4.33136
LJ          0.672687        -5.35117         4.01007
LJ          0.229249         5.30206         1.10045
LJ           4.78277        -4.92502         1.51974
LJ           3.54054        -5.03975         3.77884
LJ           3.74643         5.59876         5.26231
LJ              5.97        -3.03498          1.8442
LJ           5.76259       -0.820731         1.71686
LJ          -5.36977         1.44027         4.42554
LJ          -6.03913       -0.490633         2.53237
LJ          -4.73235        0.258071         1.48597
LJ          -1.66241        -3.69906         3.05277
LJ           0.10254       -0.894619         3.02074
LJ            1.8365        -2.56459        -5.72879
LJ           3.21654        -3.24298        0.995398
LJ           3.61343         1.14236         2.24511
LJ           5.09137         1.77277         3.94196
LJ           4.86318        -1.75589          2.4907
LJ           5.86894         1.95986        0.802218
LJ          -4.81067         5.78219         2.29989
LJ           -5.3279         2.74165         5.01673
LJ          -1.81316         2.26943         2.25904
LJ          -1.48124        0.851235         2.16148
LJ         0.0703886         5.55835         2.37845
LJ          -1.09192         3.89448         5.85905
LJ         -0.994038         1.79338        -6.12414
LJ           2.89955         2.71081         2.57204
LJ           5.20129         2.56171         2.13702
LJ          0.844603          2.2476         4.18156
LJ           5.43405         1.29619         5.79126
