108
#Comment!
LJ          -3.84312         2.90199        -3.06521
LJ           2.38583        0.058463        0.907276
LJ          -4.63133        -3.95035         3.86946
LJ          0.635103        -1.72344        -1.71975
LJ          -4.03006          3.3979        0.586988
LJ          -1.02119        -1.90158        -1.65652
LJ           3.58761        -5.66059        -3.65334
LJ          -5.27464         1.78568         4.35538
LJ          0.582582        -2.78827          4.7346
LJ           1.96334        -3.35836        -5.42491
LJ            -2.655         2.54536        -2.90184
LJ          0.539749         2.61124       -0.968672
LJ          -1.27199         3.73451         1.94063
LJ          -4.25669        -3.75156        -4.01444
LJ            2.4863        -2.83695         4.26483
LJ          -2.63607         1.44466          4.6059
LJ          -5.20389       -0.561031        -2.77513
LJ           -1.1061         4.32131         -3.8882
LJ          -6.11147        -2.71933         3.50355
LJ          -5.57074         1.38123        0.118428
LJ           4.77018        -4.33846         5.57662
LJ           1.76656         6.15078        -4.12616
LJ           1.28254        -3.56011        -2.74115
LJ           2.11822        0.457141        -4.72894
LJ          -5.45157         3.42762        0.325469
LJ          -1.05233         1.57638         4.65882
LJ          -4.71601       -0.271571        -5.66541
LJ          -1.88895        -2.43417          5.4408
LJ          -4.69513         2.11106         0.22228
LJ         -0.534072        -2.03155         -3.7862
LJ          0.725631       -0.522627        -3.09853
LJ          -4.10427       -0.482396         2.92276
LJ          -1.63259          1.4976       -0.565097
LJ           -4.6247         2.78782        -2.31201
LJ           2.89053        -5.00591         3.84405
LJ         0.0626212        -2.65929        -5.86573
LJ         -0.715789       0.0890741        0.805769
LJ         -0.244757        -1.33768          4.1502
LJ          0.652415         3.63234       -0.209402
LJ           4.80074        -4.05933         -2.9906
LJ           4.42002         3.19256        0.663744
LJ          -5.37434        -4.37504         2.76421
LJ           3.71282        -2.14102        0.562606
LJ           5.46523         1.46059         1.89663
LJ          -2.55726         4.96827         5.37995
LJ          -5.54024         4.21632         1.00472
LJ           2.12535        -1.96766         5.06102
LJ            2.6133        0.602035         4.37413
LJ          -4.67076         3.53698        -4.01032
LJ          0.218066         1.50179         4.98128
LJ           4.19889        -3.58409         6.40949
LJ         0.0909103         -1.6931         1.92286
LJ          -4.91746        -3.23982        -0.48268
LJ           4.15533       -0.803706         -2.0142
LJ          -4.68312        -4.25668       -0.554735
LJ          -5.33619          3.6796         -1.7007
LJ          0.221233        -2.80549        -3.66289
LJ          -0.72716        -4.93932         6.23106
LJ           -2.3205        -1.44241         1.87158
LJ          0.166435        -2.46672        -1.94517
LJ          -5.46655         3.39405         2.73674
LJ           -2.3642         1.81069          6.1374
LJ           4.57513        -1.04776        -5.47943
LJ           5.96946          6.2197        0.226603
LJ          -2.39791        -3.52165        -5.79159
LJ           -1.2348        -2.05534         1.44575
LJ            6.2858        -5.29305        -2.07819
LJ          -2.49792          1.0639         3.16464
LJ          -2.33947          5.6787         2.67078
LJ           2.19512         5.05314         6.01806
LJ          -1.64121         5.37983        -2.71145
LJ           6.37398         1.53667         4.31176
LJ          -1.18594        -4.19093         1.12052
LJ          -2.04888        -1.79294          6.4272
LJ           -3.0654         2.16868        -1.98554
LJ          -2.03061        -1.10694        -5.00939
LJ           5.10856         1.60254          5.1407
LJ          -1.08154         2.37213         6.37371
LJ          0.673457        -1.97488        -4.16936
LJ           4.24172         3.99351         1.48665
LJ          -3.65071        -1.31747          2.2628
LJ           -4.3028         2.34331        -4.34217
LJ          -2.64043        -3.60599         6.05092
LJ           2.66759         1.20621        0.504516
LJ          -6.17659         5.44341         5.27841
LJ          -4.98014         2.21745        -5.34875
LJ           5.61166        -5.15511         4.94994
LJ          -6.16933         6.23828        -6.24123
LJ           3.88426         6.08546         2.63313
LJ          -5.52906         4.00531         1.92409
LJ          -4.70095        -1.48865        -5.62817
LJ          -5.81863        -2.03788         5.67059
LJ          -4.59132        0.845602        -1.57895
LJ           3.76318         -3.5525        -5.39965
LJ           5.45429         4.40121        -5.55939
LJ           3.08729        -3.47735         4.95314
LJ           3.75492         1.44927         6.19302
LJ          -3.07182         3.74743         0.67873
LJ           2.97875         5.42722        0.796572
LJ           3.05375         5.03559        -6.40548
LJ          -1.04834        -5.81529        -6.38305
LJ            6.1651        -5.23279        -6.31556
LJ           5.10289         4.25645         6.07672
LJ          -1.94485        0.447728       -0.662521
LJ         -0.513652         1.82417        -3.83689
LJ          -6.33839        -4.66484         4.55964
LJ          0.707293          4.1968         2.98959
LJ           -2.6938         4.33947         1.49511
