108
#Comment!
LJ          -5.09597         2.33603         3.09633
LJ           2.44107        -2.16263         4.15162
LJ          -4.27391         2.08167      -0.0465756
LJ           5.24152        -1.02494        0.168074
LJ         -0.617937        -5.61915         4.46868
LJ           5.41663        -3.26841        -5.70148
LJ           -2.1999        -5.22949         5.53034
LJ         -0.675931         3.05153        -5.41267
LJ          -3.76892        0.533539         3.46666
LJ           3.23891        -2.89787       -0.767105
LJ          -5.77146        0.858969       -0.291226
LJ          -2.45746         4.26529       -0.531664
LJ          -1.98173         -3.9508         6.08252
LJ          -5.41619        -5.52547         5.28928
LJ          -4.24492         4.98822          3.6029
LJ           1.07394         5.18762       -0.744801
LJ           -5.5643        -3.40013         3.20491
LJ           1.78286         2.65184         1.50738
LJ            2.5139        -1.06796         2.85025
LJ          -2.34454        -2.22106         6.37516
LJ           1.31907        -1.77631        -2.12864
LJ          -4.69116         2.40017        -6.25018
LJ           1.15703        -3.02189          6.3516
LJ           -2.0562         2.12241         4.70405
LJ          -4.33558        -3.39242          4.0681
LJ           1.74488        0.589746          3.8983
LJ          -3.93613        -5.27405         1.11316
LJ          -2.00502        -6.04576        -5.99739
LJ          -6.33554         2.05977        -2.47573
LJ          -1.70824        -2.97123        -1.19041
LJ         0.0704442         3.74761       0.0530733
LJ          -4.96676         2.82456       -0.512175
LJ          0.954093        -3.32569        -4.19014
LJ           3.35356        -2.22534        -3.23504
LJ           2.87314        -4.40452         2.79641
LJ          -3.29555         3.12058         -2.6394
LJ          -3.95523        -3.69526           1.558
LJ          -4.52837        -5.06161        0.236027
LJ           -5.2222         6.22509         3.53565
LJ         -0.494392        -3.87902        -1.62701
LJ           2.00413        -6.29354         2.75875
LJ          0.832924         4.12378         2.13061
LJ          -6.37714        -3.93343         3.77035
LJ           4.05922         4.39803         1.25621
LJ           6.09876         5.49538        -3.38999
LJ           -1.5676        -1.35719           -1.46
LJ           5.50527        -3.95116         -1.5155
LJ          -1.97006        -1.52912         1.86855
LJ           -1.3664       -0.601071        -3.49211
LJ          -4.09094        -6.22857         3.99642
LJ           2.02816         2.87706        -2.00207
LJ           2.30133        -4.09428        0.404478
LJ          -1.22756        0.229577         -4.8157
LJ          -1.54436         6.09203         2.03921
LJ           5.64599        -3.46126        0.586882
LJ          0.854198         2.53745         1.05485
LJ          -1.41404         3.39224        -4.78744
LJ          -2.49719        -1.73083         -3.2719
LJ           5.12274        -1.31668        -4.00762
LJ           4.17598        -6.29806        -3.91003
LJ           1.35242        0.752045         1.87334
LJ        -0.0816669          4.5303        -2.42903
LJ           4.20988         5.65963        -5.43142
LJ           5.80799         4.92661         5.98487
LJ            5.9718        -5.43942        -2.18695
LJ          -1.36515         3.83675         0.98696
LJ          -2.70005         2.95637        -3.74088
LJ         -0.615196         2.71365      -0.0295838
LJ           4.12438        0.822159        0.834551
LJ           4.48234         2.24412        -2.12179
LJ           3.41421         3.29653        -1.96167
LJ           5.16253        -4.77485          6.0691
LJ          -1.98589         2.94525         0.76901
LJ          -6.15971         5.30459         6.18856
LJ           3.41392         5.52596        0.268364
LJ           -1.6981        -4.08118        -5.18523
LJ          -4.18023         5.73349        0.596908
LJ           1.59682        -4.12604       -0.876515
LJ         -0.995428        -3.90456        -4.00458
LJ           3.39035          1.1605        0.237205
LJ           -2.0814        -2.11569       -0.562539
LJ           5.62737        -5.76726         5.81174
LJ           6.15557        0.617501        -2.57346
LJ          -3.49308        0.333446        -5.89941
LJ          -3.45024        -1.66491        -4.38822
LJ          -4.19504        -3.41922        -3.10759
LJ           4.42319        -2.45807         -3.5132
LJ           2.45735         6.37277         -2.6604
LJ          0.535805         5.14289        -3.16622
LJ         -0.792134         4.61435         6.08786
LJ           5.17378         5.18644        -3.92579
LJ          0.211122        -1.28801         3.74762
LJ           2.10303        -3.29223        -1.21758
LJ           6.35948         2.24502         1.79411
LJ          -4.90708       0.0355988         3.63756
LJ         -0.225197         1.85378        -2.67324
LJ           4.51944          1.4638        -6.20536
LJ          0.399564         3.57545        -2.73316
LJ          -1.92554        -3.44974         1.45658
LJ          -5.06936         5.68805         -3.1178
LJ          -2.48437        0.728595        -5.21301
LJ          0.788369       -0.709713         5.11491
LJ           -4.5671         -6.0802        -2.80082
LJ           4.89984         4.81133        -1.59978
LJ           -1.0662        0.981023        -3.94004
LJ           1.45956         4.42185        -3.79649
LJ          -3.34563         -5.8456        -1.78149
LJ          -1.39386         1.98289           -6.05
