108
#Comment!
LJ           3.13757        0.332126        0.707731
LJ           2.21252        0.413884       -0.102745
LJ          -3.19887       -0.179592       -0.918021
LJ           -5.9954        -4.82041       -0.790049
LJ          -1.78116        -5.28253         2.40676
LJ           3.94938          -2.881        -1.03827
LJ          -3.29943        -1.00674        -4.28437
LJ          -5.47427        -5.13829         -2.2392
LJ           3.17851         1.66176        -4.81923
LJ          -6.24964         3.55225       -0.745705
LJ          -2.16542         1.19011         5.74099
LJ          -5.50828        -5.83154          3.8527
LJ        -0.0477397         4.08772         1.85386
LJ            4.5175        -3.37441         1.46834
LJ          0.229399        -2.89037        -2.25153
LJ         -0.824311        -6.11831         3.20804
LJ          -4.72333        -2.48058        -4.70442
LJ          -2.12211         2.99481         2.31082
LJ           5.86791        0.135733        -1.10249
LJ          -1.78646        0.459909        -4.03919
LJ            6.0147         -3.2911        -5.53031
LJ           5.13335        -5.56615        -3.58552
LJ           5.12108         2.14614        -4.31723
LJ          -4.33203         1.34946    -0.000760621
LJ            1.9805        -4.98568        -3.26573
LJ          0.405777         3.08813        -2.10961
LJ          -4.56588         2.02721         3.36602
LJ          -2.17354          3.5984         5.50476
LJ          -4.65674          6.3049         3.05124
LJ           3.47276         5.53515         1.32566
LJ          -3.77774         1.53564        -5.53862
LJ          -5.29302         3.02207         5.37234
LJ          -1.91827        -3.60327        -4.03079
LJ           4.49386        0.327529        0.833114
LJ           4.81005         -1.1225        -4.38899
LJ           6.09959         3.74959         4.68787
LJ          0.644274         4.26398        -2.32783
LJ         -0.697511         3.75173        -2.72312
LJ          -5.49894        -3.41336       -0.782407
LJ          -5.01714         3.52978        -1.85117
LJ           4.65705         1.02532         4.40616
LJ            3.7321          2.6052        0.533828
LJ          -3.65316       -0.318841        -5.96698
LJ           2.22879        -3.61707        -5.93472
LJ           2.00563        0.308934         3.76915
LJ          -4.51786         2.60052        -3.41924
LJ           4.11853        -2.29258        -5.34803
LJ           4.59099          2.0276         1.20886
LJ          -2.72256          5.1415         3.83647
LJ          -3.56703         1.95937         6.08915
LJ          -3.71212        0.221198        -3.43301
LJ          -1.44267         2.99289        0.112545
LJ           5.75272         1.42132        -5.20064
LJ           -3.4213         4.83952       0.0237442
LJ           5.90269       0.0550143        -3.12051
LJ          0.715628        -1.61571         1.68338
LJ           2.35637        -6.10472       -0.947758
LJ           6.07566       -0.154207        0.851836
LJ           3.90351        -1.17778        -4.94652
LJ           4.83832         3.58475          2.2986
LJ           0.31664       -0.794674         2.40568
LJ          -2.76435         4.79031       -0.934299
LJ          -3.95774         4.07911        -4.14681
LJ           5.47795       -0.921088        -5.79522
LJ           4.32324         5.07774        -1.97503
LJ          -2.77229        -4.81747        -6.33526
LJ         -0.821255         5.49774        0.683609
LJ         -0.592692          1.5552       -0.322408
LJ          -4.79843         5.23541         1.89416
LJ          -1.71389        -5.80481        -4.07839
LJ         -0.141822          1.6229        -4.38935
LJ          0.842734        -5.66435      -0.0317048
LJ          -5.48892        -6.37124        -4.77124
LJ             3.607        -4.63761        -3.65499
LJ          -2.61737         4.15318         1.18168
LJ          -5.02282         1.69939       -0.870028
LJ         -0.693386       -0.535557         1.32737
LJ           2.19511        -4.24265        -1.10505
LJ          -2.39394        -4.16573         3.12393
LJ           5.58932         2.05064         -2.1436
LJ          -4.23031        -3.06682         5.20487
LJ          -4.95181         -5.4652         5.26527
LJ           1.88422         -2.9923         3.32147
LJ          0.246749       -0.845369         3.31461
LJ           2.39239         1.16897        -6.15146
LJ          -2.62118         2.35263        -2.98411
LJ            6.0653         -1.5506         3.21993
LJ          0.610545        -2.20828         3.61248
LJ           1.97671          5.7536       -0.682082
LJ           3.09504         -5.2292        0.479034
LJ          -5.36789        -4.64404        -3.35675
LJ          -3.05706        -2.11223        -1.50905
LJ          -3.63717         1.63998        -2.03524
LJ          -5.34331         1.37149          2.5946
LJ         -0.476611        0.775671        -4.73699
LJ           2.01672         1.06058        -3.91845
LJ           5.58974         3.90121          0.4699
LJ           1.56843         1.34066         4.18123
LJ          0.114583        -1.71946       0.0612548
LJ           5.78764        -3.74882        -1.03309
LJ          -5.86536       -0.937817        -3.48405
LJ           1.48988        -5.28416        -4.65486
LJ           1.92611         -5.1921         -1.8377
LJ          -1.70344       -0.612515         2.29518
LJ          -4.63073         1.23975        -2.51772
LJ          -3.67247        0.853226         1.74767
LJ          -6.33673         2.91964        -5.65564
LJ          -5.29911       -0.075949        -3.53227
