108
#Comment!
LJ          -5.81613       -0.806763         2.42399
LJ           5.98895        -2.27757         2.55759
LJ           -3.4925        -2.29189        -5.52565
LJ         -0.106194         5.63743        -4.69652
LJ          -2.35276        -6.04852         3.31263
LJ          0.992787        -5.42515        -2.87534
LJ          -5.85449         4.36877         1.99018
LJ          -6.12102         4.45592         3.34177
LJ           3.11501        -1.29528         4.30534
LJ          -1.82769         6.10342           -5.22
LJ         0.0372934        -5.98133        -5.33169
LJ          -4.65145        -2.13007         -4.2687
LJ          -4.47288         5.59452          2.7793
LJ           1.11684         4.76633         -2.9685
LJ          0.546383         6.06166        0.157906
LJ          -1.96432         3.38604         3.48897
LJ          0.694532        -2.65957         4.34965
LJ           2.09576        0.714938        -1.32103
LJ          -6.39138        -4.34936         4.05251
LJ          -3.75981         5.05041         0.35766
LJ        -0.0354285        -3.10681        -4.02124
LJ          -6.20431        -4.48389        -6.21061
LJ          -6.20149         3.43935         1.94111
LJ           5.89856        -6.03347         1.98997
LJ          -5.80033        -6.19971         3.98873
LJ          -6.29419         6.38567        -3.78779
LJ           4.37273        -1.12523        -4.36741
LJ           4.83001        0.253954        0.875139
LJ          -4.39718         3.24956         -1.5297
LJ         -0.848513          -6.082         2.40621
LJ           1.28798       -0.512826        -3.90252
LJ         -0.759089         0.33852         1.90912
LJ           1.88637         5.08409      -0.0314866
LJ           1.18389        -1.56589         3.05596
LJ          -4.80814        -2.42406        -3.19133
LJ           1.05554         1.43203        -4.44072
LJ           -4.0554         2.47184         3.34466
LJ           3.46925        -2.13383        -1.25786
LJ           4.96269         6.00291       -0.380158
LJ          -2.61095       -0.508626        -1.05246
LJ           4.78262        -1.64311       -0.588998
LJ           1.65384         6.27911       -0.611984
LJ           1.18611         1.82148         3.65258
LJ           6.37459        -3.31256         3.33473
LJ           2.14292         3.59653         4.44361
LJ          0.276094         4.17644        -5.62352
LJ          -3.64392         -4.7121        -1.48635
LJ           1.43364       -0.143261         1.11489
LJ         -0.305124         5.09549        -2.35836
LJ          -2.07685        0.816378         1.69205
LJ         -0.352885        -4.58796        -5.16122
LJ          -2.89106       -0.654296        -5.39695
LJ           4.35503        0.816993        -1.33865
LJ           2.24269        -3.72868        -2.11938
LJ           2.74712         4.48165         4.94789
LJ          -4.39304         2.42331         5.29538
LJ           6.11538         5.14017        -2.81742
LJ           2.04473        0.880704      0.00751808
LJ           3.82476        -2.42677        0.593278
LJ          -1.23017        -4.92584        -4.51762
LJ         -0.379845        -2.11069          2.1029
LJ          -2.80643        -5.75934         5.49677
LJ            3.1316        -2.67582       -0.464642
LJ          -5.43034         2.58597        -3.81687
LJ           4.09426        -1.36667        -5.52158
LJ           -3.9277         1.40666         5.83522
LJ          -4.06134          -1.271         5.63687
LJ          -6.18928         -1.4744        -3.02792
LJ         -0.474908         6.31686        -6.24436
LJ           1.75959        -5.25149         3.70181
LJ          -3.95589         1.79059       -0.898893
LJ           5.97483          2.9276        -4.13924
LJ          0.979715        -6.10171        -2.08265
LJ         -0.299723         1.02101        -5.58492
LJ           5.79348        -1.19914        -1.15312
LJ          -2.40067         5.44911        0.926883
LJ           4.21795        -3.66917          5.0985
LJ        -0.0888078        -4.52586        -3.93602
LJ         -0.295597        -1.47403        -2.54455
LJ          -3.53513         5.86055         5.14699
LJ            1.9995        -4.22115         6.20199
LJ            -5.543        0.145968         4.54217
LJ           3.23525        -4.70025        -4.49997
LJ           4.65718         1.07904         4.64049
LJ           5.89353         4.42039         3.87056
LJ           -3.8362        -4.15221        -4.13391
LJ           4.55459         4.55176       -0.625689
LJ         -0.588932        -6.40492       -0.445292
LJ           3.14366         2.77819         3.39352
LJ           2.49921         3.46946         5.40808
LJ          -1.97145       0.0498475        -3.70238
LJ          -4.63174         3.52897       -0.505089
LJ          -4.59822        -6.16157         -2.8208
LJ          -1.82243        -1.65736        -5.20197
LJ           3.49776         5.75367         1.68937
LJ            1.3907        -4.56712        -4.38871
LJ           1.31528        -4.65674        -1.36083
LJ          -3.72486         2.67431         4.60363
LJ            3.8926         4.57311        -1.77472
LJ           -5.6812        -2.73752         3.60662
LJ           1.34004          4.8759        -5.00447
LJ           4.59414        0.612274         3.22615
LJ           6.09734         5.55218         3.21934
LJ          0.716714       -0.958846        -3.20389
LJ          -1.04812         3.98968         2.60834
LJ          -5.73789        -4.29077        -1.86367
LJ           3.37375        -5.62525        -1.33752
LJ           2.95504        -5.14922        -5.83488
