108
#Comment!
LJ           1.10255        -5.31585          4.6696
LJ           5.23644         5.17185         4.52675
LJ        0.00294286         4.99102         3.81993
LJ           4.62693         6.01031         1.97058
LJ           1.56995        0.923505        0.776028
LJ           3.96023        -1.20101        -5.47148
LJ          -2.47579        0.146189         6.23285
LJ          -4.95455        -4.08804        0.439257
LJ          -5.85194         -3.8206         6.21537
LJ         -0.826021         6.10153         1.56399
LJ           5.78105         4.59783        -2.49201
LJ          -1.16179        0.711589        -0.97357
LJ           -5.4106         5.35983        -3.87771
LJ          -5.90964        -1.06197         2.23957
LJ           2.99124        -3.89008        -2.19877
LJ          -1.72845        -1.30854         -2.9948
LJ          -2.83925        -1.16014         -6.1135
LJ          -6.07884        -5.43145         6.32896
LJ           6.36253         5.30924        -5.13543
LJ          -2.34092          2.3912         5.46144
LJ          -4.40097        -1.82779        -3.15483
LJ         -0.308641        -2.38423         4.10539
LJ          -2.43655         3.05344      -0.0761868
LJ          -4.80586        -4.33845         5.24581
LJ          -6.23205        -3.59956        -4.85703
LJ          -2.46471        -4.63084          2.7677
LJ          -2.96186        -4.70149         5.10997
LJ            2.4431         2.95982         5.83473
LJ          -4.09047         2.58293        0.467661
LJ         -0.247669       -0.591342         3.12142
LJ           5.32327        -5.45212        0.896604
LJ          -2.35463         1.96757          3.0357
LJ            3.2103        -1.71338        -2.31297
LJ            3.9801           4.039        -2.82078
LJ           2.43028         6.26262        -3.29824
LJ          0.255064         4.97474          2.5438
LJ           -4.5217         4.64068          5.7684
LJ         -0.818427       -0.971438         -4.4359
LJ          -4.96681         4.98585         4.32152
LJ           1.32378        -4.29581        -1.48638
LJ           6.02247        -5.66951        -2.32799
LJ          -1.29077         6.28555         3.09183
LJ           5.04495         3.67346         4.98524
LJ          -1.30791         5.05009         3.03411
LJ          -2.64192        -2.50396         1.80451
LJ          -6.02231         2.82671        -2.59514
LJ          0.426707        -1.18171        -2.62132
LJ           5.94095       -0.709687          3.4389
LJ           2.46907         -4.7709        -2.21214
LJ          -2.44063        -1.92182         2.96846
LJ          -5.28773        -1.90394        -1.62421
LJ          -5.43184         4.22425         3.56962
LJ           4.64332         -2.8637          5.1806
LJ          -2.40514         4.21177         3.15704
LJ          -5.20746          6.4453         4.89834
LJ           1.26086        -6.29218         5.84817
LJ           4.81419         -4.2621         1.07411
LJ           2.76635         1.38181        -4.51584
LJ          -0.20207         1.86913        -0.14178
LJ         -0.233734         5.22327        -6.27567
LJ          -5.26079        -3.10309        0.228848
LJ            4.1131        -3.72048         4.62027
LJ          -3.74104       -0.783914        -1.38833
LJ          -3.68928        -3.01511         1.75981
LJ          -2.49606        -3.64603         5.37232
LJ          0.209318        0.651681         2.72945
LJ           1.29871         3.44902         4.09773
LJ            1.2862          5.4141         2.15165
LJ           5.66076         1.69804         -4.9126
LJ           2.13969         1.34305         2.07928
LJ            5.0696         1.72857          5.7514
LJ           4.29965         4.81472        -4.05418
LJ           1.61591         2.61233        -2.73541
LJ           -1.5948        -5.81713          5.2753
LJ           3.47145        0.489867         3.52706
LJ          0.964583         5.48575         -6.2246
LJ           2.30533         2.05896         5.38074
LJ           2.69828          4.8505         1.70615
LJ          -5.94403       -0.454892        0.113316
LJ          -3.45925          6.2306        -4.09356
LJ           6.32166        -1.96237         1.33734
LJ          -4.07309        0.714687         3.02183
LJ          -2.61952         1.74436       -0.187086
LJ           6.37368       -0.104621        -3.73144
LJ          -5.61025         4.77657         1.29935
LJ          -2.49545         1.02564        -3.23412
LJ           6.40883         5.64019         3.88576
LJ           4.70236        -3.68485        -4.74831
LJ           1.65523        -2.49555         1.03409
LJ           2.23671        -2.77805       -0.709093
LJ          0.440976         4.96061        -2.30921
LJ          -1.95284        -4.42137        -3.93528
LJ          -6.43797        -6.07679         2.00577
LJ           5.79715         1.01449         1.41643
LJ           1.30383         2.16361         2.74183
LJ          -4.36522         1.28166        -3.33336
LJ           5.41607         1.29787        -1.94242
LJ           4.17885         4.55643         3.19778
LJ          -3.30525        -2.90618         4.40568
LJ           5.47418         2.52456         4.69283
LJ          0.489992        -3.18507        0.512943
LJ           3.77905        0.688654         1.92547
LJ           1.07638        -2.26176         3.72311
LJ          -2.96933        -1.74178        -2.49118
LJ           3.69336        -6.16319         -5.9698
LJ           6.21187        -1.03949        -5.48629
LJ           3.55482         1.47554        -5.35551
LJ          -2.63579        -1.05896        -5.01898
