108
#Comment!
LJ          -1.97147        0.601951         4.61523
LJ          -5.32899         2.19115        -6.42275
LJ          -5.49822        -6.34004        -5.99413
LJ           5.08415         1.80701         1.36496
LJ          -1.68353        -2.80374         5.50077
LJ          -3.04188         1.61321        -5.05368
LJ          -5.33284         2.30191         1.02613
LJ           -3.2276        -5.18885        -3.07522
LJ          0.878391         5.45208         1.60927
LJ          -1.25453          3.1952         3.68977
LJ         -0.902371         2.43008         -1.8399
LJ          -2.95632         2.30052         1.66963
LJ          -1.40136         6.07908        -2.36608
LJ          -1.92436         1.21004        -3.87532
LJ           6.25325        -2.50432       -0.877666
LJ          0.885983         2.92899        -3.22985
LJ         -0.779345         1.54957         4.75472
LJ          -5.97145         4.64993        -3.48392
LJ          -6.18239        0.677654         4.34438
LJ           -1.5098         2.19031        -3.60086
LJ           2.43317         1.83485         1.66881
LJ          -4.08437        -1.71255        -3.47769
LJ            -3.116        -6.33978        -4.13825
LJ           5.90882        -2.76646       0.0298542
LJ           5.57133         4.22822       -0.486646
LJ           1.27608        -5.46029         3.91202
LJ           2.15648        -6.00075        0.798633
LJ         -0.498131         5.67995         4.17038
LJ        -0.0603411        -2.94295         5.95617
LJ           5.64703        0.327137         3.93914
LJ           1.05552         1.60097         1.37071
LJ           2.43948        0.982838          2.6368
LJ           4.51648         2.33461        0.440404
LJ           1.27242         4.53261        -5.17761
LJ           5.12377         5.09282        -2.13758
LJ          -1.82515         -1.7897        -3.75243
LJ          -3.27171         4.38664        -1.79626
LJ            3.5738         6.35332       -0.712617
LJ           -4.0097         6.39484          -5.382
LJ           3.61275         4.10325        -1.36526
LJ           6.39676        -5.64999         1.92484
LJ           3.45424          4.4326         5.08622
LJ           5.82505         3.65695        -5.33614
LJ           4.35602         3.23327         6.22976
LJ         -0.583414        -2.68321         4.18001
LJ            4.4835       0.0431084         4.16153
LJ           5.89322          3.9795         5.39178
LJ          0.319519         2.94916         1.72475
LJ          -3.09246         5.12253        -5.80171
LJ           4.16382         4.71297       -0.595942
LJ           4.92329        -6.16731         3.93963
LJ         -0.611305         4.43446         2.25962
LJ          0.970524        0.606914       -0.412305
LJ          -2.60379        -1.07772        -2.24236
LJ          -5.21648         4.12406        -4.12373
LJ           5.48382         4.94006        -6.45001
LJ          -5.86683         5.12545         1.82454
LJ          0.934945         -5.4758         4.86938
LJ         -0.476034         2.02316         3.77874
LJ          -2.77164        -6.45194        -5.22618
LJ           6.33122        -1.03756         6.13285
LJ         -0.205949        -6.40176         1.03253
LJ          -3.71962       -0.858613        -2.59713
LJ           3.76184         2.79872          3.9689
LJ           2.12308          5.4424         2.45436
LJ           2.54557         3.27574         6.26963
LJ           1.73477        0.617984         5.60644
LJ          -1.52544          2.9802        -2.52586
LJ         -0.657524         1.30299        -3.68116
LJ           5.44912         1.26584        -5.64241
LJ          0.290885         1.66923        -6.26139
LJ           2.14462         2.81485      -0.0305109
LJ         -0.984836        0.881427        -2.70598
LJ           1.21929         1.48578         -1.5145
LJ           5.57174        -1.24603         1.44965
LJ          0.543455        -4.67954         1.35027
LJ           4.33259         4.89441         2.80987
LJ           2.38061        -2.08254         5.96523
LJ           5.80737       -0.108007         5.39808
LJ           3.59076       -0.695112        -2.57599
LJ           -1.8004        0.207464         5.69309
LJ          -6.43499         2.79846        -6.45939
LJ             4.716         3.68898         3.56731
LJ           -6.2517          -5.464         -2.0551
LJ          -2.26046        -2.81205        -1.61581
LJ           2.63728        -2.45506        -3.79341
LJ           6.44471       -0.730034          5.0527
LJ          0.840348         2.14194        -2.46203
LJ          -4.48435        -4.05608         3.39581
LJ          -5.90982         2.89975         1.83895
LJ            2.8499         5.47576        -1.47827
LJ          -1.39233         6.43955         1.45994
LJ          -3.88115         4.80792        -4.59342
LJ          -1.59571         1.40354          5.7733
LJ           5.97026         1.58472        0.162473
LJ          -5.54429          6.1112         3.49707
LJ           6.10688       -0.881168        0.293684
LJ           1.55093        -4.37067         1.94338
LJ         -0.587518       -0.616706         5.28436
LJ          -3.32448         4.63799        -3.29648
LJ           4.94524       -0.996213        -3.06051
LJ           4.61127        -5.20451          1.9313
LJ          -4.15846        -2.51675        0.696507
LJ          -3.29336        -2.09505        -2.19973
LJ         -0.108735         5.33231        -3.11855
LJ            5.5789        0.659056         1.38951
LJ          -1.12784         -1.9254         5.91915
LJ         -0.963052        -2.95863        -3.24994
