108
#Comment!
LJ           1.36038        -5.32803         4.88409
LJ          -6.43942         3.74657         5.08646
LJ          -1.02271         3.51918         4.69511
LJ           4.78944         -6.1872         2.43441
LJ            1.2605        0.953361        0.666817
LJ           3.38273        -2.48432         6.35314
LJ          -2.06191       -0.973727          5.6037
LJ          -4.26268        -3.91261        0.474456
LJ           6.01976        -3.91912        -6.16373
LJ         -0.690036         6.27702         1.54175
LJ          -6.25112         4.85639        -2.82447
LJ          -1.54272         1.14151        0.477195
LJ          -5.47397          5.7086        -4.76025
LJ          -5.37097        -0.13325         3.25804
LJ           2.74905        -3.66584        -2.09455
LJ          -1.44715         -1.2924         -3.8433
LJ          -2.89332        -1.45086        -5.85723
LJ            6.2733        -5.14895         6.45555
LJ           6.44986         6.23636        -4.62147
LJ          -2.39571        0.405723         4.68182
LJ          -3.64884       -0.233292        -3.46735
LJ          -1.58106        -2.74872          2.5965
LJ          -1.80139         2.05382        0.344693
LJ          -3.97478        -3.53444         5.14197
LJ          -6.00601         -2.8034        -5.48767
LJ          -2.68294        -4.52478         2.71956
LJ           -1.4996        -4.20026         6.20803
LJ           1.21032         2.71392        -5.86827
LJ          -3.60262         2.15967         1.14602
LJ          0.931821        -1.39517         3.65742
LJ           5.03941        -4.46105         1.35651
LJ          -2.51634         2.03409         2.89299
LJ           2.85533        -2.60124        -2.55003
LJ            4.5772         3.97304        -2.00283
LJ           2.70583        -6.04923        -3.20923
LJ          0.356781          3.6603         1.64582
LJ          -2.95326         4.29168         5.27551
LJ          -1.68796       -0.153488        -5.04017
LJ          -5.62349         5.42179         2.83734
LJ           1.08774        -5.67077        -1.38421
LJ            6.1372        -5.77966        -3.39415
LJ          -1.14019         6.33524         2.45663
LJ           3.12241         4.10166         4.89913
LJ          -3.02322         6.17873         2.70818
LJ           -1.6735        -1.78824         1.70746
LJ          -5.45596         3.08704        -1.39209
LJ         -0.748351        -1.58001        -1.95105
LJ           5.39522       -0.631786         3.18697
LJ           1.04301        -4.30844        -2.68367
LJ           -3.5181        -1.77105         2.90106
LJ          -4.45102        -1.49584       -0.595423
LJ          -6.03049         3.79062         3.25309
LJ           5.48829        -3.22748         4.22079
LJ          -2.36243         5.00048         1.84369
LJ          -4.60917         5.96186         4.67893
LJ           2.54744        -5.61074         5.75466
LJ           3.19826        -3.85168         1.11735
LJ           3.17094         2.43305        -4.01385
LJ        -0.0975875         1.27568         1.50785
LJ         -0.748639         4.48074         5.77347
LJ           -6.1047        -3.49674        0.077947
LJ           5.11953        -3.68419         3.10634
LJ          -3.56319        -1.04927        -1.03038
LJ          -3.61347        -2.90483         3.38482
LJ          -1.76873        -3.15083         5.83826
LJ          0.175647         1.19481         2.98471
LJ         0.0311064         3.94695         4.20998
LJ           1.72745         6.05204         3.00086
LJ           6.19443         1.47664        -3.88745
LJ           2.35851         1.95352         3.78026
LJ           6.16585         1.59419        -6.28593
LJ           4.75183         5.53823         -3.0408
LJ           1.67077         2.86949        -2.58687
LJ          -1.72146        -5.89398         4.18507
LJ           4.58608         3.09197         3.70398
LJ          0.673787         3.94885         6.28458
LJ           2.33039         1.49815         5.24194
LJ           2.65641         3.98573          1.2237
LJ          -5.75203       -0.496614         1.46738
LJ           -2.6666        -5.73536        -3.96335
LJ            5.6327        -3.61436        0.697767
LJ          -3.73426          0.3527         2.48831
LJ          -4.15892         1.47583        -1.27526
LJ           6.03849        0.457828        -4.23344
LJ          -6.26355         5.87904         2.07594
LJ          -2.99887        0.994967        -3.17937
LJ           6.21218         5.21402         3.53366
LJ           5.71711        -3.41981        -5.38865
LJ         0.0288977         -1.8092        0.934337
LJ           3.19432        -3.94178       -0.483351
LJ          0.377577         4.48818        -2.71495
LJ          -2.55443        -3.76716        -4.85888
LJ           6.29755        -5.86502         3.43537
LJ           6.40025        0.380275        0.387005
LJ           0.47545         2.16339         2.46042
LJ          -3.35282        0.460939        -4.12302
LJ           4.52668         1.03253        -1.84535
LJ           3.85665         3.69634         3.65265
LJ          -1.65913        -3.82592         4.72466
LJ            5.0622           2.699         5.10371
LJ          0.161911         -2.9787        0.877283
LJ           3.47295      -0.0894076        0.588358
LJ           1.65233        -1.89949         4.04487
LJ          -2.39856        -1.64648        -2.30171
LJ           4.22737        -5.75343        -5.71161
LJ           5.53519        -2.60354         5.76862
LJ           4.02954         1.98937        -4.83583
LJ          -3.04074        0.310084        -5.19616
