108
#Comment!
LJ          -5.36156       -0.168968         1.70695
LJ           5.54905        -1.42559         2.99212
LJ          -3.87946        -2.56787        -6.38391
LJ          0.133636         4.17436        -5.96417
LJ          -3.11618         5.80192         3.52908
LJ          0.510635        -5.69248        -3.84522
LJ            5.9665         5.09858         2.32456
LJ           -5.7258         3.90966         4.57293
LJ           3.44175       -0.775943         4.21179
LJ          -4.33623         -4.7987        -6.25194
LJ           0.15191        -6.05115        -5.02989
LJ          -4.14043        -1.15401        -4.30598
LJ          -3.25365         4.67337         2.82217
LJ           1.74317         4.79044        -3.86457
LJ          0.684567         6.01747        0.165671
LJ           -2.0154         4.48037          2.7272
LJ           1.71893         -2.6121         3.23243
LJ           1.17262        -0.83246          -1.034
LJ          -6.33116         -4.1589         3.58603
LJ          -3.82073         4.71401        0.350813
LJ           0.60601        -3.66855        -4.79812
LJ            6.0426        -2.92247         5.95526
LJ           5.82401         2.81318         2.77106
LJ          -6.11056         6.03653         3.42809
LJ          -5.94454        -4.75952         4.72868
LJ           5.51217          6.1696         -4.9508
LJ           4.78746       -0.998425        -4.31594
LJ           3.92457        -0.19387         1.24514
LJ          -4.90501         3.15254        -2.51965
LJ          -1.29113         6.14722         1.99225
LJ           1.34496        0.743072        -3.43514
LJ         -0.396889        -0.13999         1.67191
LJ           1.67541         4.57359        0.548588
LJ          0.203422      -0.0458644         3.20896
LJ          -4.26735        -2.26374        -2.59741
LJ          0.969606         2.54789        -4.73761
LJ          -4.30588         2.36744         3.09877
LJ           2.91955       -0.264905       -0.714616
LJ           4.51725          6.1005       -0.756879
LJ           -3.3351       -0.860122        -1.07896
LJ           5.04576       -0.967866        -1.45169
LJ           2.25895        -6.33795        0.269156
LJ         -0.534883         1.22281         3.51457
LJ           -6.3695        -2.61673         3.50486
LJ           1.71791         3.60022         4.23594
LJ           1.18752         3.80485        -3.96982
LJ          -2.80415        -4.38221       -0.624025
LJ          0.868502       -0.383753         1.29503
LJ         -0.231513         6.27007        -2.17633
LJ          -1.47013        0.705626         1.80479
LJ          0.409067        -4.51305        -5.40943
LJ          -2.79911       -0.213039        -6.19993
LJ           4.63719        0.405713       -0.670912
LJ           2.97839        -4.26805        -1.81742
LJ            3.8129         4.67706         6.11745
LJ          -4.37779         2.94465         5.89541
LJ           5.54502          4.8339        -3.04656
LJ           1.02324        0.295499       -0.107955
LJ           3.69714        -3.01164         1.00117
LJ          -1.12312        -5.28328        -4.57575
LJ          0.934976        -1.21397         2.29634
LJ           -2.8839         6.06284         4.55897
LJ           3.55478        -2.61089       -0.631263
LJ          -5.87279         3.40239        -3.34586
LJ           4.96393         -1.7898        -5.72532
LJ          -5.17037        0.694313         4.48112
LJ          -1.91129       -0.852572         4.75771
LJ          -5.21742        -2.83436         -2.2498
LJ          0.901156         6.10867         6.09846
LJ           1.59967         -3.9365         4.22353
LJ           -3.8936         2.25307       -0.824442
LJ           6.20132          3.7941         -3.8044
LJ          0.322853        -5.91687        -2.04005
LJ         -0.248825       0.0769112        -4.97515
LJ           6.44892        -3.04354        -1.42728
LJ          -2.46223         4.46229       0.0870417
LJ           4.49344         -4.4001         5.19392
LJ          -0.48068        -6.15299        -3.76712
LJ          0.530775       -0.857152        -1.72562
LJ          -3.68125         5.41548         4.71482
LJ           1.32837        -3.95592         5.64184
LJ          -6.09308         0.40524         5.13859
LJ           2.20711        -4.21032        -3.67577
LJ           4.57409        0.718409         4.47629
LJ            5.8303         3.30235         4.18965
LJ          -4.22447        -3.13165        -4.46301
LJ           4.76598         4.80905       0.0871404
LJ          0.648388         -5.2336         0.48975
LJ            2.3957         3.45294         3.12326
LJ           3.05594         3.58851         5.05583
LJ          -3.05581       -0.936496        -3.08549
LJ          -4.81821         4.63367        -1.41931
LJ          -4.67751          5.4638         -2.9077
LJ          -1.25647        -2.00191        -4.98244
LJ           4.85442         5.75129         1.77256
LJ           1.32957        -5.20614        -4.89958
LJ           1.98916        -5.46808       -0.881851
LJ          -3.28412         2.53966         3.51707
LJ           3.71257         4.49756        -1.86918
LJ          -5.97112        -1.46783         4.85797
LJ            2.5028         5.27406        -4.64033
LJ           4.89803         1.82148            1.82
LJ           5.00039         4.17888          4.2492
LJ          0.906561        -1.47697        -2.76862
LJ         -0.745812         3.61745         1.61924
LJ          -6.08823        -4.86288       -0.842663
LJ           3.35927        -5.81781       -0.784553
LJ           1.31923        -4.90519         6.33886
