108
#Comment!
LJ           5.19004        -3.78602         5.29316
LJ          -5.12043        -2.56475        -0.83787
LJ          -1.77119       -0.531722        -4.74752
LJ         -0.093666        -5.36502       -0.776517
LJ         -0.396028        -2.07001         1.79857
LJ           1.92165        -4.51326         1.36829
LJ          -1.57577        -6.23752         2.65349
LJ          -5.25363        -5.47983        -1.58625
LJ           2.17116        -3.32827         4.67308
LJ          -4.60608          4.5156       -0.601426
LJ          -2.58636         6.07114         -4.4807
LJ          -4.57587        -3.59142         5.13102
LJ          -4.50326        -5.88892         3.56654
LJ          -2.32352         3.34621         1.87881
LJ           0.38694         5.83715        -2.83897
LJ          -1.52695        0.253323         5.68271
LJ          -2.41176        -2.48954        -5.48322
LJ            5.1089         4.98707        -3.48114
LJ           6.38842        -5.67438         5.60534
LJ          -4.02066         5.95777         1.06194
LJ          -2.85371        -1.92583        -2.92168
LJ           -3.4304         2.33993        -3.16389
LJ          -3.32315         2.50543       0.0944558
LJ            2.2615         -3.0461        -3.62761
LJ          -5.32618         1.15914         4.53494
LJ          -3.85088        -5.58292        0.768059
LJ           2.48496        -1.22692         -4.8862
LJ          -4.52984         2.17295        -1.37229
LJ          -2.74665        0.886067        0.843979
LJ            1.3178        -3.64035         4.08702
LJ           3.25654        -2.72479         5.82129
LJ          -2.03119         1.87045         2.71591
LJ           1.86642        -4.29503        -3.39704
LJ           4.86679         5.07386         2.28268
LJ           5.06929        -3.48941        -3.21107
LJ           1.05034         1.12617        -3.45085
LJ          -2.67461         2.79152         4.39937
LJ          -6.22679         4.96663        -4.66302
LJ           5.39011         4.58743        0.803716
LJ         0.0102834         1.29735        -1.06029
LJ           4.82511         -3.2185         -1.5669
LJ          -0.72534         5.04348        -1.76035
LJ          -5.90843         4.57596         4.48434
LJ           5.98324         -5.3825         2.46755
LJ            1.5442        0.991137         3.86508
LJ          -2.76946         4.30155         3.58107
LJ          -4.50878        -4.12866       -0.780047
LJ           3.25991       -0.307417         1.99246
LJ         -0.718511         0.75541        -2.99436
LJ          -4.95471          1.8659         1.65699
LJ           -3.5536        -2.80104         5.26789
LJ           -4.8235        0.319631         -1.3452
LJ            3.7247        -1.33811        -1.48668
LJ           -1.8055        -3.36374         -2.7965
LJ         -0.969363         4.84312         3.53309
LJ           6.13751        -1.39504         6.17317
LJ          -3.08924        -3.75099       -0.387733
LJ            3.7672         4.83637        -2.75626
LJ           1.85516         -1.4016          5.0839
LJ         -0.185986         -1.2036        -5.61955
LJ          -4.52808        -4.86478         1.00143
LJ          -2.97937        -3.24367         -2.8983
LJ          0.290673         -2.4914       -0.650755
LJ          -5.15264       -0.634231        -5.95831
LJ           1.75981        -1.49789         6.17408
LJ         -0.230092         4.67487        -3.80079
LJ          0.562866        -4.17325         -2.3811
LJ           3.89123         3.64865         6.38458
LJ          -5.60601        -6.22874        -2.58551
LJ           2.62566         4.40565        -1.19617
LJ          -3.95462         1.13925        -2.01478
LJ           6.25436        -2.59356        -4.54523
LJ           1.34904          4.2425         -2.5067
LJ         -0.929029         4.97904         4.81806
LJ           -4.9837         5.16336        0.349482
LJ          -1.19962        -3.33659         4.19496
LJ           2.70475       -0.580744         4.56044
LJ           2.00178      -0.0348918         -1.0514
LJ          -4.16991       -0.478197        -6.05907
LJ          -2.26509          -4.912         -5.6627
LJ           4.91484        -5.45365        -4.17071
LJ          -3.17176       -0.705044         2.16279
LJ          -6.09096        -4.08547        -2.17148
LJ           5.05539        0.996348         6.02162
LJ          -6.20712        -4.23072          2.5127
LJ           -3.3008         4.96971        -3.13438
LJ           5.87172         5.31409       0.0645996
LJ          -3.91166         1.11006        -3.71624
LJ          -5.74483       0.0337536         1.99674
LJ           2.17486         4.23716         5.46995
LJ             0.804         2.33003         -4.3105
LJ          -4.63294        0.483527         4.09465
LJ           5.62103        -4.86714        -5.18401
LJ          -3.80703        -1.97532        -4.20504
LJ         -0.841165         5.40077         1.93692
LJ           1.79081        -1.02131        -2.82422
LJ          0.634654       -0.140576        -1.28396
LJ          -1.64426         4.08719         4.79755
LJ           2.99872         5.40503        -3.79121
LJ          -5.37843         5.52757        -1.43907
LJ          -1.25575         1.58393         3.92344
LJ           3.00088        -2.40328        -4.53273
LJ            5.6568        -4.94477        -3.59665
LJ          -1.51904        -0.78977         -2.3863
LJ          -4.49412        -6.42975         6.37639
LJ          -4.66014        -3.55958         6.41782
LJ           4.71751         4.85407         -2.0784
LJ          -4.72343         4.62856          4.7153
