108
#Comment!
LJ           4.56712        -1.01473        -1.29878
LJ            3.3221       -0.100636        0.826381
LJ           -4.4408         1.71541         1.15757
LJ          -6.04224        -4.76148        -1.06547
LJ         -0.932443        -5.68491         3.39993
LJ           3.74411        -2.86515         4.93852
LJ          -2.48671          -2.883        -5.78666
LJ          -3.21885        -2.92282        -2.62133
LJ         -0.755797       -0.892524        -1.61624
LJ           6.44896       -0.291106        -1.70767
LJ          -4.25505        0.640946        -2.69855
LJ          -4.54929         5.38959         2.32485
LJ         -0.806208        -6.03184         4.39205
LJ          -6.35938        -4.39375        -3.32423
LJ           4.21001        -5.30126        0.583801
LJ         -0.179714         5.20604         1.25423
LJ          -4.84115        -1.72124         6.17418
LJ           1.13243         4.20644         2.19333
LJ           3.65861        -0.64985         1.86299
LJ          -1.64073       -0.389389        -5.68279
LJ         0.0835008        -1.16601          5.9487
LJ          -5.92599        -1.48945        -4.73399
LJ            3.1493          -1.093        -4.90625
LJ          -1.25704         0.10978         4.40202
LJ         -0.666715         -3.0437         6.33823
LJ          0.486866         2.61813        -5.56736
LJ          -3.52027         5.49139        0.644891
LJ         -0.742531          4.0923         3.89759
LJ           -5.5542         5.11905       -0.116896
LJ          -5.23364        -4.84434       -0.226231
LJ          -2.73616          2.6088        -3.44043
LJ          -6.07168         1.26083         2.74145
LJ         -0.189023        -3.42462         -2.1926
LJ           2.58123        -1.85334        -1.52399
LJ          -3.23696        -3.50446         5.42305
LJ          -5.46221         4.26165        -5.42727
LJ          -2.29331        -6.30773         6.29674
LJ          -4.73974        -5.64297        -2.67979
LJ          -5.08676          5.9746        0.142189
LJ          -2.44827         5.65694        -1.62311
LJ           4.00676         4.84018         2.87979
LJ           3.00309           5.183         0.96879
LJ          -5.32524        -1.64738         5.05698
LJ           4.37978        -1.88828        -1.53826
LJ           3.87913        -2.95037         6.17224
LJ          -3.03885         1.37271        -1.55223
LJ            5.2512        -3.85896        -3.77632
LJ           1.27381       0.0436615         1.74496
LJ           4.65023        -3.60008         6.34105
LJ          -4.02287          4.5245         6.12112
LJ           1.76343        0.987366        -2.81433
LJ           5.03031       -0.184483        -0.35001
LJ           -4.0978        0.513745        -4.82375
LJ          -2.14824         5.20341         1.30853
LJ           4.23152        -4.28561       -0.090211
LJ         -0.073647         3.56953         2.37657
LJ          0.807664         5.26493        -1.51478
LJ          -3.24129        -1.38773        -1.35244
LJ           3.26686        -0.32303         -2.4605
LJ           5.68319         6.00276        -5.76998
LJ          0.803517         1.94052         1.81547
LJ          -1.30792          5.5625       -0.911794
LJ          -5.82052         3.89427        -3.85045
LJ           -4.5391         2.11503        -5.56046
LJ          -6.19607        -6.24477        -2.03959
LJ           4.03419         6.11327        -2.87189
LJ          -3.06829         4.04742        -3.39541
LJ          -1.18745         1.74438         1.65427
LJ           5.05672         1.01642        0.533442
LJ           1.03625        -1.94589        -3.89529
LJ          0.264225         4.17269        -2.64041
LJ           1.58353         5.03979         2.32274
LJ          -3.67223          4.6943         4.34161
LJ          -1.20121        -5.95396        -4.21984
LJ          0.137717          4.4404         1.84922
LJ          -3.47041         5.61941       -0.840207
LJ          -2.50862         1.95941       -0.313805
LJ          0.967632        -3.00803        -1.77889
LJ          -1.98772         -3.6832       -0.658446
LJ           4.78796        0.876806       -0.602836
LJ          -4.00073        -2.61541        -4.06754
LJ          -5.74527         6.27352         3.95841
LJ           4.40604           5.246        0.685173
LJ          -1.47806        -2.27831        -5.83924
LJ         0.0566161        -1.36492        -5.73185
LJ          -2.39264        -5.91134        -3.72412
LJ           5.76939       -0.698933          5.8273
LJ            1.3452        -3.50868         6.13936
LJ           1.43354         3.62616        -2.93105
LJ          0.326304          5.0753        -2.96703
LJ          -4.99866          5.7806        -3.59261
LJ           -1.4764        -1.71417          1.2129
LJ          -2.10798        0.218475        -1.76009
LJ          -5.10942         3.42024         1.29145
LJ          -2.74956        0.524377         5.61512
LJ          0.753844         2.87844        -3.07604
LJ           5.02271         2.72612        -2.93999
LJ           1.93163         2.28143        -5.64728
LJ         -0.250081        -3.51038          1.9657
LJ         -0.823239        -5.81951        -3.07689
LJ          -4.97845       -0.135508        -4.29138
LJ           1.45669         3.15619         5.97369
LJ         -0.593036         4.75287        -2.45795
LJ          -4.69925          1.9259       -0.382603
LJ          -2.60801         1.59367         -3.1276
LJ           6.11599          4.7018       -0.111837
LJ          -6.17513         6.31008        -3.54423
LJ          -2.69427       -0.160199        -4.74729
