108
#Comment!
LJ            3.8833      -0.0690884       -0.664755
LJ           2.36374        0.151735        0.107002
LJ          -3.94131        0.576175        0.525588
LJ          -4.56707        -6.03171       -0.824521
LJ          -1.09271        -5.72603         3.21608
LJ           2.49768        -2.84454         1.48754
LJ          -2.85679        -1.79183        -4.87733
LJ          -4.60308        -4.79976        -2.44568
LJ           2.13748        0.125369        -3.66497
LJ          -5.41465         1.68211        -1.83531
LJ          -2.65075        0.798232        -5.22689
LJ          -5.53787         5.81774         2.84604
LJ         -0.583296         5.24043         3.16043
LJ           5.37438        -3.78857       -0.458292
LJ           1.84201        -3.84106        -1.13329
LJ         -0.337956         6.27316         2.07807
LJ          -4.85858        -1.25292        -5.48566
LJ         -0.870063         3.18708         2.22231
LJ           4.91098       -0.264619        0.297804
LJ          -1.82162        0.264183        -4.79904
LJ           3.45437        -2.97143        -6.32389
LJ           5.97473        -3.94057        -4.00925
LJ           4.52195       0.0734718        -3.81604
LJ          -3.23478        0.778362         1.80813
LJ           1.22322        -3.92988        -4.85761
LJ          0.685787         3.19639        -3.69012
LJ          -4.14976         3.19505         2.22744
LJ          -1.44111         3.73283         4.45679
LJ          -4.80636         5.63699         1.80941
LJ           5.15176        -6.34132         0.74178
LJ          -4.44909        0.960418        -5.47878
LJ          -5.91847         1.56015         4.54788
LJ          -2.75389        -3.98648        -2.00277
LJ           3.88691       -0.303528        0.467808
LJ           6.09318        -2.42227        -5.58583
LJ          -6.31949         3.96302         5.80978
LJ         -0.915012         5.15079        -3.87408
LJ          -2.55554         5.51375        -2.89002
LJ           -3.4729        -4.18581        -1.46523
LJ          -4.20926         3.87117        -1.76482
LJ           4.38626          2.5571         3.79103
LJ           3.40144         3.64743        0.697411
LJ          -4.36902       -0.442084         6.31171
LJ           3.50099        -2.66033        -4.09109
LJ           2.79159        -1.01593         4.62631
LJ          -3.88616         2.77296        -2.23688
LJ           4.63853        -2.82575        -4.79375
LJ           3.29716        0.990624          1.5005
LJ         -0.524442        -6.41575         3.57247
LJ          -4.04286         3.17628        -5.91897
LJ          -1.30821        0.612172        -2.87871
LJ          -3.91444         1.66206       -0.269538
LJ          -6.18367         1.17657        -4.90783
LJ          -2.68109          4.9445        0.707136
LJ           5.09073        -1.05036        -2.55655
LJ          0.355264        0.217431         2.54103
LJ           2.26422         5.76753        -1.17065
LJ          -5.37685       -0.714448      -0.0265577
LJ           3.06242       -0.313472        -3.91816
LJ           5.15854         4.59108         4.25541
LJ          0.316448         1.15437         1.73336
LJ          -3.28742         5.96971       -0.740258
LJ          -4.37471         3.76107        -4.79785
LJ          -5.07307        0.230416        -5.74349
LJ           5.93834         6.01038        -2.22207
LJ          -5.28623        -5.55613        -5.00194
LJ          -1.98905         4.95403        -1.13068
LJ           -1.0939         1.94056        0.464193
LJ          -6.09597         3.55653         1.32465
LJ         -0.928049        -4.04851        -4.53955
LJ         -0.354939         2.39623        -3.61068
LJ           1.17246         6.42253        0.385355
LJ          -4.74302         5.79512        -6.35043
LJ            1.6345         -5.2256        -3.88567
LJ          -1.28782         4.73864         2.41993
LJ          -4.42331         3.42712       -0.800429
LJ          -1.43121        0.246467         0.56561
LJ           1.23766         -3.1822       -0.493253
LJ          -2.16611        -4.09813         1.56476
LJ           5.24473         1.56441        -1.54239
LJ          -4.16187        -2.97462        -6.23574
LJ          -5.16626        -6.13096          4.4343
LJ           2.94466        -4.89159         2.26814
LJ         -0.201245        -1.60885         5.39209
LJ           1.45864        0.151148        -6.05162
LJ          -2.26026         4.55844        -3.45597
LJ           6.25064       -0.475322         4.02767
LJ          0.943184        -2.70101         3.35497
LJ            1.4679         5.18159        -1.54704
LJ           1.75553        -5.81766        -1.12931
LJ          -5.43328        -5.74946         -3.1759
LJ          -2.40977        -1.94634       -0.405794
LJ          -2.90915         1.08578        -2.06948
LJ          -5.09793         2.35116          2.0678
LJ           -1.3169        0.673896        -5.87424
LJ           1.50383         1.83623        -3.38834
LJ           5.35999         3.47878       -0.915382
LJ           1.72593         1.74225         5.42177
LJ           1.51677        -2.83764         1.48015
LJ           3.16125        -4.76587        -1.85916
LJ          -5.89151       -0.578503        -3.63714
LJ           1.47298         5.81885        -5.62266
LJ          0.976589         6.21855        -1.42226
LJ          -2.39097         0.25459        0.946015
LJ          -4.59703         1.35884        -2.27663
LJ          -5.06207         3.48458         1.55836
LJ          -6.34353         4.28371        -4.80671
LJ          -4.16557       -0.285932        -3.95998
