108
#Comment!
LJ          0.925961        -5.44295         4.64495
LJ           3.88447         6.38578         4.48269
LJ          0.805343         6.22444          4.1945
LJ           4.51371         5.37959         1.64177
LJ           1.37138         0.58757      -0.0158511
LJ           4.47019      -0.0985443        -4.53246
LJ           -2.8936        0.896796        -6.04237
LJ          -5.46839        -4.30746        0.482622
LJ          -4.90054        -3.87456         5.80305
LJ         -0.924254         5.90358         1.88754
LJ           4.96898         4.35561        -2.24543
LJ          -1.28977        0.136458        -2.53656
LJ           -5.4124         5.05975        -3.21501
LJ          -5.30358       -0.885943          2.7422
LJ           3.34514        -3.76271        -2.72864
LJ          -2.22043        -1.36461        -2.26363
LJ          -2.72194       -0.724688        -6.42125
LJ          -5.54454        -5.55972         6.23927
LJ           6.35345         4.53257        -5.48401
LJ           -2.2948         4.06935          6.1148
LJ          -4.99606        -3.10637        -2.73065
LJ          0.925942        -2.05942         5.22047
LJ          -3.07899         3.64681       -0.432608
LJ          -5.53473        -5.03514         5.27577
LJ           6.42507        -4.32224        -4.41551
LJ          -1.81805        -5.54413         2.91076
LJ          -4.10905        -4.81751         4.18197
LJ           3.57751         3.61836         4.96034
LJ          -4.39139         2.94667       -0.161505
LJ          -1.38827        -1.18439         3.07911
LJ           5.68724         6.17397        0.379342
LJ          -2.23371         1.91135         3.16351
LJ           3.49547        -1.02658        -2.07845
LJ            3.4013         3.62805        -3.00617
LJ           2.19691         5.74767        -3.36319
LJ          0.198748         6.09581         2.02633
LJ          -5.94783         4.98503         6.21176
LJ         -0.189208        -1.70143        -3.83172
LJ          -4.68936         4.49175         5.42387
LJ           1.55282        -3.11863        -1.46339
LJ           5.92401        -5.58701        -1.42399
LJ          -1.36339          6.0076         3.43905
LJ          -6.17888           3.544         5.11467
LJ          0.366148         4.27598          3.2912
LJ          -2.33274        -2.29334         1.99496
LJ           6.41149         2.59746        -3.61528
LJ           1.38369       -0.844603        -3.22203
LJ          -6.42109       -0.797325         3.55112
LJ           3.54705         -5.4608        -1.89145
LJ          -1.52093        -2.11249         2.66874
LJ          -5.90709        -2.27324        -2.55341
LJ          -4.25702         4.41944          3.5075
LJ           3.89545        -2.58909         5.89566
LJ          -2.30702         3.67191         4.28864
LJ          -5.78896        -6.17332         5.02432
LJ         0.0564344         6.11351          5.7538
LJ           5.84885        -4.23358         1.05271
LJ           2.44472         0.53275        -4.96971
LJ          0.137579         2.58004        -1.21009
LJ          0.409164         5.85289        -5.54783
LJ          -4.44623        -2.46788       -0.334335
LJ           3.28944        -3.71516         6.02515
LJ          -3.82201       -0.658491        -1.84665
LJ          -5.29961        -3.36221         1.07796
LJ          -3.33906        -4.28895          4.7975
LJ          0.472066         1.55356         2.10645
LJ           2.29436         3.00929         4.00068
LJ           0.75838         4.78973         1.52898
LJ           5.19273         1.89362         -5.7728
LJ           2.21419         1.30044         1.68974
LJ            4.1313         1.24872         5.94804
LJ           4.05562         4.68589        -5.41624
LJ           1.57518         2.39655        -2.86863
LJ          -1.52753        -5.70004         6.19563
LJ           2.32097        -1.76227         2.93096
LJ           1.07238        -6.08213        -5.87425
LJ           2.18803         2.11964         5.27178
LJ           2.64978         5.62024         2.16634
LJ          -6.14362       -0.402335        -1.01426
LJ          -4.16357         5.40591        -4.19894
LJ           5.54688        -1.46794        0.694431
LJ           -4.3526         1.02972         3.47475
LJ          -1.28258         2.22124        0.786503
LJ          -6.29184       -0.661619         -3.2793
LJ          -5.04571         3.83428        0.684701
LJ          -2.17369         1.02069        -3.29957
LJ          -6.39882         6.35789         4.27783
LJ           3.91114        -3.89717        -4.22302
LJ           2.82983         -3.2844        0.969937
LJ           1.37269        -1.77854       -0.450917
LJ          0.505434         5.36042        -1.96702
LJ          -1.44297        -4.98116        -3.14926
LJ          -6.07956        -6.24724        0.916166
LJ           5.28962         1.49578         2.31216
LJ             2.158         1.95634         2.89905
LJ          -5.12826         1.95125        -2.63639
LJ           6.19388         1.53535        -2.04506
LJ           4.44813           5.395         2.82804
LJ          -4.60317        -2.26367         4.24743
LJ           6.03153         2.87178          3.6503
LJ           1.01339        -3.13614        0.272486
LJ           4.00496         1.35427         3.11439
LJ          0.384486         -2.5333         3.58117
LJ          -3.34559        -1.63477        -2.70786
LJ           3.23535         6.41083        -6.18956
LJ          -6.14019        0.337815        -4.10052
LJ           3.16249        0.997243        -5.78833
LJ          -2.22507        -2.19239        -4.82601
