108
#Comment!
LJ           2.06092         3.02741         1.98489
LJ           1.96627        0.995786         1.73695
LJ          -4.46786       -0.711637        -3.78617
LJ           4.91032        -3.06251        0.673662
LJ          -2.04134        -6.34575        0.960472
LJ          -5.46416        -3.85853          6.1492
LJ          -5.15177        0.648358        -4.09734
LJ           5.15847        -4.16756        -3.18761
LJ           5.39482         5.13494         5.72982
LJ           4.09605        -4.23327         2.81558
LJ           -1.6348          2.2228         1.35065
LJ          -4.28022        -3.23677          5.4906
LJ          0.725032        0.390824       -0.468942
LJ           2.46924        -2.33308          6.2894
LJ          -1.26546        -1.77684        -5.75515
LJ           -3.0558         -4.2211         5.59249
LJ          -2.92641        -4.47889        0.335232
LJ          -5.28496         2.77114         2.08713
LJ           4.35606        -2.78169         -4.3405
LJ          -1.30798          0.7356        -2.49616
LJ          -3.55384        -3.98745        -5.08826
LJ           2.84953         3.57275          -2.528
LJ           6.44294        -5.35977         5.08284
LJ          -4.48101         2.74747         -3.1262
LJ           3.67142         3.91033         4.85931
LJ         -0.162454         4.23186       -0.349704
LJ          -5.64276        -1.34906         5.17606
LJ          -4.19993         3.15485        -4.83128
LJ          -4.66931        -4.68935         6.16041
LJ         -0.606197         3.76224         1.43209
LJ          -2.52213          1.3071         -4.4224
LJ            -3.971         -6.2683        -6.36694
LJ          0.534968        -2.66232         3.34019
LJ           4.14582       0.0501013        -1.38221
LJ             5.268         1.59936        -3.73777
LJ           5.20395         2.48803         2.17996
LJ           4.64913        0.637745          1.6148
LJ            2.6907       0.0900908        -2.41122
LJ           -1.9705       -0.472954          1.6353
LJ          -6.09415         3.89119        -2.63749
LJ           5.09653        -2.93461         6.10695
LJ          -6.06037         1.49643        0.948798
LJ          -2.10091        0.136213        -3.01423
LJ          -1.15871         4.41464         2.53625
LJ          0.605117        -1.18195        0.770359
LJ          -5.77875         0.94976         -5.2456
LJ           4.20902        -5.80515         5.30726
LJ          -5.05071         2.22875        -1.39457
LJ           5.26175         3.82939        -5.54709
LJ         -0.549257         1.44397         3.83205
LJ           4.13633        -1.78535        -5.13996
LJ           2.68992        -5.64602         1.74369
LJ            3.0697          3.8843        -4.41825
LJ           5.90234         5.12039         -5.8125
LJ           5.84071         3.05794        -5.08581
LJ           2.56309        -3.34059        -1.14084
LJ           3.29108         -5.3807       -0.464686
LJ           4.48878        0.664295         3.83787
LJ         -0.548499         1.74423         -5.6228
LJ           3.62553         4.27413         1.90964
LJ           0.32668       -0.852697        -1.77123
LJ          -3.07269          2.4848        -2.00648
LJ           -4.4301          4.7154        -1.71565
LJ           3.66974        -2.83972         5.74198
LJ         0.0688794         2.51131        -1.10041
LJ           1.48811        -1.18711         3.58136
LJ           3.01909         6.16374         5.42042
LJ           3.54527        -1.97717         -1.9187
LJ          -1.29974        -2.95247         4.27122
LJ          -2.11313         4.08417        -3.51477
LJ            1.8828         3.13045        -4.54914
LJ          0.840189         6.34603       -0.267738
LJ           5.95484        -5.13743         -3.0074
LJ          -4.73702        -3.74484        -2.65775
LJ           -3.0015       -0.815381          1.3926
LJ          -3.77507        0.912412       -0.709924
LJ          -1.14557        -4.14812        0.567903
LJ           5.25341        -5.32784        0.134019
LJ          -4.10383        -2.77772        -5.75768
LJ          -6.16074         2.75852        -3.50485
LJ          -4.04564        -3.60166         1.65427
LJ          -4.35525        -3.92529        -5.69728
LJ          0.878543         0.50174         5.37468
LJ          0.205776      -0.0728524        -5.18191
LJ           4.25756         3.38583         5.61669
LJ          -3.49632        -4.41653        -2.76725
LJ           5.43733         -4.3801         1.18876
LJ           1.14088       -0.321109          -5.969
LJ            3.1925        -2.37146        -0.24603
LJ           6.30773        -3.97866          3.9861
LJ          -4.34833        -1.83489        -2.86575
LJ          -4.35112          -1.733        -3.96375
LJ          -5.90029         3.11044        -1.63808
LJ          -5.19464       -0.686906         4.28845
LJ          -1.56309        -2.34733        -2.95876
LJ           3.72632        -1.22535         6.38986
LJ           3.86525         4.98965         2.86706
LJ         -0.751287         3.21828         3.95204
LJ          -3.99533         2.12528        -1.09425
LJ           2.19331        -2.26925       -0.565783
LJ          -4.21441        -4.37653        -3.64251
LJ           0.74378      -0.0863636        -2.64358
LJ           3.86827        -4.81292        0.494835
LJ          -0.72196       -0.949631         3.80354
LJ           -5.3036         1.61704        -2.31497
LJ         -0.541511        -5.35168         3.32598
LJ           6.07636       -0.707043         5.42229
LJ           6.23388         1.83092        -4.14026
