108
#Comment!
LJ          -3.45542        -4.24495         2.42208
LJ          -2.05923         3.61673        -5.31774
LJ          -5.79852        -4.79948         3.64498
LJ           6.19907        -2.73868        0.625259
LJ           4.82638        -3.81613       0.0645366
LJ           4.94155        -4.07218       -0.986081
LJ           1.97897        0.101829        0.355294
LJ          -5.67494        -5.75661        -3.62596
LJ          -1.42355         3.56516         4.25968
LJ           2.71374         1.59091         1.48151
LJ          -1.99387        -1.65261       -0.184973
LJ          -3.03043         1.34088         5.38733
LJ          -1.03462         4.23343           3.068
LJ           5.45072         3.56736        -5.11765
LJ         -0.947278        -4.06474         4.77809
LJ          -1.75034        -5.96949        -6.17932
LJ          -3.11151       0.0782669         1.49436
LJ          -4.03571         4.01815         1.49235
LJ         -0.971621         1.33362         -6.1703
LJ            4.9099         -1.0661       -0.158449
LJ           5.83209        -3.09276         1.57541
LJ           -2.8908        -4.78129        -3.77467
LJ          -2.71503         1.30106          1.6651
LJ          -5.36276        -4.12223         4.16319
LJ           5.42332         4.46173         3.45385
LJ           1.83615         3.68264         1.36247
LJ          -1.60313         3.15511         6.20708
LJ          -5.76251         3.57515         1.63076
LJ           -3.2365         1.00532         0.57137
LJ          -4.64142         4.26001        -1.41507
LJ          -4.11064       -0.896017         5.15333
LJ          -5.00932         1.96954         5.65685
LJ            2.1834        -5.23851         2.00665
LJ          -4.14383       0.0363148         1.52958
LJ          -1.04715         4.11044        0.283046
LJ          -5.62528        -5.66671       -0.983164
LJ          -2.88108        -2.60648       -0.169188
LJ          -2.56456         3.43744         1.95561
LJ          -3.26476         4.85093        0.696562
LJ           4.46526         3.12336         2.56837
LJ           2.74522         5.53347        -3.44546
LJ           2.03962         1.13211         2.16219
LJ           5.29262        -6.18273        -4.75204
LJ          -5.32675     -0.00668015        -4.66464
LJ         -0.297682         2.90117         -1.9854
LJ           1.28818        -2.98236         5.37659
LJ            2.5695        -1.99705         1.28283
LJ           2.22788        -5.70183        -3.77609
LJ           2.20187         4.31286        -2.51795
LJ          -2.94442         3.20177        0.384195
LJ          -5.59817         1.82576        -4.20505
LJ           3.48552        0.486418         -4.4179
LJ           5.29021        -2.52407        -5.19801
LJ            0.8202        0.767619         4.37799
LJ            1.3466        -5.79043        -3.06316
LJ           6.35385        0.430636         1.80735
LJ           2.89454        -1.34511         2.39998
LJ           4.49447        -1.77221         5.61249
LJ           3.27391         4.81901         5.68515
LJ           2.35125        -2.52012        -0.48728
LJ          0.728545       0.0382604        -5.19633
LJ          0.114867         3.25437         5.13626
LJ           3.72956         5.06288         1.50268
LJ           5.96466         5.16429         2.88979
LJ           4.97145        -3.56733        -4.00198
LJ           3.41897          3.7488          2.6231
LJ           3.10956         6.15565         -4.8691
LJ           1.80522         5.46564       -0.670539
LJ           5.19159         5.33918        -4.00256
LJ          -5.75042         6.23752       -0.350958
LJ          -0.22045        0.503023         1.99426
LJ           4.74455        -4.25924        -2.20536
LJ          -5.77171        -4.08508         2.98307
LJ          -4.36668        -5.34938        -1.29283
LJ          -3.64582        -4.47629        0.926441
LJ          -1.40578         5.24778        -6.20423
LJ           1.88118         2.18887        0.523354
LJ          -3.97845         2.20079        -3.72039
LJ          -4.56795        -4.74423          5.1488
LJ           6.40722        -6.28562         1.92981
LJ           -4.8796         2.43545        0.306498
LJ           2.39599         5.41376         3.96092
LJ          -6.12746         4.22692         2.51023
LJ           6.15141         2.94383        -5.71541
LJ          -6.32555        -3.22766         2.58857
LJ           5.95427        -3.05823        -2.12786
LJ         -0.232189          4.7854        0.762664
LJ          -4.63452         3.05022         1.56142
LJ           5.99257         3.69502         1.67763
LJ            4.7112         5.76818         2.43611
LJ           5.56758         -4.9049         3.05029
LJ         -0.452889         5.37647         6.10778
LJ           2.99759        -2.60431        -6.10111
LJ           6.09996         2.19158       -0.871336
LJ          -5.78885        -1.00414        -2.51149
LJ           5.19834        -6.08201         1.70015
LJ          -2.13275        -4.14652          5.1848
LJ          -5.72387         6.41027        -5.83113
LJ           1.10651         1.82044         6.42297
LJ            5.2217         1.39733       -0.767879
LJ           3.64029         4.26065       -0.522696
LJ          0.716135         1.55591         3.61995
LJ          -6.13007        -3.57805        -4.89928
LJ          -2.89641        -2.44576         6.05949
LJ           5.55526          2.3446        -4.31925
LJ          -5.53338         -5.7302        -6.39783
LJ           2.85384        -1.82539         4.17717
LJ           5.06481        -3.47418        -5.39741
