108
#Comment!
LJ          0.912497        -5.45838         4.64368
LJ             3.794         -6.4601         4.47726
LJ          0.854489         6.31053         4.24478
LJ           4.50453         5.33484         1.63123
LJ           1.34281        0.553916       -0.100367
LJ           4.50438      -0.0227337        -4.46922
LJ          -2.92202        0.940947        -5.99826
LJ          -5.50031        -4.30985        0.490189
LJ          -4.83875        -3.88323         5.77524
LJ         -0.920604         5.88901          1.9197
LJ           4.91264         4.33832        -2.22977
LJ          -1.30196       0.0981389        -2.64511
LJ           -5.4102         5.04011        -3.17237
LJ           -5.2459       -0.854234         2.80794
LJ           3.36932        -3.75815        -2.76388
LJ          -2.26948        -1.37048        -2.21693
LJ          -2.71286       -0.690217        -6.43808
LJ          -5.51536        -5.60111         6.27474
LJ           6.35467         4.48084        -5.51042
LJ          -2.29185         4.18297         6.15753
LJ          -5.04544        -3.18394        -2.69485
LJ           1.01222         -2.0392         5.28589
LJ          -3.12684         3.68209       -0.454708
LJ          -5.57286        -5.05951           5.223
LJ           6.40661        -4.37109        -4.38582
LJ          -1.77288         -5.6096         2.92173
LJ          -4.18793        -4.82253         4.12178
LJ           3.65024         3.66009         4.89984
LJ          -4.40875         2.97684       -0.202703
LJ          -1.44831        -1.16363         3.10164
LJ           5.67898         6.08437        0.324892
LJ          -2.22595          1.9082         3.17246
LJ           3.51432       -0.980426        -2.06261
LJ            3.3636         3.60124        -3.01882
LJ           2.18106         5.71271        -3.36728
LJ          0.187849         6.16096         1.96064
LJ          -6.04599         5.00672         6.24861
LJ         -0.146432        -1.75023        -3.78942
LJ          -4.67325         4.45833         5.48767
LJ           1.56956        -3.03606        -1.45895
LJ           5.91719        -5.58157        -1.36234
LJ          -1.36492          5.9887         3.45627
LJ          -6.06494         3.54214         5.12459
LJ           0.48487          4.2329         3.30643
LJ          -2.32152        -2.28107         2.00097
LJ           6.37918         2.57991        -3.68245
LJ           1.44707       -0.822384         -3.2635
LJ          -6.37649       -0.804447         3.55249
LJ           3.61928        -5.50304        -1.87169
LJ          -1.46616        -2.18505         2.63034
LJ          -5.93755        -2.30438        -2.62279
LJ          -4.17739         4.43458         3.50905
LJ           3.84202        -2.57596         5.94603
LJ          -2.29974         3.63531         4.36581
LJ          -5.82438        -6.13898         5.04667
LJ        -0.0237906         6.08136         5.74749
LJ           5.92119        -4.23341          1.0505
LJ           2.43462        0.480209        -5.01268
LJ          0.160312         2.62774        -1.28232
LJ          0.452893         5.90062        -5.50509
LJ           -4.3999        -2.41478       -0.418228
LJ           3.23646        -3.70944         6.11841
LJ          -3.82348       -0.657076        -1.88422
LJ          -5.40428          -3.408         1.07347
LJ          -3.39916        -4.33439         4.75736
LJ          0.493962         1.61539         2.06406
LJ           2.36375         2.97371         3.99525
LJ          0.716932         4.75549         1.49497
LJ            5.1591         1.90576        -5.83265
LJ           2.23132         1.31403         1.70466
LJ           4.06644          1.2171         5.96551
LJ           4.03922         4.67732        -5.50803
LJ           1.57261         2.38212         -2.8775
LJ          -1.52237        -5.69235         6.25744
LJ           2.24309        -1.91416         2.88997
LJ           1.07905        -5.99602        -5.84862
LJ           2.18257         2.12824          5.2603
LJ            2.6461           5.672           2.198
LJ           -6.1571       -0.399314        -1.09076
LJ          -4.21433          5.3491        -4.20444
LJ           5.47227        -1.45291        0.624859
LJ          -4.37122         1.05105         3.50524
LJ          -1.19262         2.25596        0.851612
LJ          -6.27482       -0.706294        -3.23161
LJ          -5.00502         3.76735        0.640522
LJ          -2.14954         1.01761        -3.30117
LJ           -6.3925         6.40484         4.30228
LJ           3.85716        -3.91146        -4.18559
LJ           2.90582        -3.33768        0.962864
LJ           1.31241        -1.71781        -0.43179
LJ          0.510254         5.38752        -1.94416
LJ          -1.40847        -5.01899        -3.09609
LJ          -6.02419        -6.25589        0.862957
LJ           5.25136         1.52793         2.37537
LJ           2.21632         1.93929         2.90452
LJ          -5.18272         1.99713        -2.58957
LJ            6.2483         1.55231        -2.05385
LJ           4.46691         5.45641         2.79223
LJ           -4.6903         -2.2217         4.23729
LJ           6.07142         2.88989         3.57944
LJ           1.05456         -3.1289         0.25338
LJ           4.02231         1.39976         3.19305
LJ          0.334386        -2.54924         3.58089
LJ          -3.36073        -1.61776        -2.71496
LJ           3.20416         6.38646        -6.20436
LJ          -6.10088        0.437744        -4.02273
LJ           3.12819        0.960062        -5.80793
LJ          -2.19763        -2.26722        -4.81588
