108
#Comment!
LJ        -0.0436037        -2.51405         5.48278
LJ         -0.627847        -3.08025         4.52136
LJ           3.71029        -6.42713         5.42059
LJ           4.23317         3.99968         1.88278
LJ         0.0330015        -1.27382        -3.59582
LJ          -6.26455         2.73594        -2.89982
LJ          -3.99943         2.41678         -3.7134
LJ          -5.63224        -6.15538       -0.942849
LJ          -2.19404        -4.95408         3.73243
LJ         -0.384236         4.43009         2.90204
LJ           2.27833         3.48721        -1.65636
LJ          -2.46952       -0.393013         5.49929
LJ          -4.11708         4.71926        -2.40962
LJ           -3.4493        0.409156         5.81253
LJ           4.50269        -2.93633        -2.14525
LJ          -1.54535        0.665393        -2.38111
LJ          -2.34145        0.767182         5.93491
LJ          -5.43696         5.69384        -6.20468
LJ           6.32537         2.92114         5.67207
LJ          -2.19681        -3.75977        -5.28848
LJ           5.30849        -6.23777        -1.14126
LJ           4.51506        -1.04187        -4.60415
LJ          -4.89898         5.24199        -1.63461
LJ          -6.29099        -4.30939         3.28211
LJ           5.61542         6.44852        -2.94166
LJ         -0.196117        -6.01767         3.40399
LJ           5.61882        -5.20781         2.06317
LJ          -6.09222         5.23527         2.50368
LJ          -3.07554         5.25286        -3.62093
LJ          -4.15451       -0.724785         3.92162
LJ           5.02866           2.895       -0.796297
LJ           -1.9027         1.80292         3.60917
LJ           4.22421        0.640087        -1.16419
LJ           1.97884         2.99282        -3.61596
LJ           2.33639         4.83515        -3.40135
LJ         -0.780081        -4.38235       -0.540729
LJ           2.65478         5.14586        -4.57237
LJ           1.86135        -3.86665        -2.00822
LJ           -4.2948         3.30982        -4.98947
LJ           2.31817         0.61601        -1.00731
LJ           6.20546        -5.27996       0.0953067
LJ          0.233025         4.23906         4.72147
LJ         -0.805285         3.54164         5.72767
LJ           3.53681         2.35312         4.33568
LJ           -1.4957        -1.91205         2.59554
LJ           4.94396         1.66435         6.35715
LJ           4.14133        0.457718        -5.39006
LJ          -3.47463        0.297765         2.71488
LJ          -6.19581         5.12759        -1.08357
LJ          0.922101        -4.91549         1.71235
LJ           6.05799        -3.88124        -5.44425
LJ          -1.82315         4.85461         3.09108
LJ           1.60838        -2.42088        -4.39046
LJ          -2.16103         2.13357        -5.23471
LJ          -6.05499         6.24476        -5.31506
LJ          -3.72695         4.72599         5.55374
LJ           6.11565         5.18963         1.25143
LJ           1.65976        -2.54904        -6.23104
LJ          0.658894         3.68196        -4.73324
LJ          0.799023        -5.63101        -4.82031
LJ          -5.64011        -1.00436        -4.00426
LJ           1.26957        -3.42311         -2.9409
LJ          -3.68731       -0.593534        -2.17949
LJ           5.72303       -0.633403           2.255
LJ           5.78594        -5.83656         2.99801
LJ           3.72238         3.59928        0.166326
LJ           3.22995         2.03554         5.39193
LJ          -1.19103         3.24543         0.28017
LJ           3.29994         1.09489        -5.47045
LJ           3.43775          2.2082         3.21014
LJ           2.57482        0.788167         5.46855
LJ           3.39077         4.29654         3.31664
LJ          0.963914         1.65072        -2.99934
LJ          -0.76046         6.28611         -3.9497
LJ          -1.45308          4.2578         1.07395
LJ           1.12546        -4.24547        -3.68446
LJ           2.56204         2.77413         3.91172
LJ           2.58832        -4.97002         3.72439
LJ           6.22214       0.0421157        -4.45166
LJ           6.21173         2.78355        -3.95676
LJ           2.00992       -0.286734        -2.59154
LJ          -5.17556         1.73789          4.8458
LJ           1.19795         4.42318         3.98949
LJ          -5.97764        -3.13681       -0.991044
LJ          -3.89058         1.77072        0.314063
LJ          -0.61247       -0.273973        -3.48163
LJ           6.39846        -4.24314         4.69438
LJ           2.65047          -2.522        -4.21864
LJ           5.87916        -4.66817         1.16254
LJ          -1.14835        0.911506       0.0933121
LJ           1.37919         6.36896       -0.904748
LJ         -0.487825         6.45066       -0.764262
LJ          -4.03259        -6.33359        -1.55385
LJ          -5.91218           2.178         3.88925
LJ           4.53258         1.20024         2.18908
LJ            6.0216         4.33285        -0.10041
LJ           -6.4121        0.237444         -2.0629
LJ           3.97598        -5.82961        0.827514
LJ           4.40512         -1.3244         4.50011
LJ          -5.14694         3.63234        0.409213
LJ           2.97432        -2.40433       -0.990778
LJ           4.91126         4.47405         3.96867
LJ          -2.08772        -3.24166         2.80826
LJ          -3.32848        -1.89859         -2.6862
LJ           1.90591         5.26354         5.86465
LJ          -6.11267         3.96186       -0.790143
LJ           1.37331       -0.370517         -6.2453
LJ           -1.1856        -4.36125        -4.21693
