108
#Comment!
LJ          -4.23738         6.22912         3.19099
LJ          -1.46548         3.64286        -4.73993
LJ          -4.07007         4.88532         3.49478
LJ           5.76794         -3.8244       -0.117744
LJ           3.59934        -1.63794        0.942765
LJ           2.09188        -4.21273        0.329903
LJ           2.91512        0.427246        0.522813
LJ           6.19227         4.44025        -4.92661
LJ          -1.71526         3.03146         3.90784
LJ            5.3482        0.439888         1.52615
LJ         -0.467729        -2.28827        0.413163
LJ          -1.98736         4.03176         4.83876
LJ          -1.30681         5.19898          5.1869
LJ           3.13322         4.06692        -5.31899
LJ         -0.955361        -5.42476          3.1653
LJ           -1.2073         5.25012         6.16045
LJ          -2.67532       -0.158668      -0.0164752
LJ          -5.53813         3.82981         1.60032
LJ          0.240511         2.12934         -5.5924
LJ           4.62534       -0.532167        -1.53387
LJ           4.72995        -3.38673       -0.164025
LJ          -3.55799        -5.19572        -3.36612
LJ          -4.63236         2.68283         1.41999
LJ          -4.37335        -3.46171         2.68014
LJ           5.48112         5.94165         4.68858
LJ           2.92888         2.40612        0.919384
LJ          0.395459         5.07026         5.43119
LJ           5.79108         3.60614         2.27884
LJ          -2.41342        0.947182       0.0339015
LJ          -1.17185         4.63406       -0.757219
LJ          -4.17707        0.818449         5.51007
LJ          -5.67649         1.69343        -6.17979
LJ         -0.107353        -6.06144         2.90428
LJ          -4.47272       -0.505397       -0.607203
LJ          0.194532         3.20164         2.20487
LJ           5.14039        -4.74381       -0.987773
LJ          -4.49373        -2.45418       -0.138534
LJ          -2.69601         3.75845        0.997777
LJ          -2.70555        -5.74131        0.195104
LJ           5.87812         2.01267        0.777928
LJ           3.85646         -4.6412        -4.88967
LJ           2.13838         1.27501          3.3364
LJ           5.40168        -5.92899        -4.53935
LJ          -4.05417         3.07242        -5.89788
LJ           2.22531         1.13654        -2.19318
LJ           1.99222       -0.172284         3.30624
LJ           2.52465        -2.07636         2.74963
LJ           1.59912        -5.02203        -2.59291
LJ          0.882324         2.84361        -1.52868
LJ          -4.49782          4.1099         2.95827
LJ          -5.56379         4.87187        -5.47849
LJ           3.58089        -1.28637         -5.2812
LJ           6.34466        -1.17286        -3.25597
LJ           1.09947        0.318935         3.11349
LJ           2.22181        -4.71973        -1.52108
LJ          -4.08256        -1.52968         2.64369
LJ            2.9413         -1.9092         3.97399
LJ           5.25042        -1.25366         2.96118
LJ           3.66877         4.65368         5.75579
LJ           1.02433         -1.8398       -0.713753
LJ         -0.954879        -1.92082        -4.56517
LJ          0.587581         3.91726        -2.90646
LJ           5.78846         5.77093      -0.0114264
LJ           6.46306        -6.36481         2.13345
LJ          -5.26388        -4.24048        -3.99946
LJ           2.72432         1.59909          2.2401
LJ           2.11461         3.47082        -4.05672
LJ           2.42735         2.91491        -1.40734
LJ          -5.77057         5.56196        -3.27964
LJ          -4.24104        -5.97933        -2.06244
LJ         -0.552136         2.21138        0.155991
LJ           5.41458        -6.10313        -1.32113
LJ          -5.42261         -4.7677         2.32471
LJ          -4.89153        -2.97546        -1.34998
LJ          -3.99423          6.3684         1.70198
LJ          -4.26107         3.56861        -5.08362
LJ           4.06983        0.345148        -1.58915
LJ          -3.87572         2.73073        -4.87046
LJ            3.8456        -3.49921         5.06271
LJ           5.11571        -4.86541         1.89806
LJ          -5.17886         2.40613          0.2341
LJ           3.37525         6.12392         2.47695
LJ          -6.43496         4.55083         1.61831
LJ           3.74625         3.38896        -6.10795
LJ          -6.41601        -2.89266         2.65255
LJ           5.96007       -0.595104        -1.57811
LJ          0.618622         3.53875       -0.780531
LJ          -5.75433         2.75945         1.61297
LJ           5.94907         1.38024         1.69203
LJ           4.18418         5.02679         4.58765
LJ           5.14555        -6.09971          4.0542
LJ         -0.397314        -6.23776        -5.89651
LJ           4.76935        -2.70013         5.88855
LJ           5.91557         3.71758        0.694658
LJ           4.00167        -4.00243        -3.18966
LJ           4.20388        -6.36942         1.31201
LJ          0.135016        -5.23627        -5.36072
LJ          -4.67954          5.4376        -6.05332
LJ         -0.260751         4.40678         6.39461
LJ           3.91596         2.27573         0.31641
LJ           1.16764         3.39549         0.02885
LJ           3.57874         2.58775         3.32265
LJ           5.72709         6.38819        -3.35757
LJ          -2.92948        -1.49957         6.19852
LJ           4.58298         3.41818        -5.49242
LJ          -6.32282        -4.16529         5.16676
LJ           4.94592       -0.771451         4.34253
LJ           4.85812        -4.67212        -4.64697
