108
#Comment!
LJ           2.85321         4.31089         2.42789
LJ         -0.809268         1.66459         4.51923
LJ           2.35053         1.49318        -1.60343
LJ          0.755044         -2.7618        -4.95002
LJ          -2.90243         4.08527        -1.10214
LJ           -6.0168        -4.90294       -0.192056
LJ          -3.23729         4.14321        -4.22419
LJ           3.18583        -4.85284         3.53695
LJ           1.73611         -5.6214        -5.55697
LJ           3.12619          6.4224         6.34367
LJ           5.75368         4.22102        -4.56009
LJ           2.25589         1.17305       -0.654802
LJ          0.556031         3.85891        -2.61896
LJ          0.319331        -1.44886        -6.24574
LJ           2.28413        -4.86907         1.31053
LJ          -3.92808        -2.95069        -2.25266
LJ         -0.452293        -4.10129        -3.61593
LJ            6.2465         1.63983         2.43337
LJ            2.3391         3.10005          1.8473
LJ           0.57381         1.32427         2.84706
LJ          -1.16241        -3.84832        -1.08397
LJ          -3.61088        -1.43257        0.354663
LJ          -5.10716        -2.58844         2.63815
LJ           2.86174         3.82235       -0.571599
LJ           3.84162        -2.50465        0.387301
LJ          -2.43044         3.35461        -4.88185
LJ          -5.92797         2.34209         2.88389
LJ          -4.47593         4.13245         4.84498
LJ        -0.0491987       -0.511866         -4.4282
LJ          -3.87817        0.816873        -1.85812
LJ           2.17022       -0.415933         5.32527
LJ           -4.5386        0.597924      0.00530764
LJ           4.74905         3.19574        -6.37451
LJ          -3.69341        -0.94674        -3.53078
LJ           3.39096        0.243889         5.44268
LJ           3.61228        -1.18648        -4.08189
LJ          -5.99977         5.65228        -4.32966
LJ           5.19859        -3.70524         5.73107
LJ         -0.986642        -3.76722        0.597572
LJ          -2.84696         -3.6522        -6.03825
LJ           1.79145         3.78641        -1.84849
LJ         -0.968293        0.216915           4.295
LJ          -1.98633       -0.993202         2.30755
LJ           4.80684         5.73111         1.74229
LJ          -3.96026        -3.68343        -5.02111
LJ           4.67052         -1.9267         5.95605
LJ           1.19851        -2.25745         3.14756
LJ           2.95056         5.03395        -4.98531
LJ           1.98584         2.91703        -3.02306
LJ          -3.20406        -1.70708        -5.00261
LJ           6.24632        -4.50485         5.20275
LJ          -1.24626         1.25549         1.39468
LJ          0.799606        -4.12891        -3.60786
LJ          -6.41311        -5.31698       -0.882616
LJ          -5.53061         3.91021         4.85712
LJ          -3.57212        -3.27007        -1.22083
LJ          -3.97365         4.53849         1.08411
LJ           4.94086         3.43159        -2.56656
LJ           4.85179        -6.19999         6.40891
LJ          -1.44093        -5.04727         2.84848
LJ           1.09387       -0.585466        0.207002
LJ          -5.71707        -1.18041         5.48912
LJ           -6.1659        -4.54379         3.48443
LJ           5.21555        -0.79576         2.59527
LJ           -3.8659        -1.87462        -1.05051
LJ           4.05126         6.40153        -2.76478
LJ          -6.44376        -6.45616        -2.76388
LJ          -6.37298        -1.27449         3.89683
LJ            3.4476        -5.72536        -3.82935
LJ          -1.19504          3.4424        -1.31058
LJ           5.40811         5.51054         -2.0327
LJ           4.59016       -0.321747        -0.24855
LJ           2.73182        -6.26784         3.28194
LJ          -3.75122        -5.36422        -5.45812
LJ         -0.475178         3.69757         2.82514
LJ          -6.24287      -0.0407159         2.70402
LJ          -2.54902         3.73126        -3.47607
LJ          -5.05555         5.50922         1.64998
LJ          -6.32979        -2.04565         4.73839
LJ          -5.97633         4.37941         6.40324
LJ          -1.10951        -5.32633        -1.26828
LJ          -6.42197        -4.02464        -0.62868
LJ          -1.69808         3.40769        -2.59901
LJ          -1.33106         2.35607         2.42998
LJ          -1.54272           5.597         1.47096
LJ           4.65948         1.39462        -5.67635
LJ           3.91181       -0.399796         3.82676
LJ           1.42079         4.42491        -0.63442
LJ           3.53469         4.25751        -2.71296
LJ           -3.9992        -5.96231          2.6371
LJ          -5.39705          3.5718         6.16278
LJ            1.2003        0.304727        0.838141
LJ          -4.74975         4.48148         -6.2094
LJ           3.83654       -0.745551         4.71805
LJ          -5.84429         4.13403        -1.62602
LJ           4.79612          4.2213         3.52137
LJ         -0.459496           6.052         5.09375
LJ          -6.08736         4.81625        -4.84259
LJ          -3.50706          1.4768         1.44377
LJ          -3.30886          -5.049         3.45097
LJ          0.537074          2.0708       -0.515656
LJ           5.67344        -5.08722        0.369322
LJ           3.83133         5.02433          2.9673
LJ         -0.013853         1.03881         5.30575
LJ          -3.18674        -1.64354         1.99667
LJ           6.42118       -0.867601         6.21991
LJ           4.38559         -3.9356         2.18292
LJ         -0.781722        -6.16923        -6.21687
