108
#Comment!
LJ           4.83979        -4.35607         5.82468
LJ          -5.03623        -1.51723        -1.93963
LJ          -1.89546         0.11623        -5.19249
LJ          0.152914        -5.66285      -0.0273877
LJ         -0.125701        -1.39308         1.53864
LJ           2.08011        -4.60725         2.13963
LJ          -1.56717        -5.32322         3.14859
LJ          -4.53067        -5.40854       -0.704151
LJ           2.57225        -3.39294         5.14307
LJ          -2.88085         5.27852      -0.0561335
LJ          -3.14836         5.91095        -4.23774
LJ          -3.97899         -3.2049         4.66577
LJ           -4.5137        -6.46095         4.33704
LJ           -2.9736         2.97771          2.8312
LJ           0.79017         6.35962        -2.76171
LJ          -1.46875       -0.217849         6.06541
LJ          -2.52344        -2.30666        -5.46746
LJ           5.25038         5.38303        -4.26193
LJ            6.3694        -5.89592         5.86789
LJ          -3.30174         6.38946         1.85409
LJ          -3.38265        -1.22774        -2.97342
LJ          -2.98778        0.985043        -2.54431
LJ          -2.87075          2.5489        0.285387
LJ           1.09245        -2.62963        -4.66836
LJ          -5.60327        0.425943          4.8696
LJ          -3.51957        -5.66757         1.30839
LJ           2.09269        -1.34614        -5.06835
LJ          -3.59835         2.33569        -1.99276
LJ          -2.56742        0.320821         1.28089
LJ            1.2884        -3.28222         4.03655
LJ           3.64466        -2.93501         5.29329
LJ          -2.25605         2.21656         2.96743
LJ           1.86547        -3.48429        -3.98574
LJ            5.5864         3.92415         2.02441
LJ           4.58002        -3.84046         -3.1543
LJ          0.895743         1.57319        -2.88535
LJ          -2.33079         2.85664         4.49317
LJ          -5.61869         4.03424        -5.32316
LJ           5.50424         4.49894        0.844383
LJ          0.132533         2.26473        -1.04618
LJ           4.89374         -3.5188        -1.98057
LJ         -0.841598         5.20067        -1.03483
LJ          -4.71823         5.10151         4.70323
LJ           6.33377        -5.41026         2.25861
LJ           1.47074        0.474378         3.79996
LJ           -3.4057         3.97237         3.22608
LJ          -4.01207        -4.29606       -0.762618
LJ           3.59653       -0.357392         2.17309
LJ         -0.787858      -0.0581805        -3.05662
LJ          -5.52868         2.08675          1.7007
LJ            -3.658        -2.19434         4.12843
LJ          -5.02647        0.820481       -0.670632
LJ           4.46335        -2.06699       -0.600311
LJ          -1.87427        -4.08093        -2.15509
LJ          -1.85976         4.65484         3.58978
LJ           5.90073        -1.95755         5.96797
LJ          -2.54813        -2.86219        0.314726
LJ           4.18948         5.35328        -2.86242
LJ           1.68069       -0.983785         4.78379
LJ         -0.140753       -0.315504        -5.88242
LJ          -5.19002        -4.77588        0.452036
LJ          -3.87807        -3.24018        -1.92956
LJ          -0.25086        -2.16224       -0.736582
LJ          -5.79473        -1.44793        -6.34015
LJ           1.67901        -2.17389        -6.07881
LJ         -0.115823         4.15151        -4.81703
LJ         -0.689722        -5.13164         -1.1667
LJ           3.41317          4.5922         5.65478
LJ           -6.3546         5.96398        -2.69188
LJ           2.74316         4.01639        -2.45168
LJ          -4.11565        0.906152        -2.50178
LJ           6.16609        -3.69981        -4.10419
LJ            1.3322         4.05409        -2.45622
LJ           -1.2775         5.70827         4.12469
LJ          -4.40531         5.91479        0.570087
LJ         -0.943815        -2.51271         4.78283
LJ           2.18656       -0.122897         4.42028
LJ           2.23595        0.670392       -0.593915
LJ          -4.42125       -0.322479         6.21181
LJ          -2.06557        -4.75479        -5.21487
LJ           4.76782        -6.05278        -3.38192
LJ          -2.74972       -0.787812         1.70771
LJ          -6.14084         -2.9927         -2.2077
LJ           5.16838        0.897332         6.44009
LJ           6.46297        -4.22355         2.61682
LJ          -3.32745         4.35257        -3.13445
LJ           6.01255         5.70852        0.643661
LJ          -4.47294        0.319524        -4.17772
LJ          -4.94794       -0.399713         1.56219
LJ           2.66177         4.89842         4.73836
LJ          0.729111         2.38235        -3.87585
LJ          -4.24297       -0.336625         4.59078
LJ           5.45565        -4.77051        -5.70504
LJ          -4.19403        -1.87001        -3.51501
LJ         -0.814226         4.79215         1.81002
LJ          0.873723       -0.800824        -3.07483
LJ           1.17189      -0.0357698        -1.41783
LJ          -1.13995         4.46132         4.63362
LJ           2.55665         5.98579        -4.63916
LJ           -5.5758          4.8806        -2.48537
LJ          -1.31003        0.853506         3.22256
LJ           2.72732        -2.42408        -4.01246
LJ           5.84428        -4.34623        -4.75548
LJ          -1.82246       -0.800692        -2.34727
LJ          -5.40026        -5.61928        -6.11847
LJ          -5.32892        -3.78444         5.83872
LJ           4.82595         4.24706        -2.38821
LJ          -3.93531         4.03038         4.12929
