108
#Comment!
LJ          -1.87896        0.382736          4.8621
LJ          -5.34711         2.08033          6.4067
LJ          -5.68666        -6.35105        -6.06764
LJ           5.03563         1.95433         1.41986
LJ          -1.67495        -2.72638         5.67761
LJ          -2.95488         1.56962        -5.18051
LJ          -5.07921         2.24635        0.975991
LJ          -3.26136        -5.30935        -2.96559
LJ           1.03949         5.66192         1.72183
LJ          -1.15588         3.17774         3.70965
LJ          -0.82347         2.50753        -1.80942
LJ          -3.18513         2.17882         1.59551
LJ          -1.55243         6.03098        -2.34138
LJ          -2.05573         1.10852        -4.02573
LJ           6.17906        -2.43536       -0.932089
LJ          0.823471         2.90829        -3.28401
LJ         -0.756362         1.53743         4.74346
LJ           -6.0596         4.71979        -3.65628
LJ          -6.16378        0.808634         4.36054
LJ          -1.54659         2.04818        -3.51663
LJ           2.62903         2.09827         1.53012
LJ          -4.18054        -1.49117        -3.28238
LJ          -3.28131        -6.31884        -3.98385
LJ           5.89009        -3.00381        0.259245
LJ           5.40126         4.24856       -0.618914
LJ           1.20363        -5.49711         3.90065
LJ           2.30983        -5.99218        0.851293
LJ         -0.779185         5.66155         4.09479
LJ         -0.281847        -2.96343         6.09815
LJ           5.60954        0.153431         4.09785
LJ           1.26476         1.68637         1.39886
LJ           2.09273         1.03066         2.75219
LJ           4.47309         2.24858        0.306667
LJ           1.23334         4.36746        -5.02914
LJ            4.9877         5.09794         -2.2398
LJ          -1.78632        -1.87786        -3.58714
LJ          -3.03219         4.49217        -2.01384
LJ           3.50854        -6.39923        -0.78112
LJ          -4.07599         6.24562        -5.38113
LJ           3.56723         4.22644        -1.35092
LJ           6.39993        -5.59091         1.81051
LJ           3.45535         4.26328         5.11107
LJ           5.49695         3.65142        -5.40606
LJ           4.24312         3.13876         5.98047
LJ         -0.625591        -2.64687         4.08897
LJ           4.64062        0.114913         4.21614
LJ           5.85738          3.8303         5.31497
LJ          0.125344         2.81702         1.75316
LJ          -3.18063         4.97885        -5.58122
LJ           4.02426         4.88763       -0.352161
LJ           4.97681        -6.04195         4.11329
LJ         -0.680035         4.54653         2.20687
LJ           1.00667        0.514676       -0.673226
LJ          -2.62273       -0.814941        -2.30322
LJ          -5.21189          4.2003        -4.15988
LJ           5.57551         4.74691         6.31136
LJ          -5.87672         5.08889         1.72626
LJ          0.973108        -5.32722         4.96437
LJ         -0.491411         2.17408         3.99477
LJ           -2.5584        -6.41623        -5.21727
LJ           6.40739        -1.01551         6.09746
LJ          -0.14665         -6.2072        0.788492
LJ          -3.73509        -0.93175        -2.66423
LJ           3.88854         2.77652         3.97749
LJ           1.98686         5.57777         2.27887
LJ           2.58279         3.15889        -6.23293
LJ           1.86065        0.687522         5.66374
LJ          -1.49775         2.66931        -2.58243
LJ         -0.462231         1.16707         -3.6246
LJ           5.36744         1.46479         -5.9253
LJ          0.408903         1.64807        -6.36472
LJ           2.16606         2.93928       0.0736246
LJ         -0.892672         0.95132        -2.73574
LJ           1.16266         1.75256        -1.59662
LJ           5.90029        -1.02783         1.47557
LJ          0.533664        -4.83387         1.25564
LJ           4.22084         4.73954         2.73191
LJ           2.39935        -2.22278         5.84955
LJ           5.78864      -0.0442431         5.56229
LJ           3.69135       -0.491894         -2.6422
LJ          -1.86626        0.410885         5.84653
LJ          -6.14906         2.58446          6.4142
LJ           4.51639         3.66844         3.66714
LJ          -6.24724        -5.37858        -1.92947
LJ          -2.38517        -2.52569        -1.54069
LJ           2.45412        -2.36656         -3.7768
LJ           6.40942        -0.87989         5.04316
LJ            1.0852         2.10231        -2.66056
LJ          -4.52157        -4.00957         3.19397
LJ          -5.63781         2.85159          1.7283
LJ           2.94238         5.29761        -1.41939
LJ          -1.36233         6.33843         1.43632
LJ          -3.83847         4.87771        -4.33491
LJ          -1.75193         1.47426         5.65568
LJ           5.94894         1.52441        0.249921
LJ          -5.69929         6.02266         3.34753
LJ           6.10805       -0.926898       0.0634866
LJ           1.68662        -4.43894          1.8466
LJ         -0.322473       -0.645391         5.23243
LJ          -3.37984         4.61878        -3.11635
LJ            4.8869        -1.10258        -2.96896
LJ           4.68085        -5.23265         1.98729
LJ          -4.13533        -2.61259        0.836014
LJ          -3.28513        -2.16579        -2.19877
LJ       -0.00639408         5.33195        -3.36296
LJ           5.58312        0.904791         1.77562
LJ         -0.870786        -2.07482         6.00154
LJ         -0.944079        -3.07416          -3.311
