108
#Comment!
LJ          -4.29008         6.06392         3.25727
LJ          -1.41885         3.62049        -4.69533
LJ          -3.91405         4.86969          3.5836
LJ            5.6973        -3.90106       -0.150505
LJ           3.54373        -1.52471        0.997231
LJ           1.92635        -4.21631        0.407207
LJ           2.98265        0.287849        0.499148
LJ           5.98643         4.30018        -4.93127
LJ          -1.72512         3.01132         3.88186
LJ           5.51915        0.379591         1.54178
LJ         -0.376787          -2.326        0.447601
LJ          -1.98135         4.15843         4.79282
LJ          -1.33298         5.20272         5.13512
LJ           3.00694         4.08452         -5.3523
LJ         -0.965122        -5.49874         3.07155
LJ          -1.14189         5.16161         6.32014
LJ           -2.6633       -0.170996       -0.116875
LJ          -5.56118         3.76489          1.6017
LJ          0.314747         2.18409        -5.56016
LJ            4.6552       -0.542013        -1.61564
LJ           4.68589        -3.40015       -0.295099
LJ          -3.60083        -5.22188        -3.33883
LJ          -4.78397         2.79683          1.3948
LJ          -4.33445         -3.4383         2.57854
LJ           5.50153          5.8976         4.82597
LJ           3.00658         2.49009        0.941465
LJ          0.557946         5.23957         5.41221
LJ           5.73338         3.65726         2.41614
LJ          -2.37252        0.926062      0.00944012
LJ         -0.964673         4.65626       -0.714903
LJ          -4.18196        0.921564         5.53329
LJ          -5.73081         1.67655        -6.13676
LJ         -0.236176        -6.11837         2.95918
LJ          -4.47632       -0.534232       -0.729455
LJ          0.279981           3.239         2.34792
LJ           5.00598        -4.70667       -0.995664
LJ           -4.5477        -2.37859       -0.048378
LJ          -2.72562         3.78612        0.937264
LJ          -2.67625        -5.56825        0.164775
LJ           6.03215         1.98099        0.723918
LJ           3.81156        -4.49049        -5.00258
LJ           2.10398         1.25211         3.45879
LJ           5.41269        -5.87672        -4.52272
LJ          -3.93347         3.20423        -6.03391
LJ           2.37742         1.04155        -2.20236
LJ           2.14072      -0.0646526         3.19979
LJ           2.53206        -2.07606         2.86125
LJ           1.57817        -4.97558        -2.46875
LJ          0.885036         2.65648         -1.5866
LJ          -4.66354         3.95815         2.99885
LJ          -5.57687         5.05199        -5.60231
LJ            3.5877        -1.39303        -5.33295
LJ          -6.45815        -1.08312        -3.07929
LJ           1.04445         0.36758         3.01192
LJ            2.2644        -4.66458        -1.48197
LJ          -3.93383        -1.64805         2.69159
LJ           2.93423        -1.93482         4.05376
LJ            5.2594        -1.20838         2.82897
LJ           3.64114          4.7592         5.66304
LJ          0.944688        -1.80001        -0.72518
LJ          -1.05517        -2.03707        -4.52794
LJ          0.620097         3.94706          -2.623
LJ           5.89991         5.80551       -0.120647
LJ          -6.44257        -6.28276         2.08353
LJ          -5.10989        -4.29458        -4.00832
LJ           2.71532         1.50692         2.18458
LJ           2.06092         3.31537        -4.00841
LJ           2.43004         2.73852          -1.432
LJ          -5.64284         5.56047        -3.24981
LJ          -4.15281        -5.92955        -2.16832
LJ         -0.578516         2.22993       0.0104358
LJ           5.46982        -6.18165        -1.24319
LJ          -5.39363        -4.79139         2.29998
LJ          -4.96695        -2.89937        -1.44049
LJ          -4.01565         6.24119         1.73255
LJ          -4.31955         3.56841        -4.94367
LJ           4.16541        0.285064        -1.72938
LJ          -3.79004         2.62374        -4.91173
LJ           3.58781        -3.42026         5.06869
LJ           5.03203         -4.8022         1.90931
LJ          -5.16782         2.39265        0.253936
LJ           3.45113         6.16629         2.38412
LJ           6.40695         4.56893          1.5617
LJ           3.59455         3.32012        -6.06479
LJ          -6.41523        -2.88467         2.65525
LJ           5.93392       -0.443099        -1.55216
LJ          0.562171         3.57646       -0.817133
LJ          -5.82965         2.74058         1.57122
LJ           5.93494         1.25561         1.66548
LJ           4.17092         4.98642         4.76865
LJ           5.10065        -6.02509         4.06595
LJ         -0.396431        -6.14581         -5.8395
LJ           4.80878        -2.73446         5.77022
LJ           5.89936         3.78784        0.771637
LJ           3.80494        -4.10232        -3.08925
LJ           4.15117        -6.38886          1.2379
LJ          0.265196        -5.32591         -5.2301
LJ          -4.70822         5.47657        -6.09629
LJ         -0.358426         4.57899         6.38755
LJ           3.78899         2.31447        0.338745
LJ           1.07339         3.33232        0.113165
LJ           3.74047         2.62178           3.254
LJ           5.65097         6.21765        -3.27721
LJ          -2.93183        -1.44257         6.20647
LJ           4.57075         3.47917        -5.51173
LJ          -6.37469        -4.06289         5.07686
LJ           5.09773       -0.729516          4.3176
LJ            4.9823        -4.82094        -4.70793
