108
#Comment!
LJ          -2.30106         5.39467       -0.703657
LJ          -5.19698         4.02439        -4.91249
LJ          -5.08621         5.47183        -5.97101
LJ           6.05841        0.605473       -0.172216
LJ         -0.205981        -2.90767         3.19673
LJ           -4.0631         1.96395        -2.79757
LJ          -5.88657         3.94731         2.33704
LJ           -1.0499        -2.08755        -3.56886
LJ          -2.30647         3.47719         1.31952
LJ          -2.24564         2.89211         2.91765
LJ          -2.53073         1.35247        -1.91395
LJ         -0.259267         3.74478         3.41361
LJ           1.43055        -5.37804        -2.96595
LJ          -3.97204         2.06099        -1.15562
LJ           -5.5463        -4.14852         -3.8987
LJ           1.65032         3.24494        -2.17812
LJ          -1.52457        0.670703        -6.43853
LJ          -4.43398         3.17237        -1.93662
LJ           4.51096       -0.691515         4.30118
LJ         -0.642383         4.78564        -4.38685
LJ          -1.56435        -2.35508         3.60694
LJ          -1.65027        -4.64109         6.21621
LJ          -1.19142         6.30167        -5.25299
LJ           4.43974         1.14161       0.0342637
LJ          -5.76552         4.85753        0.902413
LJ           2.68683        -4.75405         2.67092
LJ         -0.563317        -6.14488       -0.037878
LJ           3.60251         4.37994         5.25198
LJ           2.52097        -2.57934         2.90834
LJ          -6.17677         2.94364         2.03388
LJ          -2.32324        0.506407           -1.37
LJ          -4.59258        0.393911       -0.286777
LJ           1.84553         2.22685          2.8645
LJ           1.96944         -5.5918         5.03654
LJ          -5.69865         4.49685      -0.0234232
LJ          -2.43762       -0.530206        -6.23366
LJ           6.36661         1.75851         1.18275
LJ           4.23431         2.85394       -0.196409
LJ          -4.37079         -4.7888        -5.00737
LJ           3.83466         1.65623        -2.27077
LJ          -5.88526         -6.2503          3.5198
LJ           4.59462        -5.54743         4.12713
LJ          -1.28712         4.13304        -3.79069
LJ           2.53182         5.04185        -0.90292
LJ          0.107312        -4.80123         6.46195
LJ           2.17858        -1.04005          3.2903
LJ           6.10055         -5.3307         5.59711
LJ           3.23786         5.19182         1.49203
LJ          -1.92355        -5.63758         3.04524
LJ          -6.08483         2.34701        -3.81621
LJ           4.23353        -4.56852         2.14852
LJ          0.892487         3.04685         2.89903
LJ           1.72346         1.97315         1.83904
LJ          -1.21491        -2.87195       -0.723887
LJ          -4.41092         3.77986        -3.20617
LJ           4.10289        -5.24394        -3.89235
LJ          -5.85893         5.54521         3.51035
LJ         -0.300026          6.0427         4.74782
LJ          -1.29656       -0.348626         4.28587
LJ          -2.36822        -6.38465        -6.06326
LJ           4.94432       -0.656145          5.4745
LJ          -1.80531         2.79116         5.35692
LJ          -2.50633        -1.63134        -1.22633
LJ           1.64021         3.76024          3.6966
LJ           5.21292         6.00024         4.73914
LJ           1.01738         1.96785       -0.143398
LJ         -0.695054       -0.210246         5.14927
LJ          -3.11014        -5.07561        -2.42599
LJ          0.123331         4.42773        -4.95831
LJ          -4.99649       0.0597858        -2.34381
LJ          -2.01493         1.70565        -4.90647
LJ           1.66594        0.531193        -1.74997
LJ          -2.99063       -0.199219        -3.06196
LJ           1.80069        -2.82348        0.128438
LJ          0.469166        -4.69242        0.354351
LJ         -0.558224        -2.47543         2.28591
LJ          -6.44964         3.04201         3.44187
LJ            1.9949        0.348664        -5.01214
LJ           4.40728         1.18409         4.11654
LJ           2.37286        -3.55644         -1.5739
LJ          -5.08028        0.270259         5.90962
LJ           4.82151         6.03062         -5.6276
LJ          -5.04407           4.536         3.30358
LJ          -6.33874         5.94591        -4.23163
LJ         -0.352467         6.21411         -3.3522
LJ           5.71978        -4.40854         -3.9998
LJ          -3.55614       -0.309555         4.06924
LJ          -1.77374         2.00007        0.530094
LJ          -3.93669         -4.9788         -5.9228
LJ           2.42151         3.07239         3.11703
LJ           1.77808         -5.1102        -1.88017
LJ          -0.84341        -5.19049         1.86489
LJ          -4.40319         3.84543         4.42628
LJ            1.1017      -0.0579626         5.64979
LJ           5.59674         1.39422        0.502627
LJ          -2.71812        -5.24814         5.96153
LJ            5.8174       -0.810056         3.75324
LJ          0.682992        -2.93573         4.66924
LJ          -1.26113         -3.6618         4.09326
LJ          -2.81269         3.99064         -6.2964
LJ           3.44873        -0.37707         -3.4199
LJ           3.24304        -4.64458        0.504979
LJ          -4.09066        -1.28494        -1.64456
LJ          -3.03614        -1.46512        -2.23477
LJ          -1.46243         4.11416         1.09135
LJ           5.59988        -2.81542        -4.73238
LJ          -5.07911         1.09598         4.38107
LJ          -1.30898       -0.660316         -3.0574
