108
#Comment!
LJ           1.62635         5.84931         2.27326
LJ           1.03626         1.36967         3.33385
LJ           6.14075        0.597801        -2.93754
LJ           3.15869        -2.18888         3.89187
LJ           -2.6638         5.49317        0.428377
LJ           5.94595        -3.28511         4.08517
LJ          -5.06687        0.780035        -3.92574
LJ           4.22922        -4.11617        -5.58082
LJ           4.48519        -5.94051       0.0131594
LJ             3.119          0.4812         5.27532
LJ          -3.30168         2.91209       -0.801727
LJ         -0.889431        -1.72467         3.47372
LJ          0.938864         -3.4414        -1.27568
LJ          -1.52493        -2.22192        -3.85069
LJ          0.330173        -2.61076         4.21092
LJ          -4.46812        -2.96902        -5.71239
LJ          -1.41567        -5.46672         4.88253
LJ           5.25082         2.22919         1.39508
LJ           3.01923        -6.00513        -6.45967
LJ         -0.225988         1.33058       -0.146287
LJ          -1.46241        -4.20224        -3.98499
LJ           0.97962        0.629522        -1.98145
LJ          -5.92615        -4.01361         3.77957
LJ            5.7866         2.21391        -2.64278
LJ            4.7496        0.955127         1.84519
LJ         -0.390644         2.38944        -2.50875
LJ          -4.82458       -0.357741        -3.93763
LJ          -5.28687         3.87966        -5.53615
LJ          -4.14944        -3.41518         6.24967
LJ          -2.56782         2.26968        -2.12661
LJ          -1.23007        0.745708        -4.71883
LJ          -1.81619        -5.73952        -5.02352
LJ           2.92728       -0.460269       -0.891281
LJ           5.62165       -0.328388        -2.64897
LJ           4.08598         2.47352         6.29093
LJ           5.07159        0.616492       -0.367812
LJ          -5.54576        -2.30094         4.83339
LJ           3.60049        -2.00162        -3.53425
LJ          -1.94902        -1.90533        -1.43528
LJ           3.01133        -6.32654        -3.48888
LJ            3.8964        -5.93973        -5.00141
LJ          -3.34513         1.20295         2.15047
LJ          -1.83636       -0.455182        -1.03432
LJ          -3.70313         -0.8088        0.907529
LJ         -0.483502        -2.49205        -1.49543
LJ           5.90733       -0.265108        -5.50003
LJ           3.16796         4.04691         4.10532
LJ          -6.04544         2.63202        -2.95805
LJ        -0.0422112         6.21085        -5.02588
LJ           4.13412         5.30619        -6.40213
LJ           4.32215        -2.56177        -6.26466
LJ           6.41909        -2.44826         2.16368
LJ           1.38897         5.97181        -3.45522
LJ           6.21934         5.40257        -5.44381
LJ          -6.40762         4.51575        -5.78776
LJ           6.42593        -2.70049        -2.17132
LJ          -6.08392        -6.41244         1.08107
LJ           3.60269         1.27769         6.11719
LJ          -4.03426         4.41039        -5.43268
LJ           2.53057         4.65779           3.196
LJ          -1.21199         1.10143        -2.84765
LJ          -2.66875         1.89408        -3.02382
LJ          -5.46438        -5.60501        0.063427
LJ           2.89739        -3.33967          4.3008
LJ          -2.82838        0.363276       -0.310395
LJ            3.0109          2.3478         1.66661
LJ           6.24155        -5.33674        -4.57377
LJ           5.75182        -3.88266       -0.425256
LJ           1.27887        0.835339         6.33487
LJ          -1.77119          2.5553        -3.17693
LJ           3.45502         3.39293        -3.84161
LJ           2.37308        -4.26759       -0.196557
LJ           4.59957        -4.81716        -4.27702
LJ           -3.9063        -4.24957        -3.56686
LJ          -2.17065        -4.30589         1.98888
LJ          0.534876        0.277025        0.941556
LJ          -1.55782         6.01924        -1.24847
LJ           6.15552         5.99935       0.0404729
LJ          -2.98591        -2.38537         -3.8127
LJ          -5.41705         3.80618         -3.7947
LJ          -3.45936        -4.28301         -1.0424
LJ          -5.92572        -3.98723        -4.22076
LJ          0.134223         2.23054        -5.70654
LJ         -0.301929        0.714036        -2.15135
LJ           6.06875         4.83863         3.81002
LJ          -2.26322         3.32187        -3.79187
LJ           5.18521        -3.45454         1.72158
LJ            2.2356         1.56379        -2.25925
LJ           3.56165        0.877157        -1.63699
LJ          -5.05572         -3.5944         2.70965
LJ          -4.28593        0.793652        -4.79607
LJ          -4.06658       -0.570696        -3.08974
LJ            6.4057         3.94092        -4.18359
LJ          -5.88233        -1.85109         6.17113
LJ          -3.21699        -4.85862        -1.84616
LJ           4.40988        -4.17634         4.84452
LJ           1.58728         5.76567         3.63182
LJ           -3.1481         3.15252         6.18614
LJ          -4.15262         2.47394        0.523454
LJ           1.21117        -4.71666         1.63854
LJ          -3.09211        -6.06468        -1.98971
LJ          0.289811         5.29442        -5.81914
LJ           3.76183        -5.67582         1.62489
LJ          -0.63955      -0.0948165         4.93243
LJ          -4.78925        0.434805       -0.679332
LJ           2.00252         2.97368         4.48293
LJ           5.15999        -2.61211         4.21721
LJ            4.2873         3.56336        -5.57476
