108
#Comment!
LJ          -2.27119         6.15945        -1.48919
LJ          -5.15817         4.32225         -4.6707
LJ          -4.88969         5.24273        -5.83315
LJ           6.11063         0.60964       -0.213443
LJ         0.0917543        -2.82171         3.25987
LJ          -3.96294         1.52173        -2.69465
LJ          -5.56026         4.30411         2.73051
LJ         -0.506081         -1.3641        -3.39206
LJ          -2.80399         3.73332        0.937944
LJ          -2.39329         2.71922         3.45546
LJ          -2.94208         1.45675        -1.92219
LJ         0.0759327         3.75159         3.60216
LJ           2.05403        -5.19303         -3.0843
LJ          -4.31804         2.22353       -0.952512
LJ          -5.67348        -4.60552         -4.3768
LJ           1.76957         3.28683        -2.00202
LJ          -1.61998         0.41656        -6.09523
LJ          -4.38923         3.32462        -1.43416
LJ           4.22297       -0.613075         4.24337
LJ         -0.469753          5.4434         -4.4946
LJ          -2.10301        -2.52973         3.51844
LJ          -1.21421        -4.98275         5.64917
LJ          -1.05498         6.21099        -5.52577
LJ           3.71288         1.44301       -0.301536
LJ          -5.70454         5.25273         1.09926
LJ           2.94366        -4.61091          2.4571
LJ         -0.981865         -6.1378       -0.147958
LJ           4.00607         3.98994         5.41141
LJ           2.79482        -2.53987         2.41106
LJ          -6.05359         3.35769         1.74608
LJ          -2.83515      -0.0875592         -2.1081
LJ          -3.75532        0.335994       -0.931787
LJ           1.13484         1.91113         3.39735
LJ           2.07905         -5.1624         4.58194
LJ          -5.34716         4.20223       -0.107137
LJ          -2.48304       -0.276073         6.30456
LJ          -6.34301         1.52973         1.90494
LJ           4.33968         2.25276       -0.127633
LJ          -4.83687         -4.7681        -4.81408
LJ           3.87164         1.28208        -2.40497
LJ          -5.13197         -6.0215         3.45186
LJ           5.10384        -5.06161         3.89877
LJ         -0.581208         4.13699        -3.40176
LJ           2.11108         5.31866       0.0590554
LJ          0.226373        -5.31278          -6.127
LJ           1.83906        -1.26234         3.15132
LJ           5.91796         -4.7165         5.38456
LJ           3.65814         5.51164         1.49788
LJ          -1.72374         -5.2982         2.37644
LJ          -5.98603          1.8689        -4.19365
LJ           4.13919        -4.23836         2.08078
LJ          0.809732         3.16209         3.08253
LJ           1.84228         2.23461         1.99648
LJ          -1.09693         -3.0641       -0.423505
LJ          -3.90511          3.8567        -3.11046
LJ           3.91472        -4.82792        -3.50515
LJ          -5.87868         5.67165          3.7875
LJ         -0.487558         5.89261          4.7413
LJ           -1.6338       -0.834662         4.54584
LJ          -2.12375        -6.06951         -6.1737
LJ           4.71796       -0.571616         5.17261
LJ          -2.10642         2.22193         6.07554
LJ          -2.26984        -1.80391       -0.821432
LJ           1.18654         4.03716         3.62425
LJ           5.04433         6.07324         5.38566
LJ          0.869048         1.42753        -1.10535
LJ         -0.908142       -0.149795         5.45235
LJ          -3.64558        -4.45085        -2.35722
LJ          0.423895            4.85          -5.288
LJ          -5.22208        0.752294        -2.40522
LJ          -2.37479         1.68626        -4.73766
LJ           1.58876        0.180694          -2.012
LJ          -3.00803       0.0932148        -3.38032
LJ           1.89381        -3.50943        0.384142
LJ         -0.333681        -5.24844        0.171851
LJ          -0.81026        -2.07094         2.37566
LJ          -6.03081         2.61668         3.29542
LJ           1.92952        0.728932         -4.7135
LJ           4.00529          1.5724          4.2807
LJ           2.41858         -3.1461        -1.35274
LJ          -5.62609        0.324081         5.78261
LJ           4.66969        -6.43762          -5.469
LJ          -4.69333         4.66886         3.61509
LJ          -6.35193         5.70276        -4.58575
LJ         0.0680996         5.80062        -3.70363
LJ           6.14349        -5.17856        -4.05973
LJ          -3.09589       -0.101483         3.99574
LJ          -2.07867         1.91478        0.697562
LJ          -3.65362        -5.17576        -5.60035
LJ           1.89352         3.03922          3.2272
LJ           1.34538         -5.6254        -1.97475
LJ         -0.757594        -5.01702         1.94909
LJ          -4.41265         3.49628         3.97557
LJ           1.40235       -0.323563         5.41604
LJ           5.62893         1.28574        0.612151
LJ          -2.18586        -5.06758         6.41671
LJ           5.88541        -1.23335         4.08729
LJ          0.554073        -2.65434         5.05707
LJ          -1.30932        -4.62991         4.00094
LJ          -2.76857         3.66481         6.28473
LJ           3.02995       -0.384212        -3.37784
LJ           2.94995        -4.48294        0.137864
LJ          -3.57197        -1.51122         -1.7128
LJ          -2.67185        -2.05658        -2.02942
LJ          -1.53582         3.88617         1.77335
LJ           5.69532        -2.91006        -5.61599
LJ          -5.72377         1.45526          4.2462
LJ          -1.38057         -0.3494        -3.11662
