108
#Comment!
LJ          -4.08858         1.65294       -0.201954
LJ           4.30951       -0.728937         3.26727
LJ          -5.10596        -3.36132         4.28396
LJ          0.827354        0.699966           3.325
LJ             -5.61          1.8368         1.61452
LJ         -0.885503         4.49164        -2.47679
LJ           4.60208         5.46933         5.96156
LJ          -5.14553          2.5333        -5.86737
LJ           2.08731       -0.342056         3.50834
LJ           3.11306       -0.449324         6.28015
LJ           -1.9239         4.23476        -4.61142
LJ          -2.61059         1.05652        -3.74599
LJ          -1.44115         3.64568         3.16276
LJ            4.4646        -6.34385        -4.05429
LJ           2.33848         6.39856        0.112793
LJ          -2.90287         3.29244         3.49689
LJ           4.61813        -3.30685        0.274236
LJ          0.991388        -4.36304         3.46693
LJ          -5.91559        -3.64214         3.77785
LJ          -4.75018         3.41531       0.0558791
LJ           3.08128         -4.3522         -5.5963
LJ            4.6569         1.28591         5.84741
LJ           3.35361         1.01011         5.83425
LJ          -3.06437         3.57248         -6.4252
LJ           6.22871       -0.961081         2.88009
LJ           2.37553         4.65247         5.91627
LJ           6.04921       -0.944403        -4.82218
LJ           1.10242        -1.15038         2.86159
LJ          -4.89705         2.51616        -3.99012
LJ         -0.539893        -5.34189        -1.61415
LJ          0.844219      -0.0612518        -2.66356
LJ          -1.98804       -0.565961         2.04827
LJ          0.402094         3.28975        0.917978
LJ          -3.10118         3.20273         2.14491
LJ          -4.28792        -4.61341        0.766971
LJ          0.788668         6.06038        -5.00727
LJ          -2.98923         1.79099         2.45704
LJ           1.33724         4.86419        0.993964
LJ           2.66729         5.63128       -0.371033
LJ          -5.33803        -2.27883        -1.77511
LJ           5.38425         1.07483        -3.50298
LJ           4.56427        -6.36543         2.92259
LJ          -5.00938       -0.638691           2.662
LJ          -6.39975       -0.248444         3.93682
LJ          0.103615         3.90511         5.21236
LJ           3.34273         4.48774       -0.648058
LJ         -0.476589        -3.47161         1.75606
LJ           2.37205        -2.08355           2.669
LJ          -2.56853         5.52821        -3.39216
LJ         -0.152182         0.89224         3.08617
LJ           2.18557        -4.42404        -6.17903
LJ          -2.52618        0.920026         4.46631
LJ           5.56374        -1.13981        0.624914
LJ           5.01905        -1.41512        -2.58871
LJ           6.23085          5.9266         -3.8301
LJ          -5.13094         3.77814        -4.84212
LJ           3.11381        -5.73537        -2.50971
LJ         -0.753142        -1.64289        -2.80446
LJ           5.58459         -3.4128         2.38243
LJ         -0.941603         6.20675        -5.21725
LJ           4.71947         1.22542         2.68131
LJ          -2.72264         3.75852         4.52136
LJ           4.50387        -2.51741        -2.27938
LJ           6.14097          6.3382        -1.64961
LJ          -5.47474        -2.62796        -5.89934
LJ           4.12199        -1.07451         1.51471
LJ           4.05758        0.260391         1.93615
LJ          -3.70875         6.22634       -0.348352
LJ            4.8504         5.87211         4.28001
LJ           1.64992        0.265898         4.83065
LJ          -3.49899         3.86433       -0.652104
LJ          -6.00634         3.21544        -5.83159
LJ          0.128702         -4.2095        -1.05138
LJ         -0.519616        -1.83668        -3.98543
LJ          -3.06807         5.27164        -2.27761
LJ            -2.142         1.80179        -1.94215
LJ           5.25494         6.37177         5.43748
LJ         -0.808065         4.37772        -3.68774
LJ          0.544726        -1.16772         -2.4233
LJ          -4.12206         3.85466         2.47284
LJ          -1.32822        -3.12311         4.39677
LJ          -6.44111          1.3114        -6.42031
LJ         -0.117433        -2.20062        -1.43821
LJ           4.68038        0.800704         3.74737
LJ             6.058         2.42949         4.66879
LJ          -5.28924       -0.035944        -5.29377
LJ           5.24514        -6.04421         1.83875
LJ           3.15741        -3.38477         2.91927
LJ           1.95447         5.15054         2.39902
LJ           4.90938         3.84227         3.96188
LJ          -5.00365       -0.893113        -3.25803
LJ          -5.29608        -5.46484        -4.08314
LJ          -5.54468         1.60311        -2.75202
LJ          0.360604        -3.01649        -4.55941
LJ           5.67519          5.6702       -0.873696
LJ           2.50306        -4.13847          5.5822
LJ           3.25678         4.57812         1.48541
LJ          -3.61048          2.2755         0.81228
LJ           3.35147         4.83125        -1.77883
LJ           5.66851         1.12731        -4.61676
LJ          -6.34894         6.43505        -5.58055
LJ           5.80326         5.28078        -1.90765
LJ           1.28005          2.6347         6.17427
LJ          0.230124       -0.878936        -1.08492
LJ         -0.141172         2.70045       -0.925125
LJ           6.38561        -5.20254         2.00061
LJ           3.05496         4.65945         2.59696
LJ          -2.73458        -5.67017         3.03075
