108
#Comment!
LJ           2.31759         1.15022         1.76086
LJ           2.81122         0.70239         0.54304
LJ          -2.48353        -1.09258        -2.98098
LJ           6.07781        -4.29863        -1.13425
LJ          -1.88188        -5.78645         1.65168
LJ           5.70443        -3.14224        -4.02061
LJ          -4.33363        0.331374        -3.57824
LJ           6.22507        -4.78832        -2.06146
LJ           4.19363         3.56639        -5.92948
LJ           4.87222          5.3613         1.14851
LJ          -1.85718          1.8178         3.58389
LJ          -5.08101        -4.59839         4.79746
LJ          0.338652         2.76029        0.138198
LJ           3.46091        -2.87751          3.7032
LJ          -1.63991        -1.75595        -3.41076
LJ          -1.83651        -5.28885         4.43814
LJ            -3.945        -3.68999        -2.88443
LJ          -3.66644         2.96681         2.26311
LJ           5.68259       -0.676671        -2.69391
LJ          -1.55591        0.714949        -3.22868
LJ          -4.73325        -3.58408        -4.96427
LJ           4.06643         5.55296        -3.07637
LJ           5.75551          4.8185        -5.95841
LJ          -4.27918         1.86121        -1.25352
LJ           2.75796         6.10874        -5.15699
LJ          0.248068          3.7044         -0.5244
LJ          -5.20384        0.424293         4.57325
LJ           -3.0955         3.39827        -6.20395
LJ          -4.76731         -5.6729         4.58038
LJ           1.45357         4.29764         1.98318
LJ          -3.10201         1.39547        -4.98619
LJ          -4.59317          4.8223         6.25596
LJ          -0.91377        -3.19912         6.44409
LJ           3.86269        0.517936       0.0625455
LJ           5.29993        0.529306        -2.85708
LJ           5.59984         3.41208         3.36235
LJ           2.67838         2.60655       -0.473288
LJ            1.0347         1.53235        -2.32979
LJ          -3.81045        -1.52866         1.09776
LJ          -5.05098         3.44737        -2.32238
LJ           4.97755       -0.794569         5.13813
LJ           4.94291         1.60891        0.731152
LJ          -2.85813       0.0278068        -4.86207
LJ         0.0952652        -5.33592         4.90483
LJ           1.59616      0.00623525         2.09021
LJ          -5.09742          1.9579        -4.55604
LJ           4.20732        -3.74757        -6.41779
LJ           5.80125         1.93391       -0.711106
LJ          -5.02791            4.43         5.21941
LJ          -2.58241        0.930078          4.3336
LJ          -6.17827       -0.754984        -4.43973
LJ          0.393099         5.17217        0.842201
LJ           4.30845         2.27015        -5.22729
LJ          -5.35003         5.05657        -2.94506
LJ           6.00371         1.60066         -3.6428
LJ            1.2252        -3.92956       -0.152933
LJ           1.73967         -4.6727       -0.529916
LJ           5.11901        0.269579         2.21994
LJ           1.94625       -0.126321         -5.5982
LJ           4.32248          4.2836         1.31688
LJ          0.861502        -1.84798         0.29864
LJ          -3.06994         3.84037        -1.51355
LJ          -3.50781         4.28869        -3.26969
LJ           4.22606        -1.96365         -6.2129
LJ           2.36231         3.93881        -1.64271
LJ        -0.0324796        -3.69331         5.01199
LJ          0.986134          5.8577         2.95371
LJ           1.23255        0.339392        -1.30071
LJ           -3.2011        -5.49244         2.89852
LJ          -2.69264          5.0538        -3.50759
LJ          0.805775         2.36627        -4.49119
LJ          0.765565        -5.18029      -0.0148406
LJ          -6.26656        -5.60621        -3.25181
LJ           5.94198        -4.03584        -3.23701
LJ          -2.82599         1.78335         1.15417
LJ          -5.26749         1.07838        -1.95196
LJ         -0.830501        -2.00478         1.63295
LJ           4.07307        -4.75016       -0.565935
LJ          -3.13186        -3.55466         4.97223
LJ           6.10591         2.43654        -2.90212
LJ          -4.24126        -3.24513         3.46567
LJ          -4.71083        -4.77166         6.14601
LJ           1.26993       -0.937357         4.48451
LJ          0.557139       -0.526311         5.49056
LJ           3.51113          2.2202        -6.13885
LJ          -3.37161       -0.537117        -2.38887
LJ           5.82651        -2.82813         2.24615
LJ         0.0694612        -1.34473         4.30682
LJ           2.79252        -5.21408       0.0486746
LJ           4.59747        -4.69925         2.20346
LJ          -5.28067        -3.60148         -2.7828
LJ          -3.81707         -2.1549        -2.83129
LJ          -5.01254         2.65016        -1.55925
LJ          -5.22484        0.448424         3.03803
LJ         -0.663142       -0.681839        -3.93871
LJ           2.97051       0.0904713        -4.95738
LJ           5.48265         4.08322         2.07099
LJ          0.657369         2.48777         3.46852
LJ          -1.72325        0.159259       -0.576746
LJ            3.9971        -2.69842        -1.34516
LJ          -5.01166          -2.356        -3.67553
LJ           1.69993        -3.09933        -3.14005
LJ           2.89306        -5.06034        -1.36269
LJ         -0.723578         -1.2133         2.96663
LJ          -4.75409         1.11572        -2.98425
LJ          -2.28506        -2.09143         2.52831
LJ           6.46041         1.17351         6.35913
LJ          -5.76838        0.844996         -3.0535
