108
#Comment!
LJ          -5.61807         6.08039         6.45128
LJ          -3.55506        -4.13955        -6.12047
LJ          -6.10639         -4.6303        -5.61775
LJ          -3.08564        -6.14231        -4.88078
LJ          -1.14207        -5.00026        -5.84815
LJ           1.64316        -3.77149         6.15794
LJ           -3.1483        -4.91221        -3.48387
LJ         -0.142457        -6.01085        -4.62654
LJ           3.03823        -6.44709         6.34627
LJ           3.41344        -4.51807        -5.24101
LJ           2.08318        -6.17036        -4.83566
LJ           4.15173         5.99872         -3.9515
LJ           5.36743        -1.83006        -5.09817
LJ          -3.83464        0.600817         6.44178
LJ          -6.38156         1.59224         -3.2558
LJ          -4.64805        -2.19413        -3.84604
LJ           -2.2263        -1.00923         6.39343
LJ          0.591312        -1.78314        -6.26733
LJ          -2.13885         1.44491        -4.69397
LJ            1.0578        -2.28926        -3.60061
LJ           3.22078        -2.33267        -6.38539
LJ           4.62322         1.48277        -5.71827
LJ            3.4004        -0.80926        -3.99376
LJ           4.69486        -2.57362        -3.48834
LJ          -6.18199         2.81805         6.19574
LJ          -4.53249         4.44017         6.11145
LJ          -5.60252         3.94086        -4.23562
LJ          -3.96646         3.01315        -4.16185
LJ          -2.27699         1.17244        -6.20779
LJ          -1.77646         4.09773        -5.97692
LJ          -3.18623         5.26683        -4.39369
LJ          -1.03433         3.14425        -4.06928
LJ           1.74766         1.57698        -4.21109
LJ           3.60237         3.25318         6.27836
LJ           1.82744         4.52463          -4.947
LJ           3.61836         3.92407        -3.62548
LJ          -5.24429         5.56485        -1.57433
LJ          -5.19947        -4.63341        -2.74562
LJ           -5.5797        -5.57501       -0.475173
LJ          -4.54243        -6.14819        0.670471
LJ          -2.13711        -6.08708        -1.02674
LJ         0.0351234        -4.19584        -2.88467
LJ          -3.07731        -2.64039       -0.458234
LJ          -0.44902        -6.30435       -0.416175
LJ          0.894846         6.25082        -2.48174
LJ          -6.39306        -3.67847        -1.85328
LJ            2.4555        -5.13597       -0.172461
LJ           4.37678        -6.14332       -0.251332
LJ           5.68045      -0.0632529        -2.39585
LJ          -3.77887         1.18768        -2.61841
LJ           5.10492       -0.101843        -1.05508
LJ          -5.09921        -1.45734        -1.56649
LJ          -1.30185         -3.6495        -5.00596
LJ          0.935452         1.50221        -3.66075
LJ          -1.69273       -0.607939       -0.784773
LJ          0.224594        -3.62937        0.650197
LJ           2.36814        -4.24204        -2.21436
LJ           4.15444        0.715613         -2.8984
LJ          0.936146        -1.04582       -0.827426
LJ           3.65941        -1.44328       -0.311049
LJ           5.79902         3.56792        -1.36206
LJ          -3.73779         3.52471        -1.99476
LJ           5.48785         4.01505       -0.179675
LJ           -4.5786          1.2791        0.655323
LJ          -2.07973         1.95314       -0.885403
LJ         -0.515978         4.34416        -2.41605
LJ          -1.84963         3.19591       0.0825127
LJ          0.642314         2.70907       -0.873762
LJ            1.2605          2.9544        -2.75018
LJ           3.21991         4.14837        -1.25587
LJ             1.446         4.02728        0.598521
LJ           3.56922         2.53397        0.593232
LJ          -6.43077        -6.21162         1.96812
LJ          -4.59063        -4.27874         2.68679
LJ          -6.44789        -3.99312         4.16384
LJ          -4.26842         5.87462         3.77037
LJ          -1.37656         6.34365         3.12973
LJ          0.204991        -5.36444         2.60321
LJ          -1.02068        -1.92654         4.07392
LJ        -0.0185417        -5.84961         4.50623
LJ           1.38842         5.72937         2.09127
LJ              4.37        -4.59299         1.92381
LJ           2.93232        -4.56371         4.18299
LJ           3.97874         6.09248         5.02428
LJ           6.09357        -2.72751          1.3554
LJ          -6.08311       -0.555527         1.89447
LJ          -6.08038        0.914325         4.21567
LJ          -5.18873        -1.69362         3.30804
LJ          -3.64513       -0.936988         1.65045
LJ           -0.7471        -2.42897         2.29803
LJ          -1.04523        0.237713         3.01496
LJ           1.57768        -2.13349         5.33764
LJ           2.68842        -2.72926         1.40332
LJ           3.64891        0.574918         2.17605
LJ           3.35873        0.667991         4.69928
LJ           4.93127        -2.05528         3.59131
LJ           5.91591         1.81704         1.37692
LJ          -4.79947         4.90445         2.30572
LJ           6.41053         3.42492         4.67003
LJ          -3.05179         2.04057         3.39713
LJ          -1.47618         0.82974         1.79712
LJ         0.0560288         5.03443         2.44929
LJ          -1.63018         3.98141         4.76642
LJ         -0.315802         2.03847          5.5993
LJ           2.16526         1.39215         2.71304
LJ           4.47187         3.33548         2.10138
LJ           1.11509         3.64628         4.50936
LJ           4.56529         1.73461         4.87023
