108
#Comment!
LJ          -2.89106        -1.84445         1.48386
LJ          -2.34994         2.92561        -4.59662
LJ           5.51073        -4.90998         5.06339
LJ           6.38618        -1.08741        0.409038
LJ          -6.27093        -6.12407       -0.823177
LJ          -5.73629        -4.47723        -1.05835
LJ           1.35966        -1.22737        0.288475
LJ          -5.33205        -2.94654        -2.00313
LJ         -0.561455         4.41737         4.32725
LJ           2.31748         3.30072         2.08679
LJ          -3.60141       -0.882569       -0.788908
LJ          -5.38482        -2.47461         5.36727
LJ          -1.60924         3.08942         1.24414
LJ          -5.22219         2.52833        -4.43769
LJ          -1.67087        -2.77994         -6.2663
LJ          -2.05741        -4.53247        -5.58463
LJ          -2.79233        -1.05258         2.09636
LJ          -2.82065         3.78683        0.612972
LJ          -2.16684        0.847217          6.0852
LJ           5.30983        -1.36048         1.25444
LJ           4.50052        -2.70051         1.03538
LJ          -2.21362        -4.38044        -4.24514
LJ         -0.978411         2.14422         2.03143
LJ          -5.60595        -3.63985         6.32813
LJ           5.86554         2.62126         2.70541
LJ           1.20763         5.79535         2.01865
LJ          -1.96018         1.79044         -6.3369
LJ          -5.64011         4.79452          2.9994
LJ          -4.15658        0.664236         1.58614
LJ           4.69209         4.01182        -1.90725
LJ          -4.00089        -2.53892         4.88515
LJ          -4.46199         2.14849         4.38659
LJ           4.53942        -4.38901         1.09464
LJ          -4.46556        0.936427         3.61358
LJ          -2.00965          6.0169        -1.24473
LJ          -4.93516           5.332      -0.0761662
LJ          -1.20217        -2.73395         0.17919
LJ          -2.45014         3.04809         3.01693
LJ          -3.74096         4.41554        0.800858
LJ           2.40912         4.29621         4.67601
LJ           2.07658         5.37534        -5.32914
LJ          0.525641        0.165686         2.30624
LJ           5.08144        -5.32613        -5.60679
LJ           -6.4558         -2.8853        -3.23231
LJ          -2.48517         4.34522        -1.55276
LJ          0.830749        -5.47874        -5.40137
LJ           2.80095        -1.93364       -0.245929
LJ           2.70071            6.09        -4.68432
LJ           3.33908         3.36404       -0.502906
LJ          -1.96782       -0.423736        -1.23613
LJ           5.85607       -0.874223        -3.34829
LJ           3.39558         2.28725        -3.55567
LJ           -5.7976         -2.2186        -4.75702
LJ          0.791792        0.537013         6.32261
LJ           1.07186         6.17867         -5.3257
LJ            3.8577         2.44399        0.897968
LJ           2.68985       -0.902888        0.668353
LJ           3.21795         -2.3496        -4.43606
LJ           2.80092         5.52825         5.18419
LJ           3.61672        -2.84084        0.152595
LJ           2.37829         2.06444        -5.21471
LJ         -0.151454         1.75111        0.136113
LJ           0.99804         3.31333         1.83188
LJ           5.87825         4.32678         1.95156
LJ           2.45993        -3.07973        -5.02066
LJ           4.61177         5.98676         2.57786
LJ           3.92156        -3.85464        -4.82619
LJ           1.12487        -5.34013        0.280528
LJ           3.75992         4.11486        -4.27982
LJ           5.70952         6.43615        0.908308
LJ           0.10982        -1.87683          3.5777
LJ           5.17525        -2.14963        -2.24475
LJ          -4.61483          -3.176         4.33807
LJ           -3.1285         5.62607        -2.04574
LJ          -3.11731        -2.19782        0.336548
LJ         -0.104533        -5.29121        -5.99689
LJ          -1.67253         4.83534          1.2034
LJ          -3.25434          1.2576        -2.20946
LJ          0.023866        -5.85595         4.93216
LJ          -4.42675          4.8922         2.45578
LJ          -3.21278         2.22056        0.583958
LJ           1.30789         4.45729         5.37192
LJ            -5.907         5.51378         3.96419
LJ          -4.29405          1.8126        -4.61492
LJ          -5.62454        -3.10674         3.89272
LJ           5.65771        -5.06281        -4.50571
LJ          -1.41652         5.64813         2.29739
LJ          -3.70597         3.25471        0.259614
LJ           5.90728         5.40475         1.04861
LJ           5.44249         4.84954         2.95005
LJ           6.09852        -2.50281         2.50943
LJ           1.52224         3.90392         3.52497
LJ          -1.23635        -3.61927         5.72292
LJ          -6.00584         1.05971        -2.91145
LJ          -2.67438         2.29057        -1.06159
LJ           5.88922        -5.04299       -0.369494
LJ          -3.93169        -3.11731         2.59135
LJ           5.03485         5.84864        -4.10714
LJ           1.93687       -0.507271         5.63901
LJ           5.60897       -0.137167        -2.00376
LJ           5.95283         5.19966         -1.4774
LJ          -2.01446        0.956743         3.09366
LJ          -5.97543       -0.273466        -6.20624
LJ          -2.75328        -3.43069         5.80845
LJ          -5.87455           1.782        -3.75579
LJ          -4.48368        -4.51565         5.93585
LJ           1.03715        -3.05091         3.68889
LJ           5.35052        -3.82223        -6.25984
