108
#Comment!
LJ          -4.48901        -6.07664        -5.94979
LJ          -2.51795        -5.29056        -4.59334
LJ          -6.03666        -5.06052        -6.17679
LJ          -1.32651        -6.13569        -4.35372
LJ          0.510137         5.61289        -5.75338
LJ           3.64013        -3.86906         5.36004
LJ          -4.32445        -5.21347        -3.16604
LJ         -0.145066        -5.74747        -3.58243
LJ           5.40915         6.01575         6.22195
LJ           1.85869        -3.88205        -4.61442
LJ           1.72641         4.87148        -5.89727
LJ           3.13217         5.72484        -4.25958
LJ            4.4284        -1.90149        -3.97005
LJ          -2.93483         1.15732         6.30995
LJ          -5.88941         2.97435        -2.37684
LJ          -4.96303        -3.22966        -2.99481
LJ          -1.69754       -0.123498        -5.77345
LJ           1.14344        -3.13203         5.75302
LJ          -2.18448         2.74248        -5.11117
LJ            1.3196        -2.30489         -3.6439
LJ           3.21044        -2.28292        -5.96664
LJ           3.39391         2.87949        -4.74301
LJ           3.75422        -2.44336        -2.33276
LJ          -6.24112        -2.33741        -2.86624
LJ           5.77474         2.17297        -6.20525
LJ          -6.16817         4.68956         5.74466
LJ          -5.61067         2.63885        -4.63322
LJ          -4.31408         3.55952         -4.1471
LJ          -2.70055        0.441454        -4.89668
LJ          -3.18038         3.45956        -6.18176
LJ          -4.10852         6.04743        -5.49007
LJ          -2.74707         2.81092        -3.96482
LJ           3.08702        0.455988         -2.3755
LJ           2.12866         2.28472        -6.22729
LJ           1.17394         4.31765        -5.15228
LJ           2.25848         5.39812        -2.96439
LJ           -4.3626         4.45003       -0.932629
LJ          -4.88782        -5.91211        -2.48813
LJ           -5.4612         5.37665       -0.370257
LJ          -4.89707        -4.86455        0.825702
LJ           -1.0859        -5.61754       -0.162618
LJ          0.455682        -2.82299        -3.80136
LJ          -3.76093       -0.517271        -1.23529
LJ         -0.782813        -5.91773        -1.92849
LJ           -1.0922        -5.96128        -3.00741
LJ          -4.16429         -2.8117        -1.28075
LJ           2.54108        -4.49919        -1.40381
LJ           3.50391        -5.73834       0.0570328
LJ           4.73107         2.39903        -2.08449
LJ          -2.92906         1.55781         -4.0907
LJ           3.82561       -0.626397        -2.53785
LJ          -5.92877       -0.777482        -3.26017
LJ         -0.564678        -3.82612         5.02021
LJ          -1.17924         2.70275        -2.95915
LJ         -0.892876        -1.10071       -0.418029
LJ          0.249045        -3.90114         1.87692
LJ           2.37574        -4.39854        -3.20363
LJ           4.62242         1.17736        -3.38405
LJ         -0.149861        -1.63119        -1.46386
LJ           2.74902        -1.19863       -0.431404
LJ           6.14325         4.81341        -1.74261
LJ          -2.77854         3.17085        -3.03629
LJ           3.30771         4.26688       -0.261025
LJ          -4.70306       0.0901214         0.38289
LJ            -2.519        0.887378        0.593821
LJ         -0.319381         3.39971        -3.58649
LJ          -1.37211         1.64695       -0.873998
LJ           1.05459         3.79682        -2.32721
LJ          0.682602         3.40165         -3.2615
LJ           1.96698         4.27629         -1.0765
LJ          0.668128         3.66931         1.18576
LJ            3.1604           3.803         1.45246
LJ          -5.94462        -6.12897         2.01324
LJ          -4.83185        -3.88157         3.98237
LJ          -6.10712         -2.4866         3.88409
LJ          -4.78157         4.90282         3.06855
LJ        -0.0205713         4.98609         4.10556
LJ        -0.0448186        -5.66906         3.29097
LJ          0.568703        0.157065         4.33835
LJ          0.727713        -5.31358         3.94452
LJ          0.124242         5.26325         1.02444
LJ           4.82088        -4.95543         1.48103
LJ           3.59699        -5.08318           3.743
LJ           3.73097         5.55932           5.301
LJ           5.95582        -3.06025         1.89301
LJ           5.67242       -0.850742          1.7172
LJ          -5.30495         1.50052         4.45052
LJ           -6.1314       -0.377987         2.44481
LJ          -4.84005        0.375662         1.47485
LJ          -1.74621        -3.81784         3.12274
LJ          0.229371        -1.01888         3.06551
LJ           1.78222        -2.61995        -5.56961
LJ           3.26661        -3.29109        0.956793
LJ           3.65473         1.15347         2.23563
LJ           5.25936         1.87943         3.87794
LJ           4.86503        -1.72605         2.38189
LJ           5.85982         1.97709        0.755531
LJ          -4.81155         5.85944         2.32928
LJ          -5.20646           2.689         5.00073
LJ          -1.69335         2.27885         2.15027
LJ          -1.50277         0.88477         2.16857
LJ         0.0670866         5.45498         2.32665
LJ          -1.04242         3.88509         5.96294
LJ          -1.06149         1.77195        -6.01018
LJ           2.92816         2.88203         2.57085
LJ           5.26935         2.48355         2.13313
LJ          0.819285         2.11686         4.15106
LJ           5.44335         1.15883         5.78893
