108
#Comment!
LJ           1.98659          3.5863          2.0737
LJ           1.73774         1.11502         2.05584
LJ          -4.93969       -0.722127        -3.78486
LJ           4.53616        -2.80967         1.33207
LJ          -2.08899         6.42441        0.749433
LJ          -5.87377        -3.77767         5.92839
LJ          -5.70453         1.14151        -4.35368
LJ            5.0151        -4.16037        -3.61914
LJ           5.27425         5.48283         4.47775
LJ           3.87331        -3.20768          3.3056
LJ          -1.55017         2.34831        0.688123
LJ          -3.48367        -2.85278         5.02371
LJ          0.839861       -0.356805       -0.677735
LJ           2.42118        -2.18357        -5.81438
LJ          -1.06942        -1.79194        -6.44192
LJ           -3.5568        -3.81895         5.92403
LJ          -2.61057        -4.69723         1.32312
LJ            -5.795         2.68477         2.01145
LJ           3.94859        -3.49152        -4.76374
LJ         -0.993657        0.899225        -2.11104
LJ          -3.01688        -4.05433        -4.84623
LJ           2.47514          2.9611        -2.38993
LJ          -6.29209        -4.68318         4.55605
LJ          -4.80475         2.64918        -3.55913
LJ           3.97109         3.21373         3.94001
LJ         -0.568746         3.44126       -0.344226
LJ          -5.56749        -2.07596         5.19385
LJ          -4.54715         3.07518        -4.38813
LJ          -4.24401        -4.89586         6.33169
LJ          -1.13731         3.82842        0.827779
LJ          -2.34909         1.29546        -4.20087
LJ           -3.7892        -5.69355        -6.27706
LJ           1.05902        -2.40658         2.33853
LJ           4.16896      -0.0943521        -1.84878
LJ           4.86288         1.75276        -4.32449
LJ           5.08331         2.15832         1.84946
LJ           5.23756       0.0224377         2.27912
LJ           3.18736       -0.261327        -2.48143
LJ          -1.90641       -0.767431        0.971581
LJ           6.24918         4.18921        -2.57106
LJ           4.92609        -3.60777         6.42631
LJ          -5.47373          1.4877         1.03155
LJ          -2.14785      -0.0603841        -2.62073
LJ          -1.56013         3.37313         1.87055
LJ          0.318406        -1.51788        0.343473
LJ          -6.01895        0.622272        -5.29985
LJ           4.15135         6.43079         4.96921
LJ          -5.28976         2.76269        -1.76807
LJ           4.09247         4.10821         -5.3653
LJ          0.449765         2.25657         4.40132
LJ           3.31425        -2.03022        -5.52842
LJ           3.41954        -4.97871          1.9736
LJ           2.63492          4.3387        -4.13444
LJ           5.91253         5.33793        -5.72622
LJ           6.12223         3.00504         -5.0909
LJ            3.2549        -3.16309         -1.3319
LJ           4.00115        -5.41378       -0.180154
LJ            4.2984        0.790866         4.32412
LJ          -1.28219         2.31836        -5.59927
LJ            3.4024         4.24123         2.08336
LJ         -0.102694       -0.373001        -2.05964
LJ          -2.86336          2.2396        -2.39637
LJ          -4.63111         5.27439        -1.34177
LJ           3.49487        -2.96863         5.44306
LJ         -0.647406         2.08871       -0.909953
LJ           1.83937       -0.477385         3.19536
LJ           3.72717         6.29984          6.1457
LJ            4.2379         -2.7588        -2.03907
LJ          -0.67999        -2.17775         4.70515
LJ          -1.91286         3.80404        -3.52012
LJ            2.3123          3.4093        -4.55871
LJ           1.16498        -6.09867       -0.262177
LJ           5.58545        -4.76591         -2.9036
LJ           -4.6498        -3.73786        -2.77024
LJ          -2.90239        -1.60936         1.56219
LJ           -2.8519        0.706124       -0.309667
LJ           -1.2828        -4.81938        0.261013
LJ           5.57991        -5.58885        0.246522
LJ          -4.20795        -2.48434        -4.93384
LJ          -6.04271         3.08398        -3.62239
LJ          -3.96068        -3.72736         1.08979
LJ          -4.57608        -3.61175        -5.27109
LJ          0.720767        0.865784         5.76784
LJ         0.0972474       0.0383783        -4.56899
LJ           4.48586         3.81141          5.2722
LJ           -2.8542        -5.65845        -3.09172
LJ           5.14417        -4.64865        0.934304
LJ            1.4683       0.0724112        -5.23247
LJ           3.29184        -1.63174       -0.494161
LJ          -6.06502        -3.56873         4.47664
LJ          -4.06148        -1.17616        -3.04718
LJ          -4.42662        -1.82982         -4.2846
LJ          -6.13438         3.50592        -2.12957
LJ          -5.21194       -0.987524           4.762
LJ          -1.88613        -2.86103        -2.71366
LJ           3.94428        -1.74993         5.94883
LJ           3.35956         5.31227         3.08606
LJ          -1.26964         3.21495         4.42012
LJ          -4.18287          2.1557       -0.614828
LJ           1.93423        -2.60325       0.0571467
LJ          -4.00029         -4.8436        -3.35194
LJ           0.26766         1.18032        -3.13386
LJ           4.05552        -4.83818        0.858865
LJ         -0.714313       -0.880345          4.0621
LJ          -5.21056         1.25167        -1.98314
LJ        -0.0233038        -6.33002         3.58202
LJ           5.76718        -1.17319         5.22199
LJ           6.31021         2.04346        -4.56903
