108
#Comment!
LJ           5.19849        -3.77217         5.28044
LJ          -5.12235        -2.59067       -0.811303
LJ          -1.76789       -0.547663        -4.73688
LJ        -0.0997035        -5.35742       -0.795363
LJ         -0.402593        -2.08645         1.80483
LJ           1.91778        -4.51096          1.3496
LJ          -1.57586        -6.26015         2.64139
LJ          -5.27419        -5.48719        -1.60867
LJ           2.17587        -3.32214         4.67211
LJ          -4.64946         4.49901       -0.612769
LJ          -2.57285         6.07478        -4.48631
LJ          -4.58859         -3.5982         5.14479
LJ          -4.50309        -5.87521         3.54789
LJ          -2.30748         3.35433         1.85747
LJ           0.37696         5.82383        -2.84078
LJ          -1.52826        0.264693         5.67364
LJ          -2.40918        -2.49384        -5.48344
LJ           5.10415         4.97737        -3.46039
LJ           6.38915        -5.66886         5.59924
LJ          -4.02447         5.95714         1.05442
LJ            -2.842        -1.94466        -2.92172
LJ          -3.44312         2.37088        -3.17789
LJ          -3.33424         2.50415       0.0898381
LJ           2.28093        -3.05756        -3.60106
LJ          -5.32976         1.18605         4.53251
LJ          -3.85779        -5.58456        0.753632
LJ           2.49494        -1.22662         -4.8811
LJ          -4.55136         2.16595        -1.35886
LJ          -2.75124        0.899429         0.83381
LJ           1.30534        -3.65256          4.0788
LJ           3.24567        -2.72021          5.8333
LJ          -2.02508         1.86286         2.71095
LJ            1.8677         -4.3165        -3.38123
LJ           4.84981         5.10173         2.28668
LJ           5.08203        -3.48139         -3.2115
LJ           1.05474         1.11034        -3.45945
LJ          -2.68249         2.79077         4.39618
LJ           -6.2417         4.98933        -4.64686
LJ           5.38839         4.59232         0.80334
LJ        0.00758968         1.27325         -1.0609
LJ           4.82356        -3.21138        -1.55861
LJ         -0.722236         5.03982        -1.77825
LJ          -5.93557         4.56287         4.47892
LJ           5.97617        -5.37882           2.473
LJ           1.54655         1.00291         3.86713
LJ          -2.75324         4.30836         3.59011
LJ          -4.51791        -4.11906       -0.779245
LJ            3.2517       -0.306203         1.98813
LJ         -0.716948        0.774539        -2.99248
LJ          -4.94072         1.86034         1.65592
LJ          -3.55378        -2.81866         5.29599
LJ          -4.81718        0.308709        -1.36293
LJ           3.70682        -1.32063        -1.50829
LJ          -1.80605        -3.34578        -2.81207
LJ         -0.948965         4.84555         3.53266
LJ           6.14379         -1.3812         6.17843
LJ          -3.10319        -3.77291       -0.405096
LJ           3.75673         4.82419        -2.75533
LJ           1.86255        -1.40491         5.05677
LJ          -0.18743        -1.22501        -5.61316
LJ          -4.51359        -4.86476         1.01493
LJ          -2.95536        -3.24244         -2.9219
LJ            0.3038        -2.49935       -0.648713
LJ          -5.15005       -0.617205         -5.9479
LJ           1.75986        -1.48808         6.19191
LJ         -0.232623         4.68776        -3.77574
LJ          0.593383         -4.1503        -2.41014
LJ           3.90213         3.62602         6.40175
LJ          -5.58702        -6.21175        -2.58121
LJ           2.62212         4.41526        -1.16667
LJ          -3.95157         1.14756        -2.00226
LJ            6.2562        -2.56719        -4.55536
LJ           1.35035         4.24741        -2.50751
LJ         -0.919214          4.9636         4.83545
LJ          -5.00976         5.13545        0.330165
LJ          -1.20581        -3.35656         4.18071
LJ           2.71595       -0.591765         4.56414
LJ           1.99358      -0.0526237        -1.06342
LJ           -4.1513        -0.47955        -6.04466
LJ          -2.26999         -4.9158        -5.67352
LJ           4.91466        -5.44195        -4.19325
LJ          -3.18189       -0.702287         2.17342
LJ          -6.08979        -4.11208        -2.17052
LJ           5.05268        0.998707         6.01146
LJ          -6.20218        -4.23399         2.50973
LJ          -3.30007         4.98499        -3.13464
LJ           5.86703         5.30186       0.0521184
LJ          -3.89736         1.13025        -3.70351
LJ          -5.76401       0.0444925         2.00731
LJ           2.16375         4.22085         5.48825
LJ          0.804781         2.33356        -4.32587
LJ          -4.63206        0.494197         4.07704
LJ           5.62379        -4.87073        -5.17215
LJ          -3.79584        -1.97747        -4.22003
LJ         -0.842187          5.4156         1.94088
LJ           1.81299         -1.0265        -2.81793
LJ          0.623866       -0.142205         -1.2803
LJ          -1.65796         4.07747         4.79865
LJ           3.01013         5.39051        -3.76976
LJ          -5.37386         5.54456        -1.41414
LJ          -1.25609         1.60289         3.93893
LJ           3.01422        -2.39706        -4.54912
LJ           5.65697        -4.95417        -3.56412
LJ          -1.51172        -0.78916        -2.38792
LJ          -4.47249        -6.44931         6.36569
LJ            -4.643        -3.55383         6.42904
LJ            4.7155         4.86906        -2.07158
LJ          -4.74343         4.64352         4.72895
