108
#Comment!
LJ           2.84572         4.24497         2.36439
LJ         -0.906843         1.63085         4.47091
LJ           2.15237         1.57004        -1.71186
LJ          0.712796        -2.56821         -5.0269
LJ          -2.84484         4.07822        -1.22085
LJ          -5.86702        -5.03647       0.0691985
LJ          -3.02453         4.24976        -4.24315
LJ           3.14567        -4.93713         3.38662
LJ           1.57954        -5.73381        -5.68512
LJ           3.18213        -6.29917         6.36074
LJ           5.63492         4.33135        -4.75767
LJ           2.45523         1.25543       -0.688266
LJ          0.585246         3.60485        -2.67777
LJ          0.388534        -1.41273        -6.37652
LJ            2.2753        -4.91448         1.17648
LJ          -4.00919         -3.0451        -2.27672
LJ         -0.515319        -4.01159        -3.46386
LJ           6.34966         1.53241         2.54978
LJ            2.3005           2.944         1.60408
LJ          0.549755         1.43014         2.82937
LJ          -1.26112        -3.83472        -0.90102
LJ          -3.70674        -1.30495        0.731253
LJ          -5.10012        -2.52122         2.57601
LJ           2.75196         3.87209       -0.525044
LJ           3.79943        -2.57201        0.295672
LJ          -2.62587         3.53156        -4.72902
LJ          -5.91902         2.49367         3.19334
LJ          -4.40598         4.13046         4.78843
LJ          0.192392       -0.409778        -4.32778
LJ          -3.93089        0.750736        -1.84408
LJ           2.41992       -0.472958         5.42154
LJ          -4.65233        0.863859         0.21976
LJ           4.71939         3.27433         6.36105
LJ          -3.48152         -1.0294        -3.51346
LJ           3.38749       0.0710063         5.44368
LJ           3.48845        -1.20443        -4.03932
LJ           -6.0435         5.55205        -4.08911
LJ           5.22017        -3.75914         5.63567
LJ         -0.946811        -3.84929        0.715911
LJ          -3.02478        -3.61572        -6.18978
LJ           1.69024         3.62972        -1.73169
LJ         -0.986165        0.258448         4.30866
LJ          -1.91515       -0.966204         2.46147
LJ           4.74309         5.59772         1.98964
LJ          -4.16572        -3.74189        -5.13583
LJ           4.66481         -2.0084         5.75616
LJ           1.23893        -2.61723         3.07508
LJ            2.6227         5.18257        -5.03029
LJ           2.13534         2.73422        -2.84547
LJ          -3.08386        -1.46824        -5.12287
LJ           6.39966        -4.64576          5.0866
LJ           -1.0248         1.40947          1.3418
LJ          0.834068        -4.21332        -3.42847
LJ           6.37028        -5.40355        -1.00044
LJ           -5.5729         3.93837           4.658
LJ          -3.52156        -3.14871        -1.33989
LJ          -3.94615         4.53175         1.12262
LJ           5.01025          3.4851        -2.44427
LJ           4.71703        -6.14251         6.33748
LJ          -1.59326        -4.93614         2.84816
LJ           1.16064       -0.611524        0.424404
LJ          -5.67075        -1.26399         5.26275
LJ          -6.17984        -4.50896         3.61654
LJ           5.38506       -0.611135         2.56666
LJ          -3.50419        -1.63127        -1.27367
LJ           3.95451         6.43566        -3.15021
LJ           6.37389         6.44448        -2.73512
LJ          -6.35457        -1.13486         4.07584
LJ           3.50785        -5.45328        -3.71691
LJ          -1.16591         3.50826        -1.16399
LJ           5.49828         5.72847        -1.93374
LJ           4.68026       -0.120806       -0.301087
LJ           2.66531        -6.27732         3.03713
LJ          -3.77058        -5.38932        -5.53092
LJ         -0.398219         3.49542          2.8606
LJ          -5.99801      -0.0706884         2.78969
LJ          -2.55715         3.59828        -3.52932
LJ          -5.02955         5.49304         1.66685
LJ           6.43507        -2.10855         4.41958
LJ          -5.86643         4.45237         6.31364
LJ         -0.901946        -5.38015        -1.16306
LJ          -6.43368        -4.15356        -0.45338
LJ          -1.84854          3.4572        -2.56044
LJ          -1.36928         2.38873         2.60656
LJ          -1.25642         5.60447         1.40415
LJ            4.3555         1.50064        -5.85905
LJ           3.83719       -0.266218         3.63168
LJ            1.2478         4.56066       -0.697801
LJ           3.56142         4.38326        -2.70364
LJ          -3.95739        -6.14846         2.88163
LJ          -5.37596         3.52633          6.1693
LJ           1.39081        0.282849        0.961053
LJ          -4.73229         4.57102        -6.25939
LJ           3.68541       -0.613354         4.71863
LJ          -5.92469         3.93953         -1.5732
LJ           4.91715         4.09977         3.51903
LJ         -0.540274         6.07628         5.15421
LJ          -6.21477         4.80033        -4.93667
LJ          -3.48936         1.32624          1.5097
LJ          -3.55712        -5.02404          3.5013
LJ          0.689308         1.84597       -0.496586
LJ           5.76811        -5.16853        0.191444
LJ           3.81307         4.85261         3.06651
LJ         0.0620594        0.938822         5.18156
LJ          -3.19802        -1.76185         2.10033
LJ           6.44402       -0.946101         6.38464
LJ            4.3937        -4.07673         2.19695
LJ          -1.01851        -6.01826        -6.20743
