108
#Comment!
LJ            2.6105        0.685363         1.48953
LJ           2.57995        0.541929        0.073692
LJ          -2.76966       -0.695092        -2.00172
LJ           6.38948         -4.3922       -0.930374
LJ          -1.83926        -5.54749         1.96908
LJ           4.87973        -2.95588        -2.65389
LJ          -3.77053       -0.298771        -3.87048
LJ          -6.09877        -5.18816         -2.3516
LJ           3.58376         2.59045        -5.53978
LJ           5.63983         4.45809        0.291336
LJ          -2.00831         1.49348         4.59737
LJ           -5.2582        -5.13293         4.59826
LJ           0.23315         3.34453        0.931753
LJ           3.94273        -3.10448         2.67753
LJ         -0.770334        -2.29051        -2.87755
LJ          -1.35701        -5.68528         3.89188
LJ          -4.64023        -3.21973        -4.19229
LJ          -2.95933         2.99143          2.2671
LJ           6.28416        0.303451        -2.07715
LJ          -1.68218        0.623438        -3.58427
LJ          -5.32703        -3.36878        -4.84401
LJ           4.56441         6.36745        -3.31016
LJ           5.46193         3.64665        -5.18038
LJ           -4.3246         1.57812       -0.602616
LJ           2.41934         -5.9405        -3.94402
LJ          0.234367         3.35366         -1.1776
LJ          -4.93448         1.14367         4.04609
LJ          -2.66064         3.49716         6.16618
LJ          -4.69725        -6.13322         3.85364
LJ           2.38967         4.86368         1.68449
LJ          -3.40982         1.50922         -5.2444
LJ          -4.93138         3.98798         5.89935
LJ          -1.37892        -3.38041        -5.34396
LJ           4.35364        0.550761        0.557344
LJ           4.99377        -0.27907        -3.58346
LJ           5.82753         3.56682         3.97865
LJ           1.82656         3.38938        -1.32404
LJ          0.234133         2.53372        -2.53665
LJ          -4.93858        -2.49668        0.139585
LJ          -5.08821         3.51992        -2.11573
LJ           4.83044       0.0443424         4.79916
LJ           4.19002          1.8177        0.593024
LJ          -3.20291       -0.180229        -5.42885
LJ           0.96286        -4.40344         5.86683
LJ           1.83289        0.329802         2.83401
LJ          -4.84847         2.29334        -4.07799
LJ           4.21427        -2.80874        -5.91573
LJ           5.31067         2.35715        0.415619
LJ          -3.95003          4.7647         4.53183
LJ          -3.01912         1.43328         5.11348
LJ          -5.11943       -0.294378        -4.06076
LJ         -0.532261          4.2487         0.45496
LJ           5.00776          1.7904        -5.19118
LJ          -4.51301         5.02162        -1.55233
LJ           6.11994        0.648564        -2.98214
LJ          0.930223        -3.06262        0.713117
LJ           1.97259        -5.25404        -0.85566
LJ           5.36868        0.132193         1.52074
LJ           3.11219       -0.796108        -5.48323
LJ           4.52527         3.68925         1.51723
LJ          0.715139        -1.40499         1.22494
LJ          -2.86644         4.26256        -1.25676
LJ          -3.71245          4.1934        -3.68671
LJ           4.47594        -1.61743        -5.90514
LJ           3.28086         4.48138        -1.80916
LJ          -1.17079        -4.35513         5.73461
LJ          0.150372         5.70527         1.91613
LJ          0.393111        0.893986       -0.848042
LJ          -3.92787         6.40113          2.3894
LJ          -2.22934         6.01929        -3.77314
LJ          0.377175         2.04345        -4.45737
LJ          0.762235         -5.1909       0.0436335
LJ          -5.96178        -5.84618        -3.73254
LJ           4.85083        -4.34349        -3.46688
LJ          -2.73112         2.86275         1.19097
LJ          -5.79643        0.882046        -1.65784
LJ         -0.786443        -1.23736         1.67239
LJ           3.28569        -4.53312       -0.943005
LJ           -2.7588        -3.84212         4.12632
LJ           5.84281         2.32817        -2.53463
LJ          -4.27111         -3.1364         4.25911
LJ          -4.89042        -5.08841         5.57438
LJ           1.37731        -1.78591         4.03576
LJ          0.486221       -0.768732         4.42685
LJ           3.07477         1.87843        -6.06534
LJ          -2.98635        0.860968        -2.62755
LJ           5.94259        -2.23855         2.69578
LJ          0.107107        -1.63413         3.62446
LJ           2.48011        -6.28356        -0.18411
LJ           3.90968        -4.94696         1.41416
LJ          -5.32637        -4.04743        -3.03608
LJ          -3.47714        -2.17568        -2.21336
LJ          -4.36398         2.26085        -1.81421
LJ          -5.26148        0.891339         2.80304
LJ         -0.514664      -0.0551928        -4.35312
LJ           2.52693        0.565423        -4.42926
LJ           5.71921         4.05635         1.32249
LJ           1.11182         1.88236         3.76469
LJ         -0.881189       -0.709964       -0.308176
LJ           5.25396         -3.2026         -1.0649
LJ          -5.44182        -1.74697        -3.56832
LJ           1.58197        -4.08044        -3.86206
LJ           2.42326        -5.07239        -1.80306
LJ          -0.92253        -1.13268         2.86164
LJ          -4.54812         1.15265         -2.8181
LJ          -2.94099       -0.734659          2.1677
LJ          -6.37789         1.98138        -6.17009
LJ          -5.70668        0.478954         -3.2048
