108
#Comment!
LJ          -1.92355        0.485672         4.78229
LJ          -5.34405         2.14012         6.45581
LJ          -5.59188        -6.34534         -6.0307
LJ           5.05961         1.88136         1.39445
LJ          -1.67846        -2.76343         5.58923
LJ          -2.99946         1.59185        -5.11697
LJ          -5.20695         2.27408          1.0008
LJ          -3.24435        -5.24755         -3.0202
LJ          0.956774         5.55556         1.66407
LJ          -1.20699         3.18833         3.69932
LJ         -0.877208         2.47611        -1.83956
LJ          -3.06936         2.24034           1.633
LJ          -1.47619         6.05548        -2.35366
LJ          -1.99085         1.15916        -3.95021
LJ           6.21658        -2.47026       -0.904936
LJ          0.856231         2.91252        -3.25124
LJ         -0.763208         1.54984         4.73952
LJ          -6.01466         4.68421        -3.56937
LJ          -6.17071        0.744006         4.35234
LJ          -1.52975          2.1213        -3.56132
LJ           2.53163         1.96606         1.59981
LJ           -4.1296        -1.59838        -3.37718
LJ          -3.19809        -6.32955        -4.06007
LJ           5.89954        -2.88424        0.143412
LJ            5.4885          4.2378        -0.55186
LJ            1.2365        -5.47767         3.91937
LJ           2.23248        -5.99647        0.824492
LJ         -0.637125         5.67088         4.13311
LJ         -0.167772        -2.95466         6.02691
LJ           5.61953        0.240331         4.01652
LJ           1.15774         1.64231         1.38416
LJ           2.26803         1.00551           2.695
LJ           4.49342         2.29312        0.372367
LJ           1.25308         4.45103        -5.10423
LJ           5.05674         5.09558        -2.18861
LJ          -1.80624        -1.83259         -3.6714
LJ          -3.15305         4.43853        -1.90184
LJ           3.54214         6.44095        -0.74587
LJ          -4.04454         6.32169        -5.38233
LJ            3.5899         4.16154        -1.35962
LJ           6.39863        -5.62074         1.86821
LJ           3.45443          4.3495         5.09839
LJ           5.66268         3.65409        -5.36986
LJ           4.30033         3.18608         6.10676
LJ         -0.604076        -2.66531         4.13431
LJ           4.56734       0.0792892         4.18729
LJ           5.87602         3.90521         5.35248
LJ           0.22315         2.88424         1.73884
LJ          -3.13508         5.05028        -5.69443
LJ           4.09516         4.80021       -0.473259
LJ           4.94973         -6.1053         4.02559
LJ         -0.645492         4.48995         2.23352
LJ          0.988214        0.560329       -0.540501
LJ          -2.61046       -0.945896        -2.27167
LJ          -5.21551         4.16155        -4.14112
LJ           5.52883         4.84605         6.39555
LJ          -5.87171         5.10729         1.77575
LJ          0.957616        -5.40314          4.9035
LJ         -0.485144         2.09067         3.89384
LJ          -2.66339        -6.43345        -5.22337
LJ           6.37005        -1.02771         6.11301
LJ         -0.175405        -6.30532         0.91074
LJ          -3.73282       -0.897515        -2.63625
LJ           3.82308         2.78598          3.9736
LJ           2.05736         5.50916         2.36874
LJ           2.56356         3.21786        -6.44716
LJ           1.79715        0.652276         5.63471
LJ          -1.49816         2.82075        -2.53652
LJ         -0.562721         1.23071        -3.64255
LJ           5.40855           1.364        -5.78207
LJ          0.349266         1.65888        -6.31227
LJ            2.1552         2.87661       0.0207144
LJ         -0.934024        0.918171        -2.73067
LJ           1.19186         1.61779        -1.55471
LJ           5.73365        -1.13866         1.46427
LJ          0.536824        -4.75594         1.30254
LJ           4.27708         4.81888         2.77051
LJ           2.38991        -2.15188         5.90804
LJ           5.81322      -0.0931007         5.46953
LJ           3.63912       -0.594109        -2.60826
LJ            -1.837        0.313802         5.72282
LJ          -6.28686         2.68854          6.4409
LJ           4.61907         3.67931         3.61657
LJ          -6.24949        -5.42176        -1.99299
LJ          -2.32039        -2.67171        -1.57732
LJ            2.5467        -2.41135        -3.78522
LJ           6.41136       -0.788018         5.06239
LJ          0.960514         2.12939        -2.56685
LJ          -4.50274        -4.03308         3.29604
LJ          -5.77564         2.87636         1.78485
LJ           2.89362          5.3882         -1.4504
LJ          -1.37939         6.38931           1.449
LJ          -3.86065         4.84226        -4.46608
LJ          -1.67401         1.44012         5.71793
LJ           5.96091         1.55469        0.204151
LJ          -5.62081         6.06748          3.4234
LJ           6.10801       -0.903174        0.178211
LJ           1.61988         -4.4036         1.89661
LJ         -0.455657       -0.630737         5.25833
LJ          -3.35144         4.62838        -3.20756
LJ           4.91779        -1.04929        -3.01571
LJ           4.64533        -5.21829         1.95894
LJ            -4.147        -2.56413        0.765495
LJ          -3.29092        -2.13256        -2.19888
LJ        -0.0578859         5.33206        -3.23952
LJ            5.5818        0.778301          1.5814
LJ          -1.00413        -2.00046         5.95927
LJ         -0.952959        -3.01664        -3.27992
