108
#Comment!
LJ           3.60596        0.053825       -0.246782
LJ           2.19884        0.264858       0.0187147
LJ          -3.64671        0.350246        0.138433
LJ          -5.12303        -5.59627       -0.772427
LJ          -1.43875        -5.42321         2.94269
LJ           3.06983        -2.84782        0.533831
LJ          -3.00774        -1.50468        -4.64823
LJ          -4.89142        -4.90267        -2.31906
LJ           2.61253        0.681803        -4.14096
LJ          -5.59163         2.44959        -1.49993
LJ          -2.48892        0.961456        -6.01024
LJ          -5.46505         6.26887         3.12303
LJ         -0.396711         4.83774         2.69228
LJ            5.0599        -3.63337        0.280499
LJ            1.2119         -3.4802        -1.62157
LJ         -0.445631          -6.438         2.45784
LJ           -4.8202        -1.74445        -5.18468
LJ          -1.34344         3.09232          2.2594
LJ           5.31591       -0.120627        -0.26332
LJ          -1.72349        0.356146        -4.59162
LJ           4.45094        -3.15273        -6.12672
LJ           5.65147        -4.55842        -3.84967
LJ           4.93964         0.47896        -3.68095
LJ          -3.69053         0.93446         1.02787
LJ           1.54527        -4.33501        -4.24147
LJ          0.611209         3.16044        -3.06892
LJ          -4.25134         2.82345         2.73184
LJ          -1.71855         3.68036         4.85837
LJ          -4.81454         5.92863         2.37203
LJ           4.51595         6.18699        0.965329
LJ          -4.18902         1.24863        -5.56974
LJ          -5.67541         2.10419         4.86016
LJ          -2.43604        -3.83676        -2.77061
LJ           4.10883        0.177652        0.817296
LJ           5.24501        -2.08682        -5.05515
LJ           6.40707         3.89321         5.38528
LJ         -0.439266         4.81881        -3.29604
LJ          -1.71882         4.85743        -2.84438
LJ          -4.22573         -3.8604        -1.18554
LJ          -4.62203         3.61163        -1.76742
LJ           4.48804         1.97379         4.02534
LJ           3.51421          3.2656        0.630016
LJ          -4.08424       -0.408094        -6.39996
LJ           3.41561        -2.87335        -4.82141
LJ           2.50126       -0.523612         4.29794
LJ          -4.15413         2.83955        -2.65004
LJ           4.35899        -2.57894        -4.97112
LJ           3.84263         1.15343         1.31705
LJ          -1.53432         5.50215          3.1405
LJ          -3.88007         2.67346         -6.1992
LJ          -2.34727        0.611908        -2.89257
LJ          -2.79228         2.07032        -0.14568
LJ           6.37134         1.28597        -5.03005
LJ          -2.85407         4.88119        0.497189
LJ           5.36341       -0.332124        -3.12173
LJ          0.551886       -0.599716         2.25184
LJ           2.48226         6.12132        -1.11545
LJ          -5.91888       -0.510862        0.320022
LJ           3.36625       -0.634868        -4.28607
LJ           5.03496         4.21282         3.51189
LJ          0.153184        0.521299         1.85355
LJ          -2.80009         5.40077       -0.622896
LJ           -4.2167         3.89657        -4.55096
LJ          -5.98988        -0.21284        -5.78108
LJ           5.32555         5.65634        -2.12973
LJ          -4.32558        -5.26293        -5.50663
LJ          -1.81818         5.24954       -0.494231
LJ          -1.06808          1.9164        0.171669
LJ          -5.62688         4.19911         1.53031
LJ          -1.22327        -4.72012        -4.36921
LJ         -0.298914         2.08531         -3.9158
LJ           1.05951        -6.14689       -0.183681
LJ          -5.03101         6.06996        -5.75512
LJ           2.34967        -4.98994        -3.80214
LJ          -1.75446         4.99054         2.30546
LJ          -4.66025         2.77166       -0.822664
LJ         -0.967012       -0.031639        0.939774
LJ           1.47876        -3.31291       -0.247453
LJ          -2.20867        -4.20134         2.13717
LJ           5.36887         1.75098        -1.77112
LJ           -4.1863        -3.01306         6.12122
LJ          -5.07988        -5.86877         4.76902
LJ           2.54777        -4.17684         2.66873
LJ        -0.0452878        -1.29445         4.59684
LJ           1.80851        0.533719         -6.0969
LJ          -2.40961         3.74376        -3.26476
LJ           6.18033       -0.884279         3.72146
LJ          0.824407        -2.54062          3.4505
LJ           1.59001         5.25662         -1.2298
LJ            2.2347        -5.56378       -0.527432
LJ          -5.45038        -5.36607        -3.34332
LJ          -2.65339         -2.0101       -0.824088
LJ          -3.00117         1.13887         -2.2242
LJ          -5.31425         1.87831          2.3022
LJ          -1.01635         0.66987        -5.35649
LJ           1.64953         1.56681        -3.54649
LJ           5.44782         3.64404       -0.388436
LJ           1.66101         1.60443          4.9509
LJ           1.08969        -2.67314        0.516374
LJ           4.16027        -4.38086        -1.55158
LJ          -6.08485       -0.638393        -3.51474
LJ           1.47516        -6.42781        -5.26849
LJ           1.23964         -6.0348        -1.11753
LJ          -2.18371      -0.0978322         1.49894
LJ          -4.68444         1.27617        -2.36554
LJ           -4.4583         2.48548         1.48792
LJ          -6.34617         3.77102        -5.12738
LJ          -4.55956       -0.205141        -3.80298
