108
#Comment!
LJ           1.47718         6.45709         2.18744
LJ          0.875486         1.45069         3.73018
LJ           5.84172         1.52589        -2.79703
LJ            2.7082        -2.25063         4.80366
LJ          -2.94936         5.05856        0.416407
LJ           5.92507        -3.42967         3.24831
LJ          -5.13444         1.31379        -3.85225
LJ           3.94821        -4.19915        -6.32046
LJ           4.21434        -5.35661        -1.37502
LJ            2.7729         1.63504         5.77098
LJ          -3.94359         3.13741        -1.42049
LJ         -0.406662        -1.30714         2.79418
LJ          0.859089         -4.3844         -1.4415
LJ          -1.75582        -2.10533         -3.1602
LJ           1.20047        -3.11774         3.80514
LJ          -4.25741         -3.2866        -4.94648
LJ          -1.03144        -5.71101         6.02388
LJ            4.8271         2.25939         1.05453
LJ            2.9219         6.11337         6.01497
LJ        -0.0278508         1.22821         0.58409
LJ          -1.00809        -4.25858        -3.72122
LJ          0.230809      -0.0733225        -1.85095
LJ           -5.8057          -3.742         3.68896
LJ           5.43294         2.36744          -2.441
LJ           4.62576        0.177025         1.71556
LJ         -0.465324         2.22854        -3.41967
LJ          -4.92221        0.165764        -2.69466
LJ           -5.1306         3.98109        -5.99497
LJ          -4.11219        -2.94905         6.20956
LJ          -2.85074         1.99361        -1.99837
LJ         -0.887477        0.521319        -5.54671
LJ          -1.82522        -5.22145        -4.44265
LJ           3.54364        0.382719        -1.90263
LJ           5.85612       -0.687475        -2.73973
LJ           3.76058         2.56453         5.60671
LJ           5.21092      -0.0022833        -1.51227
LJ          -4.97247        -3.09516         5.76091
LJ           3.71548        -2.55725        -3.87789
LJ          -1.81895         -2.1283        -2.24064
LJ            1.9449        -5.58877        -3.82253
LJ           3.52659         6.41524        -4.44174
LJ          -2.66589        0.941782         2.69363
LJ          -1.78878       -0.612154       -0.449478
LJ          -4.46007        -2.09825        0.718339
LJ         -0.753453        -2.79218        -2.08768
LJ           5.62247       -0.527404        -5.51529
LJ            2.8667         3.24817         4.32464
LJ           6.29347         2.28806        -3.16871
LJ         -0.654108        -6.32166        -5.02064
LJ           5.33403          6.2877        -5.71632
LJ           4.66858        -2.82085         6.41892
LJ          -5.61904        -1.75313         2.15435
LJ           1.05793        -6.44448        -3.36867
LJ           6.26321         5.77617        -5.04469
LJ           -6.4384         4.44831        -6.29366
LJ          -5.42277        -2.73622        -2.41216
LJ          -5.32058         5.92446         1.06033
LJ           3.56236         1.70193        -6.04967
LJ          -4.96799         5.09682        -5.34653
LJ            1.8068         5.16874         3.14033
LJ         -0.898895         1.18073        -2.43046
LJ          -3.16642           1.148        -3.84345
LJ          -5.84856        -5.03797        0.612735
LJ           2.87627         -3.2617         3.87767
LJ          -3.35877       -0.378737       -0.251234
LJ           3.36467         3.25698         1.19847
LJ          -6.23892        -5.15637        -3.96076
LJ           6.11311        -3.85267         0.33233
LJ           1.83955          1.7784        -6.11389
LJ          -1.48499         2.30478        -2.73649
LJ            3.7952          3.3061        -3.53771
LJ           2.74038        -3.66129       -0.150815
LJ           4.31716        -5.13577        -5.05657
LJ          -3.62401        -4.42232        -3.82726
LJ          -1.93304        -5.17136         2.11896
LJ           1.56828        0.246298         1.23771
LJ          -1.59184         5.51252        -1.84069
LJ           6.41229         5.87392        0.309736
LJ          -3.66775        -2.44241        -3.45771
LJ          -5.62308         3.98543        -3.89617
LJ          -3.36742        -4.20928        -1.44014
LJ          -6.21302         -3.6451        -3.80482
LJ        -0.0480318         2.64136        -5.24481
LJ         -0.603151         1.11901        -1.43678
LJ          -6.15397         5.01057         3.35093
LJ          -3.06627         2.69021        -3.87858
LJ           5.30497        -2.91088         2.15794
LJ           2.56179         1.97134         -1.2969
LJ           3.53744         1.63571        -1.99772
LJ          -4.83955        -3.71879         2.02761
LJ          -4.43269         1.18339        -5.32548
LJ          -3.35381       -0.331187        -2.52229
LJ          -6.32508         3.97587        -4.91881
LJ           -6.4293        -1.80965          6.2665
LJ          -3.75381        -5.59408        -1.95214
LJ           4.34491        -5.00971         4.55153
LJ           1.19641         5.75686         3.94312
LJ          -3.77283         3.15101        -6.13585
LJ          -4.00846         2.70663        0.582047
LJ           1.01541        -5.54489         2.03495
LJ          -2.62661         6.33753        -1.50465
LJ           1.27563         6.27803         5.73175
LJ           3.83489        -6.00133         1.76471
LJ         -0.585687        0.392646           5.112
LJ          -4.60553        0.183804       -0.257163
LJ           2.76278         1.88518         4.73504
LJ           4.77613        -2.63261         3.83467
LJ           3.55931         4.11516        -6.01218
