108
#Comment!
LJ          -6.29272        -1.49149         3.14381
LJ          -6.23486        -3.17901          2.2239
LJ          -2.99887        -2.01148        -4.66251
LJ         -0.494877        -5.56469        -3.89622
LJ          -1.53177        -5.08415         2.94288
LJ           1.22326        -4.95542        -1.85409
LJ          -4.54911         4.76663         2.09235
LJ          -6.37376         5.21171         1.76983
LJ           2.79685        -1.80478         4.38689
LJ           0.79621         4.32878        -4.14492
LJ         -0.430726        -6.24397        -5.34705
LJ          -4.96507        -3.03854        -4.83261
LJ          -5.12597        -6.39252         2.67967
LJ          0.407126         4.77547         -1.7942
LJ          0.621058         6.25066        -0.27191
LJ          -1.78438         2.45307         4.05324
LJ          -0.29131        -2.67451         5.39424
LJ           3.02936         2.29475        -1.43589
LJ          -6.40203        -4.72884         4.54123
LJ          -3.92353         5.37348        0.386508
LJ         -0.735193        -2.88611        -3.37298
LJ          -5.54284        -6.00429        -5.47708
LJ          -5.70914         3.13922         1.12177
LJ           5.01119        -5.26732        0.622261
LJ          -5.60817         5.32805         3.78884
LJ          -5.23553         -6.4238        -2.53104
LJ           4.05171        -1.30051        -4.35153
LJ           5.71175         0.68463        0.491938
LJ          -3.81371         3.00192       -0.971029
LJ         -0.556051        -5.39977         2.86521
LJ           1.60363        -1.34277        -4.83766
LJ         -0.991251         0.69407         2.11527
LJ            1.9313         5.88916       -0.684538
LJ           2.08203        -3.14134         2.85495
LJ          -5.56128        -2.61545        -3.20466
LJ           1.10266         0.29066        -4.17037
LJ          -3.77833         2.53726         3.59569
LJ           4.23984        -3.71029        -2.01569
LJ           5.31649         5.67706      -0.0391552
LJ          -1.90489       -0.161714        -1.03428
LJ           4.54257        -2.12164       -0.378371
LJ          0.705857         5.80019        -1.34471
LJ           2.97818         2.43877         3.77773
LJ           5.96263        -3.81647         3.15678
LJ           1.99016          2.9657         4.22939
LJ         -0.315238         4.44001         5.93518
LJ           -4.2462        -4.75219        -1.85602
LJ           1.87233       -0.161312         1.32171
LJ         -0.376991         3.92915        -2.59154
LJ           -2.7521         1.02146         1.61336
LJ           -1.1718        -4.36922        -5.89713
LJ          -3.27502       -0.860177        -4.44717
LJ           4.04579         1.18638        -1.95594
LJ            1.5365        -2.30531        -2.91334
LJ           2.00848         4.97111         4.03089
LJ          -5.13394         1.38807          5.7778
LJ          -6.28638         5.95996        -2.41768
LJ           3.16652         1.58161       -0.407285
LJ           3.62046        -2.02961         1.24782
LJ         -0.813443        -4.57269         -4.3714
LJ          -1.60034        -2.89158         1.99754
LJ          -2.83563        -4.88828        -6.44905
LJ           2.47756        -2.92195       -0.414373
LJ          -5.19747         1.85862        -4.29062
LJ           3.16099        -0.90597        -5.38285
LJ          -2.92737         2.35974        -5.95266
LJ          -6.15538         -1.6729        -6.40394
LJ           5.89772       -0.233517        -3.77905
LJ          -1.91338         6.45306         -5.4555
LJ           1.91274         6.40626           3.207
LJ          -4.06248         1.52241         -1.0132
LJ           6.10067         1.64248        -4.68165
LJ           1.05199         5.61093        -2.38215
LJ         -0.312398         1.94879        -6.13614
LJ           5.43791          0.5659         -1.0143
LJ          -2.13812         6.38485         1.72637
LJ            3.9482        -2.95124         5.00461
LJ          0.484307        -3.40484        -3.38919
LJ         -0.861644        -1.56443        -3.45358
LJ          -3.24162        -6.39653         5.57495
LJ           2.73516        -4.49006        -6.15868
LJ           -4.9396       -0.081157         3.95799
LJ           4.26711        -4.73667        -4.31052
LJ           4.70077          1.2915         4.58931
LJ           6.00238         5.80087         3.39116
LJ          -3.49663        -5.11406        -3.77424
LJ           4.70569         4.49113       -0.806953
LJ          -1.49719         5.17664         -1.2637
LJ            3.9065         2.08931         3.55799
LJ            2.0873         3.27778         6.05619
LJ         -0.917937        0.981881        -4.33097
LJ          -4.51208         2.65362        0.851593
LJ          -4.83379        -5.16509        -3.27161
LJ          -2.26968        -1.55318        -5.52059
LJ           2.18267         5.75143         1.59269
LJ           1.70182        -3.68293        -3.88771
LJ          0.942366        -3.33088        -1.19865
LJ          -3.27647         3.08638         4.72961
LJ           3.76967          4.7233        -2.15942
LJ          -5.43573        -3.89517         2.31268
LJ         0.0141176         4.43764        -5.79748
LJ            4.3203       -0.430373         4.78035
LJ          -6.34031         6.28276         1.79268
LJ         -0.138767       -0.996104        -3.02037
LJ          -1.54932         4.22238         3.76267
LJ          -5.33852        -3.73396        -2.88459
LJ           3.73011        -6.11898        -1.49789
LJ           4.32653        -5.82742        -6.08791
