108
#Comment!
LJ           1.44109        -5.34612         4.95734
LJ          -6.31546         3.47025         5.37213
LJ          -1.16718         3.23444         4.87194
LJ           4.83648        -6.03133         2.53269
LJ           1.18054        0.964658        0.654284
LJ           3.26751        -2.75058         6.12467
LJ          -1.98942         -1.2091         5.48923
LJ          -4.13684        -3.86752        0.479947
LJ           5.87826        -4.09577        -6.23135
LJ         -0.615813         6.30542          1.4536
LJ          -6.07411         4.91129        -2.89797
LJ          -1.62639        0.873566        0.745841
LJ          -5.45203         5.76352        -4.94037
LJ          -5.26292       0.0594898            3.46
LJ           2.68902        -3.67876        -2.21837
LJ          -1.40038        -1.27835        -4.01985
LJ          -2.89068         -1.4752        -5.80881
LJ           6.14757        -5.03722        -6.43456
LJ           6.42594         6.45488        -4.50088
LJ          -2.40533      -0.0149305         4.52447
LJ          -3.53363      0.00572614        -3.39112
LJ          -1.85551        -2.80081         2.26038
LJ          -1.76816         2.14045        0.393088
LJ          -3.79717        -3.36627         5.11698
LJ          -6.01295        -2.67393        -5.64194
LJ          -2.60805        -4.71328         2.73729
LJ          -1.20252        -4.04935          6.3991
LJ          0.952911         2.66982        -5.63133
LJ          -3.48992         2.06774         1.28129
LJ          0.956011         -1.5095         3.68155
LJ           4.99342        -4.30227         1.48001
LJ          -2.55259         2.04426         2.86145
LJ           2.78252        -2.77321         -2.6028
LJ           4.68743         3.89851        -1.76284
LJ            2.7624        -5.92027        -3.18898
LJ           0.38281         3.38489         1.46927
LJ          -2.62802         4.22133         5.17089
LJ          -1.91143      0.00794285        -5.14991
LJ          -5.78891         5.43044         2.61311
LJ            1.0295         -5.9437         -1.3577
LJ           6.16345         -5.8156        -3.62814
LJ          -1.18881         6.33439         2.41997
LJ            2.7458         4.17707         4.84331
LJ          -3.34011         6.39609         2.62241
LJ          -1.43308        -1.63909         1.72467
LJ          -5.33905         3.14092        -1.14463
LJ          -1.00686        -1.66196        -1.82102
LJ           5.29181       -0.615577         3.13115
LJ           0.78069        -4.21159        -2.78028
LJ          -3.70379        -1.53411         2.84135
LJ          -4.42213        -1.48967        -0.32576
LJ          -5.95423          3.5929         3.01267
LJ           5.63638        -3.33711         3.96849
LJ          -2.35413         5.19916         1.59159
LJ          -4.48997           5.851         4.62144
LJ           2.78685        -5.45655         5.70737
LJ           2.84535        -3.73154         1.11875
LJ           3.28043         2.63382        -3.93405
LJ         0.0406573          1.2194         1.94738
LJ         -0.819087         4.30421         5.57642
LJ          -6.11125        -3.61431      -0.0446966
LJ           5.35585        -3.64103         2.85372
LJ          -3.37397        -1.03044        -1.02461
LJ          -3.77508        -2.90473         3.73728
LJ          -1.61777        -3.09822         5.91843
LJ          0.182582         1.38632         3.00885
LJ         -0.297092         4.04716          4.2565
LJ           1.81373         6.17714         3.17545
LJ           6.31228         1.56391        -3.65038
LJ           2.38885         2.08269         4.14585
LJ             6.388         1.52364        -6.03544
LJ           4.86968         5.75064        -2.90273
LJ            1.6829         2.92457        -2.55883
LJ          -1.75087        -5.90461         3.95477
LJ           4.96565         3.28729         3.51825
LJ          0.581553         3.62333         6.19198
LJ           2.33371         1.39723         5.20374
LJ           2.64463         3.80825         1.12773
LJ          -5.72834       -0.484414          1.7449
LJ          -2.50284        -5.53411         -3.9377
LJ           5.34711        -3.91813        0.635647
LJ          -3.66771        0.277167         2.37974
LJ          -4.47376         1.42834        -1.49354
LJ           5.95872        0.442569        -4.36431
LJ          -6.46062         6.16107         2.21421
LJ          -3.12557         0.96585         -3.1788
LJ           6.18232         5.26266         3.42426
LJ           5.90417        -3.21516        -5.34063
LJ          -0.32736        -1.73556        0.904723
LJ           3.38127        -4.14971       -0.281794
LJ          0.366968         4.38802        -2.79881
LJ          -2.67842        -3.63347        -5.05165
LJ           6.25202        -5.83965          3.7219
LJ           -6.3836        0.227038        0.185721
LJ          0.307577         2.16044          2.3714
LJ          -3.07373        0.382611        -4.32114
LJ           4.34371        0.978207        -1.82656
LJ           3.45662         3.84064         3.73617
LJ          -1.32077        -4.01662         4.83135
LJ           5.15161         2.81958         5.39223
LJ          0.107962        -2.86661        0.965717
LJ           3.40825       -0.248827         0.31286
LJ           1.97577        -1.96226         4.22176
LJ           -2.2722        -1.61106        -2.27069
LJ           4.33864        -5.66766         -5.6594
LJ            5.3974        -2.94545         5.42518
LJ            4.1027         2.11313        -4.70248
LJ          -3.08282        0.575215        -5.32793
