108
#Comment!
LJ          -5.26706         2.00225         2.59729
LJ           2.65601          -2.045         3.91308
LJ          -4.24995         2.10895       0.0413425
LJ           5.32855        -1.28607       0.0464903
LJ         -0.636052        -5.64606         4.35621
LJ           5.28986        -3.24078        -5.88597
LJ          -2.31012        -5.12812         5.66815
LJ         -0.878013         2.63287        -5.19796
LJ          -3.56552         0.37884         3.02579
LJ           3.55293        -2.73009       -0.824374
LJ          -5.75503        0.815476       -0.344845
LJ          -2.51989         4.38208       -0.302465
LJ           -1.7895        -3.99697         5.94221
LJ          -5.46075        -5.42137           5.612
LJ          -4.61928         5.07019          3.4056
LJ          0.882863         5.34605       -0.693711
LJ          -5.33003        -3.30698         3.55992
LJ           1.84227         2.76337         1.61287
LJ           2.49044       -0.966937         2.75047
LJ          -2.24964        -2.08048         6.40346
LJ           1.04839        -1.68501        -2.46371
LJ          -4.78449         2.12111        -6.13292
LJ           1.30749        -2.87494        -6.45042
LJ          -1.93243         2.00617         4.52108
LJ          -4.27704        -3.33538         4.15779
LJ           1.63961        0.835183         4.16819
LJ          -3.66449        -5.22178         1.13104
LJ          -1.82453        -6.36022        -6.14569
LJ          -6.32675         2.34631        -2.48971
LJ          -1.64439        -3.28879        -1.29676
LJ         -0.241617         3.50367       -0.208903
LJ           -5.0872         2.68404       -0.288912
LJ          0.581226        -3.46129        -4.05428
LJ           3.37344        -2.34407        -3.24773
LJ           2.41662        -4.35432         2.99633
LJ          -3.35263         3.21477        -2.98877
LJ          -3.84864        -3.87865         1.93523
LJ          -4.59622        -5.11291      -0.0212674
LJ          -5.20634         6.31682         3.22157
LJ         -0.823387        -3.97252        -1.49204
LJ           2.22252        -6.31124         2.68153
LJ           1.08174         4.38259         2.05861
LJ          -6.27528        -3.73978         3.83484
LJ           4.13151         4.88445         1.04008
LJ           6.33537         6.02696        -3.36208
LJ          -1.65978         -1.0955        -1.46834
LJ           5.58911        -4.04019        -1.70306
LJ          -1.72885        -1.40761         1.84227
LJ          -1.46361       -0.650258        -3.67282
LJ          -4.06046        -6.38477         4.17751
LJ           1.92992          2.8491        -2.14006
LJ           2.50667        -3.78758        0.392328
LJ          -1.42658      0.00632294        -4.61932
LJ          -1.62855         6.00601         1.97844
LJ           5.39807        -3.77709        0.703521
LJ          0.740283         2.62107         1.13592
LJ          -1.45857         3.36965        -4.46477
LJ          -2.50742         -1.9962        -3.05897
LJ           5.00257        -1.23694        -3.83051
LJ           4.34103        -6.28089        -3.94351
LJ           1.31677        0.820436         1.86782
LJ        -0.0328785         4.45119        -2.28939
LJ           4.43336         5.45653        -5.18733
LJ             6.166         4.76624         6.20668
LJ           6.23198        -5.66944        -2.25036
LJ          -1.00326         4.05824        0.723321
LJ          -2.69329         3.08958        -3.70448
LJ         -0.629516         2.67133        0.274121
LJ           4.17029        0.765509        0.869651
LJ           4.25771         1.90374        -2.04162
LJ           3.21399         3.32794        -1.93119
LJ           4.83926        -4.98288         5.79798
LJ          -2.13973         3.05452         1.06914
LJ          -5.83648         5.40539         6.37527
LJ           3.11777         5.45092        0.294584
LJ          -1.65181        -4.23305        -4.88604
LJ          -4.11075         5.44299        0.511669
LJ           1.60999        -3.98344       -0.981049
LJ          -1.14112        -3.73266        -3.82679
LJ           3.45524         1.13812      -0.0502933
LJ          -2.36922        -2.09545        -0.75543
LJ           5.76552        -5.87209         5.66101
LJ            6.0272         0.93517        -2.30412
LJ          -3.39608        0.124744        -5.86434
LJ          -3.18069        -1.89887        -4.34075
LJ          -3.84439        -3.37508        -3.14382
LJ           4.55695        -2.40272        -3.84695
LJ            2.3711        -6.32143        -2.97295
LJ          0.625167         5.01644        -3.20262
LJ         -0.786712         4.74465         6.29877
LJ           5.43937         5.14811        -3.93765
LJ         0.0859628        -1.32982         3.56897
LJ           1.40404        -2.89533        -1.63924
LJ           6.44644         2.40031         1.78454
LJ          -4.76828       0.0670377         3.80175
LJ           -0.2779          2.0125        -2.73609
LJ           4.55638         1.55794        -5.95938
LJ          0.708715         3.72172        -2.91324
LJ          -2.00411        -3.67522         1.42795
LJ          -5.56009         5.96394         -3.1404
LJ           -2.7271        0.625624        -5.17819
LJ          0.846509       -0.503574         5.17498
LJ           -4.2501        -6.36857        -2.80207
LJ           5.12198         4.58632        -1.48321
LJ          -1.10377         1.11906        -3.78599
LJ           1.66864         4.30452        -3.52069
LJ          -3.69265        -5.71886        -1.94693
LJ          -1.40144         1.77357        -5.98272
