108
#Comment!
LJ           2.04002         3.16373         2.00672
LJ           1.91014         1.02474         1.81513
LJ          -4.58262       -0.742653        -3.80426
LJ           4.81826        -2.99509        0.835476
LJ          -2.05296        -6.38612         0.90876
LJ          -5.57488        -3.83214         6.09587
LJ          -5.28912        0.762829        -4.17153
LJ           5.11945        -4.16124        -3.29356
LJ           5.36741         5.22024         5.41966
LJ           4.04117        -3.98067         2.93705
LJ          -1.61632         2.24857         1.18717
LJ          -4.08935        -3.12841         5.36689
LJ          0.755688        0.210863       -0.517489
LJ           2.44728        -2.29751        -6.43305
LJ          -1.21742        -1.78072        -5.92377
LJ           -3.1632        -4.12997         5.67507
LJ          -2.85087        -4.53415        0.577493
LJ          -5.40908         2.75346         2.07155
LJ           4.25698        -2.96302        -4.44006
LJ          -1.22298        0.785339        -2.39503
LJ          -3.41114        -4.00804        -5.02784
LJ           2.75757         3.42202        -2.49193
LJ          -6.43155        -5.15027         4.94059
LJ          -4.54889         2.72721        -3.23927
LJ           3.74959         3.73312         4.63965
LJ         -0.260539         4.04182       -0.351963
LJ          -5.60358        -1.49853         5.15412
LJ          -4.28506         3.13366        -4.72119
LJ          -4.56187        -4.76265         6.20202
LJ          -0.74824         3.77984         1.31507
LJ          -2.48026         1.30476        -4.36949
LJ          -3.92926        -6.12421        -6.34712
LJ          0.663576        -2.60137         3.09334
LJ            4.1588       0.0157112        -1.49209
LJ           5.15264         1.63144        -3.87646
LJ           5.17398         2.40825         2.09882
LJ           4.79361        0.484928         1.77739
LJ           2.80626      0.00366463        -2.43344
LJ          -1.94328       -0.538747         1.47047
LJ          -6.24112         3.97816        -2.62208
LJ           5.06073        -3.10219         6.18742
LJ          -5.91663         1.49069        0.966424
LJ           -2.1232        0.078098        -2.92263
LJ          -1.24599          4.1628         2.34657
LJ          0.533503        -1.26614        0.667428
LJ          -5.83223        0.870568        -5.25278
LJ           4.20499         -5.9651         5.21636
LJ          -5.02006         2.38239        -1.43425
LJ           4.96673         3.90012        -5.50352
LJ         -0.302151         1.64079         3.97113
LJ           3.93366        -1.83853        -5.22986
LJ           2.86466        -5.48448         1.80553
LJ           2.96862         3.99956        -4.34929
LJ           5.90829         5.17776        -5.79014
LJ           5.92175         3.00629        -5.06896
LJ           2.73077        -3.31307        -1.19482
LJ           3.45785        -5.39889       -0.412229
LJ           4.44173        0.695472         3.95799
LJ          -0.72859         1.88623        -5.61768
LJ           3.57146         4.25739         1.93979
LJ          0.217732       -0.744787        -1.83954
LJ          -3.01619         2.42571        -2.10452
LJ          -4.47862         4.85418        -1.62326
LJ            3.6237         -2.8786         5.66012
LJ         -0.106444         2.40444        -1.05509
LJ           1.57573        -1.01151         3.48694
LJ           3.18072         6.18945         5.60697
LJ            3.7216        -2.16589          -1.955
LJ          -1.14808        -2.76504         4.37885
LJ          -2.06336         4.01609        -3.51639
LJ           1.98159         3.19609        -4.55226
LJ          0.919968        -6.46215       -0.266496
LJ           5.86921        -5.05271        -2.98038
LJ          -4.72528        -3.73203        -2.67371
LJ          -2.98883        -1.01716         1.43617
LJ          -3.54512        0.855058       -0.609015
LJ          -1.17413        -4.31201        0.491201
LJ           5.33159        -5.34604        0.203071
LJ          -4.12848        -2.67713        -5.54937
LJ          -6.13158         2.84419        -3.53147
LJ          -4.02823        -3.63018          1.5171
LJ          -4.41854        -3.85963        -5.58649
LJ          0.840009        0.591558          5.4705
LJ          0.167215      -0.0445361        -5.02365
LJ           4.30794         3.49383         5.52545
LJ          -3.32561        -4.72838        -2.83986
LJ             5.388        -4.49682          1.0864
LJ           1.23385       -0.226414        -5.79465
LJ           3.21756        -2.18062       -0.302573
LJ           6.43717        -3.92318         4.11493
LJ          -4.26969        -1.68054        -2.88366
LJ            -4.376        -1.72786        -4.05405
LJ          -5.91554         3.16743         -1.7306
LJ           -5.2121       -0.791519         4.42908
LJ          -1.64211        -2.47387        -2.89841
LJ           3.78378        -1.34275         6.27468
LJ           3.74252         5.08006         2.93227
LJ           -0.8806         3.22074         4.06841
LJ          -4.17691         2.16693        -1.02904
LJ           2.12496        -2.34822       -0.404224
LJ           -4.1666        -4.49907        -3.58448
LJ          0.631783        0.231649        -2.77091
LJ           3.90734        -4.80863        0.594548
LJ         -0.720377       -0.929649         3.86629
LJ          -5.28511         1.50816        -2.24151
LJ         -0.414102         -5.5922         3.38903
LJ           5.99312        -0.81806         5.37448
LJ           6.24585         1.91653        -4.27829
