108
#Comment!
LJ           4.54663        -1.03217         -1.3379
LJ           3.34767       -0.109923        0.854217
LJ           -4.4462         1.74227         1.15372
LJ          -6.07391        -4.70927        -1.05486
LJ         -0.926704        -5.69091         3.40344
LJ           3.76533        -2.87045         4.96079
LJ          -2.47523        -2.90418        -5.80673
LJ          -3.18041        -2.83105        -2.61895
LJ         -0.817869        -0.90823        -1.57366
LJ           6.42337       -0.333764        -1.69755
LJ          -4.28846         0.64189        -2.65065
LJ          -4.51025         5.37817         2.29683
LJ         -0.813092        -5.99093         4.41672
LJ          -6.33595        -4.40701        -3.38685
LJ           4.26181        -5.32733        0.616628
LJ         -0.187493         5.22834         1.20325
LJ          -4.83872        -1.74358          6.1488
LJ           1.17329         4.22531         2.20356
LJ           3.62267       -0.652361         1.88394
LJ          -1.64315       -0.402684        -5.70149
LJ         0.0261792        -1.09198         5.91628
LJ           -5.9044        -1.43553        -4.75007
LJ           3.12279        -1.11761        -4.92898
LJ          -1.21467       0.0955556         4.45781
LJ         -0.716002        -3.05065         6.31041
LJ          0.486782         2.60288        -5.60467
LJ          -3.50801         5.54339        0.651533
LJ         -0.753852         4.12231         3.94311
LJ          -5.62182         5.07828       -0.187654
LJ          -5.17284        -4.81527       -0.247361
LJ          -2.69929         2.65212        -3.39307
LJ          -6.06677         1.27308         2.69657
LJ         -0.201874        -3.43445        -2.22231
LJ             2.563        -1.88361        -1.56957
LJ          -3.15784        -3.52487         5.38444
LJ          -5.44079         4.26797        -5.38776
LJ          -2.31871        -6.27414         6.23516
LJ          -4.77298        -5.64923        -2.67572
LJ          -5.08924          5.9868        0.184296
LJ          -2.40186         5.69002        -1.60573
LJ           3.99831         4.88985         2.85925
LJ           3.00117         5.22094        0.975819
LJ          -5.34652        -1.67763         5.02732
LJ           4.38804        -1.92019        -1.49348
LJ           3.88686        -2.96752         6.25439
LJ          -3.02314         1.34304        -1.54743
LJ           5.26935        -3.88151        -3.75098
LJ           1.23245       0.0222256         1.74528
LJ           4.78281        -3.55942         6.40498
LJ          -4.02338         4.55319         6.09432
LJ           1.76175         1.02978        -2.81327
LJ           4.99829       -0.207373       -0.307064
LJ          -4.03487         0.50934         -4.8359
LJ          -2.14401         5.20775         1.31776
LJ           4.21095        -4.36065      -0.0350009
LJ        -0.0628489         3.55207         2.36387
LJ          0.767835          5.2473        -1.53172
LJ          -3.19456        -1.40099        -1.38143
LJ           3.33549       -0.364256        -2.42672
LJ           5.69535         6.03273        -5.70678
LJ          0.813931         1.92201         1.81541
LJ          -1.26235         5.54176       -0.921536
LJ          -5.85408         3.90136        -3.82831
LJ          -4.53365         2.16318        -5.54022
LJ          -6.20522        -6.25117        -2.04704
LJ           3.95914          6.0845        -2.82489
LJ          -3.09892         4.03118        -3.43907
LJ          -1.18737         1.73971         1.68033
LJ           5.01771        0.957226        0.507494
LJ            1.0986        -1.91458        -3.84295
LJ          0.304125         4.17125        -2.61387
LJ           1.60214         5.03462         2.36768
LJ          -3.65011         4.66894         4.29639
LJ          -1.26414        -5.96935        -4.21492
LJ          0.175681         4.46963         1.80727
LJ          -3.44581         5.67563       -0.891232
LJ          -2.53244          2.0104       -0.302409
LJ           1.03184        -2.98265        -1.78197
LJ           -1.9836        -3.67334       -0.706921
LJ           4.77004        0.891735       -0.581711
LJ          -3.99446         -2.6055        -4.02221
LJ          -5.76579         6.28447         3.98263
LJ           4.42948         5.18154        0.651067
LJ          -1.54221        -2.26712        -5.83561
LJ         0.0193577        -1.39402        -5.69211
LJ          -2.39479        -5.85964        -3.72717
LJ            5.7523       -0.723146         5.87199
LJ           1.35979        -3.54935         6.19373
LJ           1.44814         3.63159        -2.95021
LJ          0.309289         5.06101        -3.02375
LJ          -5.01103         5.74809        -3.61686
LJ          -1.45626        -1.70994         1.24762
LJ          -2.08913        0.177619        -1.78348
LJ          -5.11116         3.39541         1.29588
LJ           -2.7798        0.518554         5.58863
LJ          0.718704         2.85759        -3.08132
LJ           5.01555         2.70892        -2.98338
LJ           1.93026         2.29742        -5.60739
LJ         -0.287783        -3.52683         1.95394
LJ         -0.911389        -5.84061        -3.11422
LJ          -4.96321       -0.131311        -4.30089
LJ           1.45631         3.09489         5.94847
LJ         -0.659318         4.74148        -2.46136
LJ          -4.74846          1.9614        -0.39975
LJ          -2.57681         1.59047        -3.13447
LJ           6.09809         4.70651       -0.172501
LJ          -6.15978         6.35484        -3.51176
LJ          -2.66154       -0.149215        -4.76608
