108
#Comment!
LJ          -4.57046         2.48573         4.52061
LJ         -0.696539         3.22005        -3.69228
LJ          -4.05485         5.41153         4.40097
LJ            3.8741        -5.01434        -1.24065
LJ            2.4261        0.508565         2.71943
LJ          -1.25495        -4.14714         1.81946
LJ           4.37343         -2.0165       -0.521277
LJ           3.49177         1.70645        -3.75486
LJ          -1.95021         2.93266         3.53222
LJ           -5.2577        -2.99078         1.44252
LJ           1.46424        -3.09885        0.960879
LJ          -1.04645         4.54859         5.17058
LJ         -0.759876         6.11168         4.70433
LJ           1.02954         3.74013        -6.29739
LJ          -3.01356        -5.36381         1.57953
LJ          -4.13878         6.32451         -3.6796
LJ          -2.27447       0.0728628        -1.78702
LJ           4.95635         4.72225         2.26153
LJ          0.162843         3.11438        -4.54312
LJ           5.52947        -1.81035        -2.70626
LJ           4.36527        -3.16348        -2.37665
LJ          -2.21547        -6.46071        -3.13312
LJ          -5.98344         3.97261        0.798169
LJ          -3.60158        -2.89124        0.680707
LJ           5.61343          5.0789        -5.73505
LJ           2.63533         4.42777         2.99495
LJ           3.59502        -4.62027         5.25552
LJ           4.83116         4.46792         4.54269
LJ          -1.79134       0.0410704       -0.758102
LJ           2.46128         4.58446         1.02024
LJ          -4.29853         2.93634         6.00823
LJ           6.19177         1.36361         -5.3201
LJ         -0.132965         4.59114         2.81786
LJ          -4.22541       -0.964425        -3.01413
LJ           1.92537         3.97238         5.12582
LJ           2.63962        -5.48716       -0.982486
LJ          -4.81094       -0.641699        0.891625
LJ          -3.34581         4.30212        -0.20974
LJ          -2.12895        -2.23331        -0.39725
LJ          -5.64958         0.12693        0.332589
LJ           2.75641        -3.94926         5.25863
LJ           1.52697        0.223375         5.10349
LJ          -6.25864         5.13602        -3.10077
LJ          -1.77953         5.54302         4.34372
LJ           5.32819       -0.591854        -2.19862
LJ           4.22451         1.08329         2.84991
LJ           2.58855        -2.18416         5.04418
LJ           1.44425        -3.75751        0.275755
LJ           1.14047       -0.584714        -2.52845
LJ           5.41849          1.5844         3.53567
LJ           6.19844        -5.30831          5.0763
LJ           4.08842          -1.136         -5.9018
LJ          -3.86702        0.599482         0.34407
LJ          0.621908         1.42613         1.20042
LJ           2.40179        -3.52341        -1.36695
LJ          -1.19101        -4.11683         3.49958
LJ            2.5915        -2.83911         6.00868
LJ           5.20941       -0.313014         0.48269
LJ           1.15277        -6.15775        -5.63839
LJ          -0.66622        -1.13267       -0.771097
LJ          -3.00768        -4.29262        -3.82043
LJ           3.46458         5.53032        -1.31966
LJ          -3.69109         5.38965        -1.30059
LJ          -6.03837        -4.54214         1.09428
LJ          -3.90546        -3.38554        -5.97297
LJ           2.21534        0.893453       -0.473273
LJ          0.995502        0.415461        -3.13835
LJ           2.30575       -0.896187        -1.98141
LJ          -3.14076         5.67271        -2.70714
LJ           -3.0602        -6.37782        -2.13775
LJ         -0.792779         2.99333        -2.64987
LJ           5.25136          6.4512       -0.624579
LJ          -4.81322        -5.31985         1.84959
LJ          -5.32926        -1.78857        -3.21729
LJ           -4.5282          3.6861         2.61526
LJ           -5.6531         4.17387        -2.46737
LJ           4.98258        0.960545        -4.53724
LJ          -1.95907        0.168382        -5.84409
LJ         -0.876191        -1.36264         4.84855
LJ           3.44726        -3.68392         2.09919
LJ          -3.97056         2.72553        0.354001
LJ            4.8819        -5.97419         1.15011
LJ           6.04048         5.86136          2.1134
LJ           2.52028         3.22571        -5.60911
LJ           6.24312        -3.10837         2.73774
LJ           4.78429         2.01122        -1.43599
LJ          -2.16769         2.53474         1.60287
LJ            5.1748          2.0758        0.820616
LJ          -6.23621         1.73138          1.1675
LJ          -6.39898         4.94994         5.23757
LJ            4.3035        -4.77368         4.45579
LJ          0.170386        -4.22765        -4.31064
LJ           4.56471        -3.46877         3.83123
LJ           5.26202         3.28401         1.49799
LJ           0.21591        -6.04663       -0.926793
LJ           3.35562        -6.32726       -0.586556
LJ           2.20906         5.65881        -3.17048
LJ          -4.31313        -6.30813         5.47059
LJ           1.42418          4.4234         5.95515
LJ           3.15852         2.52683       -0.740635
LJ         -0.883427         2.24866         1.33033
LJ          -5.84969         3.53415         1.72161
LJ            4.2468         3.04981        -1.85643
LJ          -2.96051       -0.306908         6.38613
LJ           2.59216         4.45326         5.63695
LJ           6.21612        -1.96717         3.51828
LJ          -4.92039       0.0114406         3.66225
LJ           5.95563        -4.49149         6.42965
