108
#Comment!
LJ           5.00452        -4.08926         5.57302
LJ          -5.07641        -2.00457        -1.42049
LJ          -1.84046       -0.185693        -4.98145
LJ         0.0392614        -5.52863        -0.36864
LJ         -0.252317        -1.71046          1.6611
LJ           2.00606        -4.56341         1.77753
LJ          -1.57133        -5.74937         2.91645
LJ          -4.80331        -5.31134        -1.10241
LJ           2.32762        -3.38643         4.88539
LJ          -3.67752         4.90773       -0.326913
LJ          -2.88373         5.98889        -4.35452
LJ          -4.27162        -3.41277         4.87097
LJ          -4.50766         -6.1894         3.97475
LJ          -2.67208         3.15706         2.35994
LJ          0.601645         6.11793        -2.79891
LJ          -1.49776      0.00425333         5.88189
LJ          -2.47026        -2.39348        -5.47599
LJ           5.19394         5.19657        -3.90981
LJ           6.37383        -5.79387         5.74053
LJ          -3.80639         6.08581         1.33247
LJ          -3.11899        -1.54163          -2.933
LJ          -3.17353         1.63259        -2.85022
LJ          -3.08201          2.5299        0.195694
LJ           1.73259        -2.86839        -4.17121
LJ           -5.4524        0.749214         4.69771
LJ            -3.654        -5.63575         1.06834
LJ           2.27569        -1.26637        -4.98686
LJ          -4.04313         2.28994        -1.68494
LJ          -2.64846           0.595           1.069
LJ           1.33953        -3.43905         4.08598
LJ           3.48215        -2.82685          5.5504
LJ          -2.15402         2.04331          2.8416
LJ           1.84521        -3.79273        -3.74707
LJ           5.24454         4.46075          2.1749
LJ           4.79958        -3.67502        -3.19531
LJ          0.944328         1.49285        -3.27746
LJ           -2.4945         2.81924         4.46021
LJ          -5.90279         4.47067        -5.01453
LJ           5.43796         4.51016        0.811698
LJ         0.0734638         1.81442        -1.05078
LJ           4.86112        -3.37551        -1.76428
LJ          -0.78863         5.12594        -1.37368
LJ           -5.2935           4.863         4.60615
LJ           6.15688        -5.42981         2.35114
LJ           1.49572        0.728847         3.82251
LJ          -3.11226         4.14247         3.38944
LJ          -4.30962         -4.3496       -0.797192
LJ           3.43912       -0.333985         2.08783
LJ         -0.751127        0.331238        -3.03238
LJ          -5.26022         1.98476          1.6803
LJ          -3.58656        -2.44925         4.65554
LJ          -4.94074        0.578973       -0.976274
LJ           4.11602        -1.72254        -1.01454
LJ          -1.83118        -3.74752        -2.45716
LJ          -1.42887         4.77869          3.5716
LJ           6.00438        -1.69637         6.06052
LJ          -2.79789        -3.27666      -0.0123156
LJ           3.98882         5.11567         -2.8032
LJ           1.76498        -1.17945         5.01529
LJ          -0.15752       -0.733401        -5.75851
LJ          -4.89618         -4.8087        0.718546
LJ          -3.46713        -3.24749        -2.38334
LJ        0.00331878        -2.31701       -0.696122
LJ          -5.48363        -1.06769        -6.15613
LJ           1.71922        -1.84057         6.42752
LJ         -0.170809         4.39682        -4.34247
LJ          -0.10282        -4.67743        -1.74466
LJ           3.64822         4.14558         6.00602
LJ          -6.01223         6.32551        -2.65369
LJ           2.69946         4.19667        -1.85283
LJ          -4.04215          0.9865        -2.27522
LJ           6.21069        -3.17599        -4.32074
LJ           1.32531         4.14025         -2.4851
LJ          -1.12875         5.34814         4.41356
LJ          -4.52695         5.67332        0.624963
LJ          -1.06394        -2.89926         4.50709
LJ           2.42962       -0.364942         4.49903
LJ           2.14856        0.346971       -0.798429
LJ          -4.30642       -0.390893        -6.40612
LJ          -2.15863        -4.82876        -5.42525
LJ           4.83583        -5.77299        -3.74113
LJ          -2.94955       -0.761103         1.92772
LJ          -6.11626        -3.50632        -2.19098
LJ           5.11503        0.944204         6.24402
LJ          -6.33239        -4.19352          2.5743
LJ          -3.31542          4.6388        -3.13205
LJ           5.96173         5.55584        0.356821
LJ          -4.21515         0.68515        -3.97378
LJ          -5.32307       -0.198203         1.76589
LJ           2.42258         4.59235         5.07233
LJ          0.791119         2.22992        -3.95561
LJ          -4.44744       0.0702514         4.37041
LJ           5.55365        -4.79567        -5.39996
LJ          -4.03477        -1.92759        -3.86054
LJ         -0.823899         5.07791         1.86296
LJ           1.30493       -0.906387        -2.96002
LJ          0.899307      -0.0925811        -1.35921
LJ          -1.36368         4.27468          4.7489
LJ            2.7605         5.71524        -4.24591
LJ          -5.47558          5.1652        -1.98584
LJ          -1.26867         1.18156         3.56353
LJ           2.78989        -2.46455        -4.21647
LJ           5.73983        -4.65225        -4.28057
LJ          -1.68075       -0.800807        -2.35707
LJ          -4.96962        -6.00064        -6.31729
LJ          -5.02436         -3.6819         6.12958
LJ           4.77436         4.52365        -2.23745
LJ          -4.30211         4.30143         4.41099
