108
#Comment!
LJ           2.20754         5.78868         2.43175
LJ          0.637423         1.58691         4.42481
LJ           4.83739         1.29761        -2.28234
LJ           1.99238        -2.63356         6.12076
LJ          -3.46689         4.33637        0.390955
LJ           5.76803        -3.74659         2.14024
LJ          -5.18021         2.50885        -3.89532
LJ           3.63317        -4.28645         5.49935
LJ           3.76703         -4.3788        -3.67202
LJ           2.48633         3.60271         6.16357
LJ          -4.92896         3.40874        -2.46889
LJ          0.399226       -0.607863         1.67426
LJ          0.724337        -5.93648        -1.74698
LJ         -0.947231        -1.82174         -4.2716
LJ           2.36227        -4.15877         3.10044
LJ          -3.85343        -3.72768        -3.56381
LJ         -0.613166        -5.61826        -5.51806
LJ           4.14447         2.31124        0.574769
LJ           2.72099         4.89567         5.00353
LJ          0.319974         1.01865         1.77041
LJ         -0.398638        -4.43294        -3.35075
LJ          -1.26683       -0.913576        -1.62804
LJ          -5.45034        -3.37879         3.42571
LJ           4.56627         3.11716         -1.9646
LJ           4.42075        -1.08069           1.495
LJ          -0.80195         1.94227        -4.79141
LJ          -5.27733        0.885096       -0.853633
LJ          -4.98413         4.11921         6.14114
LJ          -2.85116        -2.08397        -5.95562
LJ          -3.21376         1.60246        -1.94201
LJ         -0.312438        0.202004         5.92403
LJ           -2.8916        -3.07987        -2.95135
LJ           4.65551         2.28009        -3.48069
LJ           -6.2381         -1.2516        -3.15577
LJ           3.36359         2.06243          5.2014
LJ           4.96326       -0.674503        -3.21103
LJ           -5.3066         -4.4729        -6.29315
LJ           3.91318        -3.48864        -4.44387
LJ          -1.55021        -2.69486         -1.1806
LJ        -0.0087748        -4.60746          -4.269
LJ           2.94386         5.59025        -3.53529
LJ          -1.53924        0.509187         3.58701
LJ          -1.86294       -0.838436         0.49424
LJ          -5.91709        -4.22168        0.393264
LJ          -1.52398        -3.09214        -3.18537
LJ           5.20245        -1.04628        -5.61497
LJ           1.67333         1.68296         4.31642
LJ            5.9564         2.87809        -4.00792
LJ         0.0363426         5.70845        -4.82058
LJ          -5.71958        -4.81769        -4.66217
LJ           5.17568        -3.38519         6.03077
LJ          -4.14368       -0.667992         2.10815
LJ          0.698317        -5.35583        -3.34828
LJ            6.2061         6.24779        -3.95022
LJ          -6.22044          4.1997         6.01405
LJ          -4.53535        -3.30479        -1.38652
LJ          -4.39381         4.99088        0.795491
LJ           3.64079         2.61874        -4.80984
LJ          -6.29421         5.91449         -5.5295
LJ          0.585064         6.16814         2.94422
LJ        -0.0425711        0.525591        -1.82478
LJ           -4.0018        0.218487        -5.11698
LJ          -6.06365        -4.83816          1.6779
LJ           3.21975        -2.66567         3.39736
LJ          -4.26423        -1.58163       -0.208922
LJ           4.00981          4.6953        0.418336
LJ          -5.78252        -5.81032        -3.17249
LJ           6.38854        -3.07212         1.51506
LJ           2.71399         3.44202        -5.23404
LJ          -1.43573          2.6726        -2.30317
LJ            4.3652         3.07709        -2.99753
LJ           3.34024          -2.667      -0.0824772
LJ           3.78298        -5.67334         6.44368
LJ           -3.4774        -4.74572        -4.42099
LJ          -1.52768         6.32825         2.33307
LJ           3.24843        0.218404         1.70946
LJ          -1.92641         4.92462        -2.57525
LJ          -5.71065         5.68616        0.963312
LJ          -4.85839         -2.3418         -4.4808
LJ          -6.24316         4.26926        -4.65607
LJ          -3.27193        -4.22169        -2.18727
LJ          -6.35093        -2.34655        -2.89329
LJ         -0.420035         3.13997        -4.34224
LJ          -0.84715         1.60539      -0.0696373
LJ          -4.98872         5.29931         2.57388
LJ          -4.47673         1.36962        -3.98335
LJ           5.20162        -1.73094         2.88564
LJ           3.36813         2.51711      -0.0359955
LJ           3.39295         2.59315        -2.44178
LJ          -4.49502         -3.9354         1.00963
LJ          -4.70707         1.88786         -5.9549
LJ          -1.84063      -0.0593237        -1.34104
LJ          -5.68184         4.24198         -5.5682
LJ           5.54465        -1.75538        -6.46112
LJ          -4.62689        -6.41846        -2.09271
LJ           4.21471        -6.34988         4.07386
LJ          0.618916         5.78991         4.46394
LJ          -5.06041          3.2723        -5.16511
LJ          -3.75004         3.13063        0.628661
LJ         -0.253242        -5.40554         2.50074
LJ          -1.55639         5.00504       -0.949239
LJ           2.95797        -5.09196         3.42102
LJ           3.93756         6.38637         2.00129
LJ         -0.473375         1.18221         5.47939
LJ          -4.11055       -0.301278        0.433625
LJ           4.11586        0.704128         5.16427
LJ            4.4077        -2.78516         2.92249
LJ           2.32688         4.87241         6.41184
