108
#Comment!
LJ          -4.44281         3.60618         5.00982
LJ           1.58467        -2.55414         5.03029
LJ          -4.39695         2.05223       -0.457695
LJ           4.88121       0.0193277        0.652601
LJ         -0.643801        -5.50222         4.94463
LJ           5.90639         -3.4525         -5.0637
LJ          -1.66978        -5.51725         5.09655
LJ          0.358059         4.29692         6.20295
LJ           -4.7929         1.00554         5.11622
LJ           4.23892        -2.00218         0.54584
LJ          -5.80448         1.06587      -0.0892895
LJ          -2.21401         3.74098        -1.38638
LJ          -2.96147        -3.89067         6.39566
LJ          -5.23674        -5.93078         3.95952
LJ          -2.86745         4.77494         4.36392
LJ           1.78183         4.54368       -0.919847
LJ          -6.38666        -3.81552         1.99874
LJ           1.98062         2.25177         1.29946
LJ           2.54757        -1.40214          3.2937
LJ          -2.66279        -2.91485         6.29237
LJ           2.37576         -2.1573       -0.837341
LJ          -4.32625         3.46311         6.21673
LJ          0.583083        -3.57504         5.86938
LJ           -2.5264         2.56893         5.42854
LJ          -4.66613        -3.62682         3.65427
LJ           2.14859       -0.437518         2.80665
LJ          -4.39502         -5.8145         2.04588
LJ          -2.68339        -4.72879        -5.52104
LJ          -6.41358        0.810782          -2.446
LJ          -2.05444        -3.19296         -1.1176
LJ           1.39755         4.90749        0.972378
LJ            -4.479         3.25371        -1.31393
LJ           2.37225        -2.80543        -4.70786
LJ           3.13627        -1.73418        -3.15536
LJ           4.61732        -4.60435         2.02619
LJ          -3.09769         2.79337        -1.27824
LJ          -4.37628          -3.114       0.0808819
LJ          -4.82938        -4.50619        0.264578
LJ           -4.9708         5.95887         4.81001
LJ          0.716753        -3.46886        -2.11778
LJ           1.17041         -6.2162         3.05234
LJ         -0.103752         3.08476         2.34239
LJ           6.20434        -4.62864         3.43571
LJ           3.74869         2.56376          2.0441
LJ           5.20702         3.49077        -3.46147
LJ          -1.00474        -1.61472        -1.39302
LJ            5.1996        -3.71238       -0.858496
LJ          -2.83768        -2.10141         1.92442
LJ          -1.07481        -0.34257        -2.92981
LJ          -4.50247        -5.79883          3.3078
LJ           2.55641         3.04727        -1.48963
LJ           1.70822        -5.25145        0.742087
LJ         -0.530508        0.913522         -5.9182
LJ           -1.2232         6.41786         2.27175
LJ          -6.33759        -2.25744        0.120511
LJ           0.81756         2.21798        0.522213
LJ          -1.66444         3.67578        -5.66319
LJ          -2.46891       -0.630702        -4.17333
LJ           5.51317        -1.73626        -4.63429
LJ           3.61253         6.42001        -3.80478
LJ           1.52216        0.518167         1.93035
LJ         -0.841517         5.69244        -2.51736
LJ           3.38632         6.44704        -6.31846
LJ           3.91403         5.27745         5.04545
LJ            4.9594        -4.45004        -1.87223
LJ          -2.60878         3.11108         1.99141
LJ          -2.64805         2.45496        -3.90524
LJ         -0.599743         2.72481        -1.10035
LJ           4.44368        0.778809         1.10183
LJ           5.23029         3.66607        -2.41707
LJ           4.14371         3.04626        -2.09096
LJ           6.38716        -4.02346        -5.78961
LJ          -1.56446         2.35468       -0.425407
LJ           6.04148         5.21877         5.56765
LJ           4.57156         5.77118        0.189339
LJ          -1.60624        -3.44156        -6.02073
LJ          -4.43974        -5.97343        0.935606
LJ           1.32977        -5.10787        -0.68385
LJ         -0.524061        -4.56501        -4.84033
LJ           2.63937         1.49638        0.945564
LJ           -1.0298        -1.55937        0.451811
LJ           5.12786        -5.25551         6.43575
LJ          -6.25054       -0.445403        -3.56887
LJ          -3.69072         1.18951         -5.9298
LJ           -4.3542        -0.77008        -4.46313
LJ          -5.53488        -3.59467        -2.96996
LJ           4.11624        -2.60993        -2.30382
LJ           2.80368         5.46289        -1.46369
LJ          0.355637         5.42191        -3.18742
LJ         -0.781896          4.0689         5.35591
LJ           4.07181         5.42266        -3.88564
LJ          0.563473        -1.19816          3.7999
LJ           2.58746        -5.91099       -0.810867
LJ           6.03884         1.64353         1.83387
LJ          -5.19671       0.0549773         3.04861
LJ        -0.0240449         1.15613        -2.46674
LJ           4.37824         1.10299         5.77872
LJ         -0.159442         2.28516        -2.52456
LJ          -1.69494        -2.47244          1.5776
LJ          -3.17667         4.76928        -2.99577
LJ           -1.6104         1.07349        -5.31664
LJ          0.751828        -1.44091         5.49546
LJ          -5.79235        -5.08707        -2.78768
LJ           4.02075         5.66499        -2.06963
LJ         -0.962791        0.563999        -4.17261
LJ          0.443101         5.00119        -4.61888
LJ          -2.06897        -6.34861        -1.18866
LJ          -1.31199         2.90813        -6.18172
