108
#Comment!
LJ          -6.19429         5.70434         6.17168
LJ          -4.06308        -3.58387         6.05418
LJ          -6.13086        -4.42599        -5.33687
LJ           -3.9966         -6.1818         -5.1182
LJ          -1.79612        -5.07962        -6.37547
LJ           0.63305        -3.65001        -6.35958
LJ          -2.60248        -4.79076        -3.64239
LJ        -0.0839275        -6.18282        -4.75265
LJ           1.84222        -6.25448         6.28935
LJ           4.18699        -4.83878        -5.56132
LJ           2.25352         -5.2702        -4.28609
LJ           4.63437         6.10379        -3.78299
LJ           5.82869        -1.81406        -5.60927
LJ          -4.34486        0.332889         6.41067
LJ           6.28327        0.883678        -3.69831
LJ          -4.49934        -1.66902        -4.25495
LJ           -2.5234         -1.3993         6.02457
LJ           0.47677        -1.11552        -5.85322
LJ          -1.99121         0.53487        -4.40366
LJ          0.897806        -2.32621        -3.57189
LJ           3.35704        -2.36265         6.32117
LJ           5.22974        0.787755        -6.23269
LJ            3.2459       0.0269901        -4.83232
LJ           3.68738        -2.65908        -3.85078
LJ          -5.76317         3.04527        -6.34339
LJ          -3.72135         4.31976          6.2999
LJ          -5.52169         4.58175        -4.01648
LJ          -3.83922         2.74262        -4.16038
LJ          -1.94774         1.55354         6.25484
LJ          -1.17222         4.64184        -6.10016
LJ          -2.68382         4.92222        -3.84549
LJ         -0.214862           3.281        -4.05928
LJ             2.099          2.2658        -5.79398
LJ           4.36715         3.72802         6.07982
LJ           2.18661         4.68695        -4.85137
LJ           4.31229         3.21085        -3.97923
LJ          -5.70575          6.1554        -1.88122
LJ          -5.32422        -3.95038        -2.88617
LJ          -5.57382        -4.60333       -0.484597
LJ          -4.43111         6.12271        0.538502
LJ          -2.64843        -6.32327         -1.4283
LJ          -0.13695        -4.85792        -2.43348
LJ          -2.73099        -3.70746      -0.0647136
LJ         -0.289206         6.41931         0.26569
LJ           1.89359         5.90707        -2.22083
LJ           5.43419        -4.13165        -2.17444
LJ           2.42687        -5.46139        0.438154
LJ           4.80422        -6.33496       -0.405557
LJ           5.99992        -1.33803        -2.52839
LJ           -4.1988         1.03012         -1.8877
LJ           5.94953       0.0532541       -0.410095
LJ          -4.68143         -1.8213       -0.716596
LJ          -1.93113        -2.29241        -3.41013
LJ          0.648791        0.772583         -3.4473
LJ          -2.08388       -0.365079       -0.978283
LJ           0.20867        -3.49024       0.0406269
LJ           2.35573        -4.16471        -1.70765
LJ           4.00091        0.454647        -2.56172
LJ           1.46619        -0.74422       -0.495693
LJ           4.12921        -1.56099       -0.254726
LJ           6.02988          2.7814        -1.85128
LJ          -4.22283         3.68836        -1.50664
LJ           6.16616         4.03605         0.54996
LJ          -4.50328          1.8464        0.827061
LJ          -1.89841         2.45033        -1.59968
LJ         -0.570894         4.73906        -1.82864
LJ          -2.05116         4.01676         0.52957
LJ          0.440455          2.1641       -0.214696
LJ           1.71029         2.98122        -2.36353
LJ           3.85581          4.0727        -1.34929
LJ           1.83664         4.22718        0.303161
LJ           3.80084         1.89777        0.184139
LJ           6.27665        -6.25961         1.93597
LJ          -4.48772        -4.47404         2.03561
LJ           6.31764        -4.75648         4.29018
LJ           -4.0467         6.35728         3.98759
LJ          -1.97601        -5.87433         2.57126
LJ          0.314654        -4.73991         2.48196
LJ          -1.83166        -2.97316         3.87426
LJ         -0.420028        -6.14433         4.70806
LJ           2.01693         5.93068         2.61141
LJ           4.14151        -4.40586         2.14348
LJ           2.59393        -4.29909          4.4145
LJ           4.08964         6.41314         5.02379
LJ           6.15745        -2.54676         1.09868
LJ          -5.45097       -0.433284         2.03572
LJ            6.4447        0.640911         4.10727
LJ          -4.75145        -2.34267         3.68651
LJ          -3.06696         -1.5728          1.7145
LJ         -0.236484        -1.72437         1.89221
LJ          -1.35921        0.468029         3.52789
LJ           1.18215        -1.96319         4.37682
LJ            2.4011        -2.44578         1.62263
LJ           3.89763      0.00723395         2.05213
LJ            2.4859        0.123378         5.16033
LJ           4.98446         -2.2247         4.18847
LJ           5.92388         1.75114         1.70774
LJ          -4.77186         4.44957         2.42596
LJ           5.91409         4.02292          3.9629
LJ          -3.72478         1.89708         4.02008
LJ          -1.80085         1.21529         1.12182
LJ         0.0229096         4.36116         2.43886
LJ          -1.92803          4.0234         4.17774
LJ         0.0472985         2.18249         4.93619
LJ           1.54711         0.93277         2.87969
LJ           4.05874         3.73406         2.04064
LJ           1.25978         4.41797         4.69115
LJ           3.94721           1.833         4.23672
