108
#Comment!
LJ           1.50966         6.32716         2.19783
LJ          0.907897         1.43348         3.64679
LJ           5.90652         1.34236        -2.83002
LJ           2.80126        -2.21719         4.62184
LJ          -2.89002         5.14872        0.419745
LJ           5.98216        -3.42827          3.4251
LJ          -5.11386         1.16114        -3.85036
LJ           4.00188        -4.18438         -6.1713
LJ           4.27043        -5.47829        -1.08722
LJ           2.86619         1.39867         5.70003
LJ          -3.81413         3.09633        -1.29046
LJ         -0.507832        -1.39356         2.93478
LJ          0.875877        -4.18933        -1.40735
LJ          -1.83098        -2.14566        -3.30255
LJ           1.01759        -3.01302         3.88966
LJ          -4.30358        -3.21909        -5.09613
LJ          -1.11163        -5.65998         5.78588
LJ           4.91837         2.25534         1.12417
LJ           2.94184         6.28185         6.10738
LJ          -0.07098         1.25203        0.432641
LJ          -1.10001        -4.24297        -3.77328
LJ           0.40401       0.0599288        -1.88057
LJ           -5.8724        -3.78215         3.70896
LJ           5.50661         2.33624        -2.48392
LJ            4.6509        0.335545         1.74378
LJ         -0.437825         2.27929        -3.23651
LJ          -4.87235       0.0776531         -2.9293
LJ          -5.13413         3.97134        -5.89398
LJ          -4.15446        -3.04989         6.18494
LJ          -2.79828         2.04865        -2.01385
LJ         -0.959049        0.566666        -5.37514
LJ          -1.63849        -5.47029        -4.60983
LJ           3.41084        0.189325        -1.68869
LJ           5.80639       -0.621183        -2.72223
LJ           3.84188         2.56506         5.74078
LJ            5.1839        0.126191        -1.26991
LJ          -5.04984        -2.92995         5.58558
LJ            3.6913        -2.44165        -3.80626
LJ          -1.85888        -2.07591        -2.08337
LJ           2.17336        -5.73338        -3.75271
LJ           3.60109        -6.40222        -4.55855
LJ          -2.80703        0.996076         2.58112
LJ          -1.78862       -0.581816        -0.57197
LJ          -4.30253        -1.83145        0.758074
LJ         -0.682403        -2.73712        -1.96223
LJ           5.68098       -0.471839        -5.51156
LJ           2.93558         3.42553          4.2759
LJ           6.41181         2.35539        -3.11837
LJ         -0.714298        -6.26711        -4.97771
LJ            5.0792          6.0855        -5.86498
LJ           4.59861        -2.75934        -6.45861
LJ          -5.80346        -1.89381         2.15591
LJ           1.11588          6.3681        -3.38309
LJ           6.26171         5.69664        -5.12404
LJ          -6.44902         4.47466        -6.20213
LJ          -5.64677        -2.72821        -2.36089
LJ          -5.46656         6.04449         1.07956
LJ           3.54973         1.58029        -6.22748
LJ          -4.78284          4.9402        -5.37262
LJ           1.96953         5.04753         3.14186
LJ          -1.02872         1.27994        -2.54123
LJ          -3.06949         1.29109        -3.67933
LJ          -5.76557        -5.15116        0.495809
LJ           2.88012         -3.2975         3.95785
LJ          -3.24964       -0.222421       -0.259538
LJ           3.28872         3.06912         1.29584
LJ          -6.29811        -5.06848        -4.06605
LJ           6.03631        -3.85673        0.173447
LJ           1.71593         1.58215        -6.20868
LJ          -1.47279         2.23039        -2.79939
LJ            3.7238         3.32451        -3.60041
LJ           2.66487        -3.78693       -0.159678
LJ           4.38216        -5.06416        -4.88737
LJ          -3.68267        -4.38852         -3.7733
LJ          -1.98242        -4.99146         2.09196
LJ           1.35584        0.250601         1.17778
LJ          -1.57643         5.61205        -1.71796
LJ           6.34523         5.89489        0.241953
LJ          -3.40427        -2.41257        -3.52597
LJ          -5.56153           3.949        -3.85675
LJ          -3.38354        -4.21529        -1.35528
LJ          -6.18673        -3.84235        -3.91363
LJ        -0.0103768         2.55768        -5.34117
LJ         -0.552971         1.04094        -1.58437
LJ          -6.30026         4.97475         3.44646
LJ          -2.90249         2.83429        -3.86761
LJ           5.27589        -3.02346         2.06148
LJ            2.4739         1.89668        -1.49283
LJ           3.56337         1.48669        -1.93102
LJ          -4.87972        -3.69414         2.16575
LJ          -4.39582         1.10291        -5.22942
LJ          -3.54495       -0.363494        -2.66975
LJ          -6.38784         3.96292        -4.76879
LJ           -6.3188        -1.81463         6.25004
LJ          -3.63452        -5.48286        -1.93037
LJ           4.35879        -4.83892         4.61262
LJ           1.26481         5.76997         3.89498
LJ          -3.63972         3.14954        -6.26335
LJ          -4.03949         2.65782        0.573343
LJ           1.05256        -5.36325         1.95051
LJ          -2.74187        -6.44281        -1.60566
LJ           1.06989         6.07255         6.01727
LJ           3.82005        -5.93372         1.73598
LJ          -0.59729        0.291204          5.0749
LJ          -4.65299        0.238742       -0.345457
LJ           2.59559         2.10486         4.67696
LJ           4.84567        -2.61803         3.91909
LJ           3.71019         4.00272         -5.9191
