108
#Comment!
LJ          -4.50197         5.04966         3.61557
LJ          -1.16001         3.49811        -4.45543
LJ          -3.13789         4.85318         4.02057
LJ           5.19568        -4.33645       -0.407283
LJ           3.22782       -0.881288         1.31419
LJ           1.01488        -4.23551        0.824767
LJ           3.36682        -0.48812        0.363965
LJ           5.01263         3.53476        -4.81662
LJ          -1.78648         2.94282         3.76593
LJ           6.16231       -0.614786         1.56065
LJ          0.140812        -2.52591        0.619632
LJ          -2.12332         4.61493         4.40496
LJ          -1.28201         5.42512         5.01443
LJ           2.37902         4.09451        -5.59157
LJ          -1.55699        -5.45062         2.63675
LJ          -1.94105          5.4519        -5.77163
LJ          -2.58837       -0.179512       -0.659554
LJ          -6.08272         3.94241         1.76085
LJ          0.725356          2.4916        -5.37885
LJ             5.261        -1.08022        -1.98243
LJ           4.52405        -3.45757         -1.0093
LJ          -3.75883        -5.15314        -3.54053
LJ          -5.14474         3.16457         1.09776
LJ          -4.12895        -3.29974          2.0214
LJ           5.53865         5.66528         5.53579
LJ            2.9168         3.06463         1.52114
LJ             1.413         6.15119         5.33918
LJ           5.46105         3.96222         3.09016
LJ          -2.16346        0.751074       -0.140639
LJ           0.22403         4.72052       -0.502586
LJ          -4.21281         1.49385         5.66707
LJ          -6.02248         1.58537        -5.90162
LJ         -0.410303         6.03513         3.18199
LJ          -4.49167       -0.703115        -1.39782
LJ           0.75151         3.44326         3.13443
LJ           4.29827        -4.53847       -0.974625
LJ          -4.85319        -1.96247         0.41658
LJ           -2.8928         3.93776        0.604696
LJ          -2.51634        -4.61448      -0.0013963
LJ          -6.00007         1.75723        0.533492
LJ           3.61709        -3.67879        -5.60656
LJ           1.91883        0.999509         4.00753
LJ           5.72345        -6.28419        -4.16403
LJ          -3.27397         3.89851         6.21482
LJ           3.25035         0.53376         -2.2379
LJ           2.88772        0.596845         2.73396
LJ           2.57538        -2.06035         3.47236
LJ             1.505        -4.70099        -1.73175
LJ          0.934178         1.70834        -1.85743
LJ          -5.57509         3.15236         3.18539
LJ          -5.95457         5.93186         -6.1305
LJ           3.62625        -1.98526        -5.62015
LJ           -5.7922       -0.576079        -2.07319
LJ          0.864444        0.654274         2.48541
LJ           2.48046         -4.3729        -1.33323
LJ          -3.12533        -2.32786         2.94778
LJ           2.89711        -2.12056          4.5254
LJ           5.32232       -0.927466         2.10596
LJ           2.87081         5.18985         5.96091
LJ          0.492051         -1.5906       -0.769475
LJ          -1.60892        -2.67855          -4.323
LJ           1.02592         4.30329        -1.47153
LJ          -6.24118         5.85088       -0.601574
LJ          -6.31187        -5.80962         1.81126
LJ          -4.27123        -4.57758        -4.07247
LJ           2.63372         1.06006         1.81796
LJ           1.76685          2.4632        -3.74986
LJ           2.38702         1.74214        -1.57865
LJ          -4.94977         5.55999         -3.0878
LJ           -3.7393        -5.88812        -2.38527
LJ         -0.699491          2.3546       -0.799316
LJ           5.59289         -6.4457       -0.925612
LJ          -5.24306          -4.927         2.16128
LJ          -5.37583        -2.46441        -1.91067
LJ          -4.14552         5.53078         1.94786
LJ          -4.71067         3.73312        -4.22919
LJ           4.35122        0.492695        -2.56055
LJ          -3.24981         1.91099        -5.16157
LJ           2.19084        -2.93132         5.08184
LJ           4.57315        -4.46646         1.96636
LJ          -5.17815         2.27414        0.423628
LJ           3.89363         6.40999         1.91401
LJ           6.23235         4.92456         1.60684
LJ           2.76469         3.04553        -5.75815
LJ           -6.4088        -2.84227         2.67023
LJ            5.6705        0.337236        -1.45786
LJ        -0.0249047         3.54026       -0.626336
LJ           6.40303         2.48871         1.32686
LJ           6.19545         1.33034         1.49373
LJ           4.77019         4.94512         4.98077
LJ           4.87312        -5.66709         4.16678
LJ         -0.304603        -5.59079        -5.45477
LJ           5.01023        -2.93873         5.10122
LJ           5.65163         3.75173        0.946947
LJ            2.7041        -4.65939        -2.51654
LJ           3.85106         6.43081        0.789974
LJ          0.893172        -5.88181        -4.58607
LJ          -4.57026         5.78841         6.44959
LJ          0.276543         4.78447         6.30487
LJ           3.59657         2.38464       0.0280027
LJ          0.569993         2.97637        0.583325
LJ           4.63432         2.80994         2.86282
LJ           5.24111         5.29877        -2.86154
LJ          -2.94501        -1.12738         6.25049
LJ            4.2726         3.80804        -5.78268
LJ           6.25456        -3.49235           4.581
LJ           5.93429       -0.510909         4.14607
LJ           5.36856        -4.94819         -5.2889
