108
#Comment!
LJ          -4.61995         3.26765         4.49278
LJ           1.82415        -2.45967         4.79528
LJ          -4.34632         2.02863        -0.32254
LJ           4.98671       -0.274925        0.516267
LJ         -0.606549        -5.53666         4.80595
LJ           5.77162        -3.38272        -5.21275
LJ          -1.83914        -5.44386         5.21396
LJ          0.117927         3.96368         -6.3601
LJ           -4.5047        0.889548         4.68788
LJ           3.88724        -2.30053        0.155344
LJ          -5.80138         1.00456       -0.142358
LJ          -2.27036         3.90474        -1.15562
LJ          -2.62681        -3.89012         6.39092
LJ          -5.27433        -5.85579         4.32383
LJ          -3.22996         4.82878         4.16019
LJ           1.59276         4.71726       -0.878601
LJ           -6.1573        -3.68767          2.2942
LJ           1.94449         2.37605         1.37992
LJ           2.55639        -1.34364         3.17121
LJ          -2.59533         -2.6951         6.30354
LJ           2.09153        -2.05342        -1.18121
LJ          -4.42457         3.18041         6.34623
LJ          0.734327        -3.43101         6.00083
LJ          -2.40257         2.44844         5.22937
LJ          -4.57224        -3.56107         3.76849
LJ           2.03694       -0.137192         3.11276
LJ          -4.28714        -5.66006          1.7536
LJ          -2.50768        -5.10702        -5.63125
LJ          -6.39037         1.16277        -2.44608
LJ          -1.92351        -2.96329        -1.15628
LJ           1.03984         4.60306        0.735232
LJ          -4.63491         3.17681        -1.11904
LJ           1.99329        -2.94509        -4.57086
LJ           3.18203        -1.85078         -3.1901
LJ           4.15164        -4.55105          2.2319
LJ          -3.15419         2.86442        -1.65051
LJ          -4.25732        -3.24735        0.478103
LJ          -4.74151        -4.67187        0.272244
LJ          -5.07167         6.04666         4.47385
LJ          0.393346        -3.57928        -1.98937
LJ           1.39307        -6.23717         2.97444
LJ          0.143199         3.36498         2.29463
LJ           6.27823         -4.4581         3.54845
LJ           3.83455         3.05543          1.8364
LJ             5.465         4.02072        -3.44489
LJ          -1.19923        -1.69311        -1.40563
LJ            5.2808        -3.75277        -1.01242
LJ          -2.63259        -1.91859         1.92399
LJ          -1.14086       -0.422575        -3.05912
LJ           -4.3699        -5.89651         3.48714
LJ           2.39771         2.99596        -1.62338
LJ           1.80581        -4.94037        0.548462
LJ         -0.774808        0.756761        -5.60549
LJ          -1.30879         6.33118         2.20938
LJ           6.33917        -2.57603        0.247335
LJ           0.80243         2.29641        0.645574
LJ          -1.60567         3.60831        -5.41738
LJ          -2.47869       -0.934065        -3.93141
LJ           5.41041        -1.61906        -4.46992
LJ            3.7446        -6.41552        -3.83091
LJ           1.46591        0.581262         1.90305
LJ         -0.667042         5.38942         -2.4779
LJ            3.6018         6.23717        -6.08316
LJ           4.40473         5.17874         5.28953
LJ           5.22961          -4.741        -1.97955
LJ          -2.28329         3.30478         1.73145
LJ          -2.66407         2.58755        -3.86323
LJ         -0.725253         2.69371       -0.734678
LJ           4.36644        0.797691         1.04113
LJ           5.03071         3.27431        -2.33325
LJ           3.96339         3.11645        -2.05901
LJ           6.07644        -4.22054        -6.08572
LJ          -1.55103         2.53072       -0.186021
LJ           6.24973         5.24176         5.73826
LJ           4.26329         5.70693        0.213022
LJ          -1.69276        -3.62766        -5.88301
LJ          -4.36955          -6.314        0.859495
LJ           1.41492        -4.85021       -0.600981
LJ         -0.641761        -4.39189        -4.60661
LJ           2.83724         1.39985        0.740578
LJ          -1.30386        -1.72641        0.190493
LJ           5.25033        -5.41619         6.25746
LJ          -6.39033       -0.180237        -3.31185
LJ          -3.64946        0.958778        -5.92622
LJ           -4.1281        -1.00975         -4.4503
LJ          -5.17629        -3.54249        -3.00725
LJ           4.20878        -2.58368        -2.61202
LJ           2.70329         5.71113        -1.78482
LJ          0.414552          5.3643          -3.164
LJ         -0.799672         4.22528         5.52628
LJ            4.3719         5.33834        -3.90766
LJ          0.502015        -1.19943         3.93277
LJ           2.58985        -5.15158       -0.905095
LJ           6.12562         1.80562          1.8251
LJ          -5.13474       0.0372738         3.19335
LJ        -0.0766603         1.46199        -2.52443
LJ           4.41586         1.19926         6.03018
LJ       -0.00579035         2.50653        -2.57777
LJ           -1.7314        -2.76725         1.54029
LJ          -3.68196         5.01178        -3.03013
LJ          -1.78472        0.966766        -5.31795
LJ           0.71446        -1.26021         5.25109
LJ          -5.46621        -5.35445        -2.79077
LJ           4.26792         5.43805        -1.94108
LJ         -0.977564        0.672583        -4.11397
LJ          0.731075         4.82973        -4.43473
LJ          -2.40887        -6.21353        -1.34626
LJ          -1.33834         2.65595        -6.15311
