108
#Comment!
LJ          -2.31049          1.7416         3.12227
LJ          -5.27524         2.72447        -5.96142
LJ          -5.13741         6.46307        -5.91211
LJ           5.36221         1.11535        0.858653
LJ          -1.59136         -3.0608         4.66708
LJ          -3.40512         1.80912        -4.43197
LJ           6.29838         2.61944          1.3519
LJ          -3.06146        -4.68181        -3.62657
LJ         0.0817169         4.52455         1.15084
LJ           -1.6466         3.18769         3.58346
LJ          -1.14731         1.93913        -1.91629
LJ          -1.89196         2.86485         2.02381
LJ         -0.761702         6.43159        -2.51897
LJ          -2.22094         1.41987        -3.03178
LJ          -5.86071        -2.59358        -1.68607
LJ           1.11967         3.04204        -2.97586
LJ          -1.06514         1.47251         4.98085
LJ          -5.51017         4.27626         -2.7805
LJ           6.42045      -0.0344756         4.30791
LJ          -1.33848         2.99479        -3.82055
LJ           1.42065        0.584307         2.29479
LJ          -3.59795        -2.73079        -4.30155
LJ          -2.43006        -6.35213        -4.34723
LJ           5.51921        -1.84325       0.0699455
LJ           6.25866         4.15742        0.085951
LJ           1.71868        -5.30934         3.56618
LJ           1.43541        -6.04147        0.565565
LJ          0.821913          5.7972         4.52354
LJ          0.852778        -2.79545         5.22999
LJ           5.93433         1.06872         3.37263
LJ          0.122967         1.29449         1.38548
LJ           4.02094        0.804189         2.05702
LJ           4.87758         2.56891         1.16521
LJ            1.4543         5.29329        -5.86572
LJ           5.69927         5.02048        -1.58393
LJ          -1.99047        -1.43136        -4.45294
LJ          -4.37949         3.90543       -0.846094
LJ           3.78064         5.44014       -0.510108
LJ          -3.95711         -5.6004         -5.1598
LJ           3.63635         3.42292        -1.59634
LJ           6.36226        -5.93558          2.4632
LJ           3.44135         5.15841         4.97741
LJ          -5.57322         3.63227        -5.14443
LJ           4.49607         3.70006        -5.38917
LJ         -0.449116        -2.85734         4.73679
LJ           3.81664       -0.261138         3.91881
LJ           6.01317         4.63267         5.89063
LJ            1.2062         3.55023         1.59572
LJ          -2.74088         5.81013         6.11455
LJ            5.0914         4.11682        -1.59442
LJ           4.66456        -6.46076         3.16976
LJ          -0.24267         3.91333         2.47143
LJ          0.918386         1.06905        0.602151
LJ          -2.09664        -1.74261        -2.01878
LJ          -5.25643           3.845        -3.91952
LJ           5.08654         5.74026        -5.73078
LJ          -5.82786         5.30373         2.29271
LJ          0.631073        -6.17169         4.79712
LJ         -0.469028         1.43152         2.78619
LJ          -2.93037         6.08043        -5.60715
LJ            5.9558        -1.00462         6.13393
LJ          -0.57732         5.58579         2.19711
LJ          -3.41429       -0.801841        -2.20163
LJ           3.22974         2.98606         3.92277
LJ           2.71426         4.81802         3.23851
LJ           2.43338         3.84285          4.2756
LJ           1.14121        0.299924         5.34502
LJ          -1.79237         4.39381        -2.54594
LJ         -0.552627         2.05954        -4.04377
LJ            5.8325        0.350152        -4.34047
LJ         -0.289423         1.74609        -5.81716
LJ           2.03677         2.21925       -0.504994
LJ          -1.52366        0.709939        -2.63803
LJ           1.39588         0.29733        -1.11188
LJ           4.14889        -2.19031         1.19598
LJ          0.287769        -4.05491         1.55329
LJ           4.88735         5.23467         3.16928
LJ           2.28823        -1.43259         -6.4275
LJ           5.29993        0.275378         4.97226
LJ           3.19362         -1.6521        -2.30264
LJ          -2.41789       0.0770985         5.77894
LJ           5.58291          3.9296        -6.32825
LJ           5.54949         3.80657         3.08978
LJ          -6.27289        -5.86254        -2.63665
LJ           -1.7426        -4.05967        -2.02953
LJ           3.48851        -2.85571         -3.8639
LJ          -5.64575       -0.692421         4.70207
LJ         -0.192552         2.23168        -1.41851
LJ          -4.31319         -4.2738         4.32966
LJ            5.8124         3.04856         2.23408
LJ           2.57424         6.31321         -1.6224
LJ          -1.34186        -6.06513         1.54562
LJ          -4.02496         4.52878         -5.7385
LJ         -0.799571        0.936267          6.0623
LJ           5.94766         1.84561      -0.0392733
LJ          -4.83694        -6.40763         4.17166
LJ           5.97277       -0.671882         1.44233
LJ           1.22697        -4.00775         2.63331
LJ         -0.867695        -1.30988         5.21362
LJ          -3.11544         4.73868        -4.19377
LJ           5.14589        -0.49255        -3.46031
LJ           4.31108         -5.0875         1.68034
LJ          -4.26807        -2.07267       0.0465412
LJ          -3.91261        -2.12352        -2.30363
LJ         -0.536074         5.19004        -1.95482
LJ           5.55257       -0.355368         -0.4003
LJ          -2.21877         -1.1999         5.44253
LJ          -1.11856         -2.3681         -2.9756
