108
#Comment!
LJ         -0.121915        -2.31145         5.46364
LJ          -1.01413        -2.74597         4.62187
LJ           3.95091         -6.4338         5.52359
LJ           4.21061         3.90134         1.92358
LJ         -0.106881        -1.40092        -3.88204
LJ          -5.91871         2.77019        -3.18574
LJ          -4.02075           2.374        -3.35792
LJ          -5.40859        -6.14215        -1.06672
LJ          -1.97213        -5.05364         3.53786
LJ         -0.465911         4.36016         2.95241
LJ           2.04963         3.41048         -1.6215
LJ          -2.62051       -0.288325         5.08878
LJ          -3.89633         4.77673        -2.38141
LJ          -3.26743        0.493366         6.04204
LJ           4.59162         -2.8578        -2.06102
LJ          -1.38396        0.896823        -2.49985
LJ          -2.31789        0.792818         5.89463
LJ          -5.57009         5.61392        -6.12106
LJ           6.31368         2.79139          5.5199
LJ          -2.17771        -3.35821        -5.15678
LJ           5.13105         6.39586        -0.97176
LJ           4.78837        -1.04346        -4.36042
LJ          -4.91745         5.40656        -1.81444
LJ          -6.38492        -4.34674         3.13654
LJ           5.55109         6.27602        -2.79493
LJ        -0.0807643        -5.98874         3.45011
LJ           5.36187        -5.29907          2.0259
LJ          -5.72623         5.26633         2.61853
LJ          -2.90333         5.59308          -3.852
LJ          -4.36829       -0.708667         4.02262
LJ           4.84345         2.84773       -0.497301
LJ          -1.87762         1.79422         3.64902
LJ           4.25807        0.730744        -1.07439
LJ           1.89831         3.03393        -3.67888
LJ           2.51506         4.88296        -3.40245
LJ         -0.858174        -4.19723       -0.736702
LJ            2.2863          5.1365        -4.37496
LJ           2.03767        -4.03704        -1.89722
LJ          -4.32947         3.38281        -4.94942
LJ           2.42214        0.895341        -1.01433
LJ            6.2369        -5.24284        0.133527
LJ          0.550658          4.0949         4.82179
LJ         -0.344942         3.54867         5.78972
LJ           3.52672         2.17525          4.4993
LJ          -1.42086        -1.94655          2.6884
LJ           4.79761         1.58422         6.10955
LJ           4.44091        0.580635        -5.53981
LJ          -3.22642        0.460916         2.61901
LJ          -6.03149         4.80602        -1.19899
LJ            1.1151        -5.14167         1.65932
LJ           5.98253        -4.01533        -5.67539
LJ          -1.72022         4.85514         2.99711
LJ            1.5449        -2.16515        -4.20935
LJ           -2.1678         2.01801        -4.97172
LJ          -5.93971         6.13093        -5.16072
LJ          -4.04413         4.60061         5.53664
LJ           6.08201         4.94247        0.971701
LJ           1.60886        -2.74507        -6.33884
LJ          0.585595         3.60033        -5.03485
LJ          0.591188        -5.70015        -4.85139
LJ          -5.79441         -0.8703        -4.32032
LJ           1.11983         -3.4873        -2.72587
LJ          -3.66843       -0.608574         -2.1605
LJ           5.60618       -0.351086         2.36534
LJ           5.47984        -5.90744         2.85786
LJ            4.0718          3.7418       0.0150175
LJ           3.19563           2.032         5.53653
LJ          -1.35228         3.13022        0.202046
LJ            3.0383         1.03207        -5.25865
LJ           3.60547         2.30715         3.43776
LJ            2.5044        0.837204         5.41249
LJ           3.38081         4.22074         2.97274
LJ          0.849419         1.55319        -2.99007
LJ         -0.630135         5.97599        -3.74756
LJ          -1.77677         3.66696        0.925322
LJ           1.07042        -4.45605        -3.28834
LJ           2.55407         2.84448         3.72118
LJ           2.58407        -4.77893         3.86348
LJ           6.19538       0.0807509         -4.7058
LJ            6.0081         2.55941        -3.88163
LJ           1.68848       -0.113558        -2.83351
LJ          -5.25644         1.78757         4.94709
LJ           1.40401         4.55145         4.33052
LJ          -6.01426        -3.36513       -0.793738
LJ          -3.80662         1.62068        0.294616
LJ         -0.457473       -0.443848        -3.47945
LJ           6.39259        -4.00984         4.71459
LJ           2.71101        -2.09506        -4.15978
LJ           6.11966        -4.52925         1.06174
LJ          -1.34986         1.13867        0.122694
LJ           1.59083         6.39457       -0.798372
LJ         -0.548768         6.39345       -0.579523
LJ          -3.91583        -6.34716        -1.75369
LJ          -5.37251         2.10814         3.96059
LJ           4.65628         1.17368         2.09816
LJ           5.74239         4.39164        0.157516
LJ          -6.43837       0.0879773        -2.06983
LJ           3.76014        -5.83796        0.721303
LJ           4.08668        -1.27988         4.54414
LJ          -5.01731             3.7        0.118651
LJ           3.13802        -2.33332        -1.11484
LJ           4.97373         4.79787         3.80386
LJ          -2.28859        -3.24834         2.69238
LJ          -3.32652        -1.94058        -2.65926
LJ           1.80997         5.17937         5.76524
LJ          -6.29802         4.05413       -0.443542
LJ            1.2453       -0.484831        -6.28494
LJ          -1.15846        -4.29113        -4.15642
