108
#Comment!
LJ           1.75299        -5.40764         5.20839
LJ          -6.00394         2.58724         6.26663
LJ          -1.54462         2.57757         5.43057
LJ           4.81508        -5.45409         2.92637
LJ          0.907059         1.01233        0.645564
LJ           2.90869        -3.58392         5.39347
LJ           -1.7964        -1.91783         5.09597
LJ          -3.74746        -3.71969        0.498077
LJ           5.22615        -3.85098        -6.35167
LJ         -0.395207         6.38415         1.15782
LJ          -5.52757         5.09265        -3.13599
LJ          -1.88436       0.0565673         1.58917
LJ          -5.47436         5.99643        -5.46219
LJ          -4.91661        0.651158         4.06177
LJ           2.43681        -4.31334        -2.36018
LJ           -1.2794        -1.21448        -4.57801
LJ          -2.85986        -1.53586        -5.65675
LJ           5.98341        -5.48975         6.46011
LJ          -6.20829        -6.45889        -4.96184
LJ          -2.41109        -1.39327         4.08449
LJ          -3.48075       -0.122524        -3.18045
LJ          -2.68446        -2.88547         1.17015
LJ          -1.67932          2.3853        0.573394
LJ          -3.06078        -2.90057         5.29491
LJ          -5.97279        -2.24371        -6.20483
LJ          -2.39499        -5.30285         2.78676
LJ         -0.324657        -3.50965        -6.02737
LJ          0.132817         2.56996        -4.94584
LJ          -3.08945         1.76902         1.75336
LJ           1.00813        -1.83895          3.7434
LJ           4.69761        -4.03051         2.40579
LJ          -2.69235         2.06248          2.7056
LJ           2.61174         -2.7352        -3.01397
LJ           5.03439         3.66831        -1.01524
LJ           2.93895        -5.50593         -3.1186
LJ          0.507027         2.49645        0.856369
LJ          -1.78001         4.00721         4.79221
LJ          -2.72687        0.557448         -5.6215
LJ          -6.14974         5.23887         2.13596
LJ          0.848567           6.131         -1.2789
LJ           5.94953        -5.33019        -3.55651
LJ          -1.39321         6.35973         2.37151
LJ           1.47734         4.41894         4.75306
LJ          -4.30534        -5.84376         2.35429
LJ         -0.811207        -1.19236          2.0883
LJ          -4.96912         3.29873       -0.373467
LJ          -1.53287        -2.00575        -1.17098
LJ           4.97428       -0.565824         2.95406
LJ        -0.0300966         -3.9085        -3.07784
LJ          -4.28016       -0.764238         2.65304
LJ          -4.25573        -1.43764        0.469483
LJ          -5.74588         3.00819         2.27153
LJ           6.05128         -3.6956         3.19623
LJ          -2.30842         5.85347        0.827704
LJ          -4.11739         5.50347          4.4334
LJ            3.4847        -4.96447         5.53486
LJ            1.7623        -3.36951         1.08426
LJ           3.66042         3.24846        -3.71969
LJ          0.404617        0.780605         2.62003
LJ         -0.914514         3.45115         5.45963
LJ          -6.16203        -3.99092       -0.408202
LJ           6.04041        -3.55222         2.04362
LJ          -2.82653        -1.01765       -0.985541
LJ          -4.44299        -2.80821         4.56825
LJ          -1.10071        -3.03044          6.1532
LJ           0.18189         1.80486         3.97611
LJ          -1.30906         4.39877         3.96573
LJ           2.08343        -6.35553         3.73164
LJ          -6.26263         1.76878        -2.94903
LJ           2.48328         2.49342         5.32922
LJ          -5.85672         1.29483        -5.23369
LJ           5.25539         6.42357        -2.47974
LJ           1.71474         3.10942        -2.47997
LJ          -1.80599        -5.98288         3.17625
LJ           6.17015          3.9123         2.94303
LJ          0.265413         2.58238         5.92881
LJ           2.34346         1.09768         5.04266
LJ           2.60194          3.2498        0.829484
LJ          -5.63937       -0.435487         2.62589
LJ          -1.98971        -4.89762        -3.86089
LJ           4.79066        -4.57625      -0.0551412
LJ          -3.47717       0.0054274          2.0604
LJ          -5.46577         1.28778        -2.18593
LJ           5.74071        0.478445        -4.74714
LJ           5.82184        -5.80022           2.456
LJ          -3.22746         1.58062        -3.15759
LJ           6.14239         5.48413         3.00636
LJ           6.37379        -2.59526        -5.07254
LJ           -1.2575        -1.72119        0.551711
LJ           3.87157        -4.80409        0.421912
LJ          0.347831         4.06115         -3.0585
LJ          -3.05712        -3.20617        -5.66681
LJ           6.09586        -5.78947         4.57447
LJ          -5.92626       -0.260764        -0.43227
LJ         -0.158652         2.60864         1.93276
LJ          -2.25173        0.231169        -4.19634
LJ           3.77018        0.807964        -1.76718
LJ            2.3026          4.2647         3.91115
LJ         -0.279467        -4.56192         5.27454
LJ           5.50576         3.21351         6.28513
LJ         -0.162737        -2.35174         1.23165
LJ           3.20519       -0.746013         -0.5529
LJ            3.0172        -2.20003         4.80059
LJ          -2.19181        -1.38874        -2.39882
LJ           4.71094        -5.38653        -5.50972
LJ           4.99818        -4.04877         4.29287
LJ           4.29497          2.5139        -4.24177
LJ          -3.02959         1.38111        -6.33655
