108
#Comment!
LJ          -2.10007        -2.66906        -5.73437
LJ            -3.375         5.85853        -5.01499
LJ          -4.38922         3.96465        -4.16077
LJ           5.80722        0.748665       -0.124381
LJ          0.712916        -3.18243         4.17635
LJ          -4.39111        -1.60894        -3.13212
LJ          -4.13625         5.54227         4.02841
LJ          -1.22539        -2.51788        -5.32974
LJ          -6.02619         4.21963        -1.11785
LJ          -3.42991        0.485028         4.53609
LJ          -4.33872         1.60232       -0.907016
LJ          -1.14149         3.58333         5.58802
LJ           4.85276        -4.94495        -4.06742
LJ          -5.73065           3.821        0.149359
LJ           4.13588         -6.0171        -5.86016
LJ           2.22562         3.39926        -1.22185
LJ          -3.34415       -0.963599         -4.5833
LJ          -2.43587         3.23677         -0.2753
LJ           2.57147       -0.459179         3.66995
LJ          -2.07699        -5.67507        -5.28077
LJ          -4.86748        -3.36754         3.03513
LJ         -0.890858         6.08433         1.84724
LJ         -0.438936         6.32561         5.60112
LJ         -0.262569         2.89813        -2.35459
LJ          -5.32931        -6.14498         2.08918
LJ           3.13309        -4.11585         1.61595
LJ          -5.03816         4.32124        -1.91865
LJ           6.17819         1.84317         6.21873
LJ             4.038        -2.35965       -0.453258
LJ          -4.83888         5.59738        0.304977
LJ          -5.56461        -2.49546        -6.22694
LJ          -1.87156         1.30162        -2.77365
LJ          -2.39719       -0.129811         5.67869
LJ           2.83642        -2.95736         1.81679
LJ          -5.26011         3.92659         1.34003
LJ          -1.92167          1.5415         4.45723
LJ          -6.07335      -0.0717257          5.6181
LJ           5.63283       -0.739028        0.147865
LJ          -3.88714        -5.47765        -5.24668
LJ           3.91806       -0.787189        -3.10496
LJ          -1.36786        -5.46252          3.2732
LJ          -5.14765        -2.26063         3.25899
LJ           3.50967         4.51065        -1.66004
LJ           0.51197        -5.70476         3.12246
LJ           1.55017        -4.30551         -5.4361
LJ          0.753972        -1.54427         1.61608
LJ           4.18685        -2.97591         2.10982
LJ           5.90808         -5.6738         1.51513
LJ          -1.65679        -3.46098       -0.797038
LJ          -5.38513       -0.737015         -6.1768
LJ           4.46505         -1.6471         1.32758
LJ          0.494532         2.39696         2.70842
LJ           2.09128         3.65279         2.79767
LJ         -0.862626        -4.30296         1.07472
LJ          -1.49125          4.0066        -2.44278
LJ           3.32821        -2.01688        -1.06383
LJ          -4.75793        -6.21549         5.06962
LJ         -0.840315         4.76367         6.05923
LJ          -3.66931        -3.12953         5.81474
LJ         -0.310402        -5.55791        -5.72023
LJ           3.82118       -0.151377          3.9415
LJ            -3.142        -1.44742        -3.59667
LJ         -0.768025        -2.88723         1.79316
LJ          0.829115         6.35647        -6.23106
LJ           4.21817        -5.80853        -3.87899
LJ           4.59915         2.38127        -3.07589
LJ          -1.76646        0.244692         -5.7006
LJ           6.43205        -1.02935         -2.0012
LJ           2.22251         4.81095         5.92366
LJ          -5.75411         4.61455        -2.72553
LJ          -4.55769         1.94328        -3.96289
LJ         -0.274229         -1.2049        -2.71989
LJ          -2.80703        0.907425        -3.09493
LJ           2.35746         5.89863         2.14866
LJ          -2.91138        -5.70746        0.449235
LJ          -1.94907       -0.244535         3.40632
LJ          -5.16673        0.194222         2.55078
LJ            1.4874         2.75734        -3.09265
LJ           1.82034         3.66322         5.15432
LJ           2.74218        -1.25976       0.0409341
LJ           4.26213        0.592635         4.84717
LJ           3.72899        -4.13368        -4.59882
LJ          -4.23871        -5.43015         4.59051
LJ          -5.62651         4.44761        -5.69186
LJ           2.99184         3.64649        -4.27328
LJ           6.18599         2.82948        -3.97199
LJ         -0.447634        0.882962         4.24803
LJ          -3.78855         1.56617         1.62867
LJ          -2.18391        -6.08679        -4.08707
LJ        -0.0959205         2.44663         3.74241
LJ          -0.58231         4.74725        -2.62459
LJ           1.02218        -3.71303         1.87063
LJ          -1.93333        0.772084         3.08674
LJ           3.17107        -1.53643         3.89502
LJ           6.06754        0.906712         1.26716
LJ          0.745605          -3.426        -4.59461
LJ           5.40139        -1.38669         4.59752
LJ         -0.194487        -1.09146        -5.90501
LJ          -1.53156         4.23735         2.94182
LJ          -2.00628         2.91784        -6.44104
LJ           1.52385        0.154064        -3.83348
LJ           1.65708        -3.42105         -2.1613
LJ          -0.34987        -3.36777        -2.01493
LJ          -1.07543        -4.07905        -1.57536
LJ          -1.97889          2.5516         5.47613
LJ          -5.32964        -4.35174         5.79707
LJ           4.20047         3.50038         2.66505
LJ         -0.377952        0.914473          6.3098
