108
#Comment!
LJ          -5.95165       -0.995906         2.63151
LJ           6.15228        -2.56548         2.47936
LJ          -3.38012        -2.19428        -5.26619
LJ         -0.197577         6.13095        -4.38969
LJ          -2.14175        -5.76353         3.21711
LJ           1.06149        -5.29174        -2.58073
LJ          -5.44376         4.43763         1.98402
LJ           -6.2128         4.65021         2.88589
LJ           3.02211        -1.44161          4.3305
LJ          -1.08916          5.5416        -4.93385
LJ         -0.117361        -6.07196        -5.42616
LJ          -4.76886         -2.4119         -4.3383
LJ          -4.81992         5.85596          2.7745
LJ          0.901398         4.77826        -2.65641
LJ          0.529221         6.12852       0.0905404
LJ          -1.91659         3.09303         3.66497
LJ          0.406794        -2.66467         4.65508
LJ           2.36074         1.16328        -1.32367
LJ          -6.39153        -4.48082         4.21586
LJ          -3.81121         5.14519        0.361148
LJ         -0.218454        -3.02251        -3.81282
LJ          -6.01263        -4.92542        -5.99786
LJ           -6.0578         3.36825         1.69948
LJ           5.63967        -5.80686         1.59193
LJ          -5.77656           6.327         3.75502
LJ          -5.97801         6.43251        -3.44356
LJ           4.24832        -1.18171          -4.443
LJ           5.08626        0.381441        0.769497
LJ          -4.22007         3.19728        -1.40447
LJ         -0.735425        -5.88684         2.52876
LJ           1.39371       -0.758283        -4.18972
LJ         -0.809194        0.436898         1.97289
LJ           1.91901         5.30161       -0.219236
LJ           1.44464        -2.02357         2.99427
LJ          -5.00809        -2.45495        -3.28872
LJ           1.07173         1.10888        -4.36035
LJ          -3.94458         2.51963         3.50967
LJ           3.70145        -2.59828         -1.4994
LJ           5.07417          5.9236       -0.273734
LJ          -2.40592       -0.408458        -1.04695
LJ           4.57661        -1.83792       -0.305463
LJ           1.42175         6.14255       -0.830582
LJ           1.67725         1.99232         3.69069
LJ           6.25493        -3.39782         3.23884
LJ           2.15547         3.54417         4.39621
LJ         0.0774766         4.23395        -6.06044
LJ           -3.8861        -4.80676        -1.73393
LJ           1.55962       -0.150536         1.17711
LJ         -0.300542         4.76464        -2.41946
LJ          -2.29045          0.8806         1.66529
LJ          -0.60704        -4.51059        -5.39255
LJ          -2.89644       -0.817606        -5.16557
LJ           4.27277        0.923778        -1.52359
LJ           2.04489        -3.30476        -2.35609
LJ           2.47825         4.51861         4.62627
LJ          -4.64297         2.12717         5.43144
LJ           6.24445         5.35133        -2.68608
LJ           2.36672         1.10071        -0.14249
LJ           3.92006        -2.24707        0.589398
LJ          -1.12426        -4.81957        -4.47541
LJ         -0.735316        -2.33774         2.07159
LJ          -2.81076        -5.49155           5.786
LJ           2.91424        -2.75288       -0.448909
LJ          -5.34628         2.37372        -3.95082
LJ           3.85553        -1.22723        -5.40247
LJ          -3.61444         1.67032         6.18651
LJ          -4.66984        -1.38822         5.89334
LJ          -6.43507        -1.11103        -3.24612
LJ         -0.858814         6.39211        -6.00768
LJ           1.80396         -5.6183         3.55884
LJ          -3.98377          1.6871       -0.930059
LJ           5.99466         2.55593        -4.30063
LJ          0.972836         6.43567        -2.19455
LJ         -0.305422         1.29095        -5.74872
LJ           5.69978       -0.685287        -1.11926
LJ          -2.31947         5.72206         1.16106
LJ           4.14104        -3.46207         5.07171
LJ          0.034048        -4.10664        -3.75779
LJ         -0.486765        -1.62329        -2.81092
LJ          -3.45628         6.04046         5.26607
LJ           2.20583        -4.29415         6.36013
LJ          -5.36726       0.0813934         4.37323
LJ           3.50257        -4.84364        -4.74334
LJ           4.67901         1.17083          4.6547
LJ           5.87519          4.8006         3.77871
LJ          -3.72901        -4.42908        -4.03912
LJ           4.48259         4.53176       -0.863038
LJ         -0.869298         6.13288       -0.688025
LJ           3.38606         2.57999         3.43081
LJ           2.38333         3.39686         5.64289
LJ          -1.66639        0.323482        -3.88246
LJ          -4.60274         3.27623      -0.0826964
LJ          -4.58037        -5.79167        -2.79615
LJ          -2.01759        -1.53812        -5.26754
LJ           3.11712         5.75261          1.6627
LJ           1.50607        -4.31471         -4.2567
LJ           1.19932        -4.26712        -1.29301
LJ           -3.6227         2.77401          4.5359
LJ           3.96556         4.59913        -1.71061
LJ          -5.57497         -3.0963         3.23418
LJ          0.978481         4.76544        -5.16926
LJ           4.50948        0.277928         3.65116
LJ           6.45731         5.84263         2.95799
LJ          0.493679       -0.940794        -3.14532
LJ          -1.17821         4.08007         2.92861
LJ          -5.63476        -4.12856        -2.15426
LJ           3.47879        -5.76604        -1.38512
LJ             3.396        -5.22008        -5.60558
