108
#Comment!
LJ          -3.73847        -5.24984          2.5886
LJ          -1.91567         3.86489        -5.19341
LJ          -5.08691         -6.2553         3.59538
LJ           6.22166        -3.16413        0.183692
LJ           4.19159        -2.79996        0.417922
LJ             3.718        -4.17612         -0.4521
LJ           2.33454        0.689542         0.48018
LJ          -5.90108         6.01942        -4.28579
LJ          -1.57831         3.29131         4.08798
LJ            3.7143         1.13655         1.33234
LJ          -1.34207         -1.9139        0.066253
LJ          -2.05681         2.85135         5.37958
LJ          -1.13073         4.76349          3.9164
LJ           4.48142         3.80698         -5.1713
LJ         -0.941298        -4.62537         4.07812
LJ          -1.56015         6.27674        -6.43882
LJ          -2.82898        0.080442        0.928316
LJ           -4.7591         4.00224         1.57424
LJ         -0.483805          1.6273        -5.91354
LJ           4.76658       -0.834127       -0.724524
LJ           5.29468        -3.27571         1.02883
LJ          -3.16635         -4.9536        -3.60575
LJ           -3.4999          1.7064         1.55558
LJ          -4.85145        -3.75742          3.6193
LJ           5.50705         5.14316         4.02292
LJ           2.24792         2.69607         1.04938
LJ          -1.32521         3.49664         5.68776
LJ          -6.10838         3.26866         1.13821
LJ          -2.84089         1.03368        0.305837
LJ          -3.18975         4.41093        -1.15861
LJ          -4.13812       -0.179982         5.29677
LJ          -5.21474         1.87726         6.18174
LJ            1.2329        -5.58669         2.37459
LJ          -4.37967        -0.22666        0.610301
LJ         -0.592232         3.36757        0.991696
LJ           6.41807        -5.21629        -0.94424
LJ          -3.61348        -2.62342       -0.270995
LJ          -2.46847         3.49678          1.6084
LJ           -3.0254         5.49046        0.524989
LJ           4.77683          2.6021         1.61858
LJ           3.26093        -6.23706        -4.00434
LJ           2.10982          1.1367         2.54843
LJ           5.33285        -6.35956        -4.53727
LJ          -4.89804          1.2084        -5.30368
LJ          0.746437         2.12195        -2.07881
LJ           1.52478        -1.79728         4.53242
LJ           2.57141        -1.99918         1.97708
LJ           1.92948        -5.40471         -3.4656
LJ           1.56139         3.70142        -2.15614
LJ          -3.49191          4.0867         1.38695
LJ          -5.17343         3.03598        -4.61928
LJ           3.52086       -0.250322        -4.77784
LJ           5.12005        -2.06475        -4.94673
LJ          0.896757        0.556751         3.85669
LJ           1.70062        -5.32019        -2.22185
LJ          -5.54069       -0.389371         2.17019
LJ            2.8824        -1.64604         2.91028
LJ           4.97471        -1.59884         4.46587
LJ           3.52219         4.55844         5.86308
LJ           1.79212        -2.23471       -0.588428
LJ         0.0247989        -0.78429        -4.93043
LJ          0.304362         3.59921        -5.68711
LJ           4.68935         5.46397         1.09503
LJ           6.22279           5.762         2.61501
LJ           6.12418        -3.74889         -3.9063
LJ           3.11291         2.86226         2.50472
LJ           2.67115           4.997        -4.57539
LJ           2.11314         4.54632        -1.05862
LJ           5.86593         5.64232        -3.74986
LJ          -5.09357         -6.4464        -1.05647
LJ         -0.327247         1.52323         1.36419
LJ           4.96353        -5.09015        -1.92134
LJ          -5.66116        -4.46766         2.60873
LJ          -4.51804        -4.27316        -1.21095
LJ          -3.79633        -5.34143         1.39028
LJ          -2.93665         4.62697        -5.68638
LJ           2.90335          1.2996       -0.194775
LJ          -4.19279         2.51137        -4.24084
LJ           6.43128        -4.18974         5.09714
LJ           5.87739        -5.60973         1.79973
LJ          -5.28897         2.63638        0.411709
LJ            2.7466         5.72057         3.34197
LJ          -6.31239         4.35212         2.15606
LJ           5.14339         3.27226        -6.05209
LJ          -6.39805         -2.9998          2.6273
LJ            5.9851        -2.04604        -1.81757
LJ          0.153803         4.29298       0.0380325
LJ          -5.01904         2.92867         1.78677
LJ           6.06854         2.68299         1.95934
LJ            4.4301         5.52661         2.92358
LJ           5.18456        -5.71201         3.12577
LJ         -0.392998         5.89579        -6.44446
LJ           4.33956        -2.44834         -5.9677
LJ           6.06542         2.91498       -0.102001
LJ           5.84803        -2.38176         -3.1165
LJ           4.80486        -6.14389         2.12224
LJ           -1.2001        -4.57124         6.21376
LJ          -5.06503         5.73291        -5.84995
LJ          0.621991         2.84308          6.3696
LJ           4.78981          1.7721       -0.201273
LJ            2.6721         3.84982       -0.157863
LJ           1.91136         2.06848         3.69194
LJ           6.45311        -4.89476        -4.27197
LJ          -2.90812        -2.05263          6.1201
LJ           5.07371         2.79913        -4.82646
LJ           -5.8405        -5.15552         6.03221
LJ           3.60984        -1.31785         4.34046
LJ            4.8671         -3.8604         -4.8786
