108
#Comment!
LJ           2.74251         5.27977         2.65653
LJ        -0.0226402         1.70087         4.76307
LJ           3.97597         1.32602        -2.04223
LJ           1.50358         -2.9204        -5.90302
LJ          -3.36982         4.13047      -0.0709739
LJ           5.85143        -3.97859         1.38142
LJ          -5.00846          3.3031        -4.08498
LJ           3.47801        -4.39345          4.7915
LJ            3.1024        -4.68034        -4.44573
LJ           2.67817         4.68368         6.23578
LJ          -5.66419         3.56441        -3.22936
LJ          0.950705      -0.0188358        0.912023
LJ          0.625555         5.91647        -2.03838
LJ         -0.398083        -1.71013        -4.98523
LJ           2.38379         -4.4758         2.48502
LJ          -3.91645        -3.39198        -3.13503
LJ         -0.459784        -5.11244        -4.90203
LJ           4.88257         2.10803         1.23784
LJ           2.57379         4.24231         3.94535
LJ          0.567029        0.776834         2.57478
LJ         -0.460413        -4.29561        -2.58368
LJ          -2.31293        -1.50705        -1.49969
LJ          -5.25684        -3.12413         3.18475
LJ           3.94164         3.41719        -1.27016
LJ           4.26189        -1.98792          1.4172
LJ         -0.951299         2.02032        -5.73633
LJ          -5.50536         1.38176        0.443227
LJ          -4.85171         4.15163          5.5747
LJ          -1.97873        -1.49016        -5.40645
LJ          -3.44611         1.33595        -1.92026
LJ         0.0804927       0.0699333          4.8327
LJ          -3.49278        -1.74324        -1.90165
LJ           5.03305         2.58865        -4.66364
LJ          -5.49314       -0.287981        -3.71401
LJ           3.36233         1.45137         5.29021
LJ           4.64618       -0.999544        -4.28575
LJ          -5.53719        -5.43152         -5.6197
LJ           4.40991        -3.15257        -5.69112
LJ          -1.34124        -3.08081       -0.533087
LJ          -1.17644        -4.17252        -4.83179
LJ           2.53678         5.00909        -2.91028
LJ         -0.714482        0.213383         4.24158
LJ          -1.93635        -0.98122         1.10925
LJ           5.78486        -5.65943        0.260495
LJ          -2.22141        -3.27932        -3.94813
LJ           4.83989        -1.19789        -5.36598
LJ           1.16291         0.57745         3.93363
LJ           5.80291         3.70772        -4.60085
LJ          0.703075         4.70846        -4.23398
LJ          -4.39879        -3.58033         -3.9278
LJ           5.49826        -3.74852         5.76767
LJ          -3.11813       0.0799909         1.95876
LJ          0.610015        -4.61156        -3.58493
LJ           6.10795        -6.16878        -2.84242
LJ          -5.89439          4.0669         5.61061
LJ          -4.19452        -3.79559       -0.369453
LJ          -4.36937         4.83516        0.891527
LJ           4.11208         3.13155        -3.77433
LJ           5.98266          6.2172        -5.89329
LJ         -0.290618        -6.00203         2.89397
LJ          0.463001       0.0121561        -1.30263
LJ          -4.64036       -0.297903        -5.95785
LJ          -6.04967        -4.80478         2.36223
LJ           3.83848        -2.12508         3.09841
LJ          -4.85277        -2.31159       -0.118321
LJ            4.4673         5.67592       -0.125706
LJ          -5.65177        -6.25896        -2.84277
LJ            6.4407        -2.35368         2.33601
LJ           2.96891          4.7762        -4.73923
LJ          -1.40192         2.89719        -2.01479
LJ           4.59478         3.72815        -2.86857
LJ           3.77087        -1.96336      -0.0148995
LJ           3.40114        -5.96151         5.37018
LJ          -3.55753          -5.012        -4.81019
LJ          -1.17967         5.37338         2.49597
LJ           4.45811        0.161073         2.03252
LJ          -2.18997         4.56434        -2.90187
LJ          -4.99864         5.45428         1.38437
LJ          -5.34081        -2.20991        -5.74203
LJ           6.30553         4.34854        -5.29668
LJ          -2.75256        -4.49888        -2.15631
LJ          -6.40134        -2.92766        -2.13195
LJ         -0.789618         3.20993        -3.68906
LJ          -1.00804         1.90012        0.817463
LJ            -4.077         5.49441          2.0029
LJ          -5.65789        0.523863        -4.13283
LJ           4.82609        -1.08021          3.3655
LJ           2.74456         3.15994       -0.224707
LJ           3.41445         3.13273        -2.66604
LJ          -4.26752        -4.26675        0.634677
LJ          -4.89931         2.47859        -6.28095
LJ         -0.757857        0.204403       -0.473143
LJ          -5.25534         4.27915        -5.67368
LJ           4.91091        -2.01752         6.29874
LJ          -5.20207         5.86838        -2.13329
LJ           4.07462         5.65795         3.71055
LJ          0.235477         5.87385         4.67877
LJ          -5.75348         3.57556        -4.65546
LJ          -3.63991         2.75189        0.867818
LJ            -1.134        -5.38837         2.84789
LJ         -0.787657         3.99899       -0.745493
LJ           4.74617        -4.53357         1.89875
LJ           3.95719           5.995         2.21257
LJ         -0.555995          1.6529          6.0642
LJ          -3.77146        -0.77272         0.92794
LJ           4.97724         0.16096         5.50478
LJ           4.30458        -2.72203          2.1142
LJ           1.26335         5.43388        -6.40889
