108
#Comment!
LJ          -3.39561        -4.00974          2.3529
LJ          -2.06281         3.51177        -5.33763
LJ          -6.09467        -4.75497           3.659
LJ           6.18556        -2.63436        0.715315
LJ           4.99159        -4.06019      -0.0055075
LJ           5.23992        -4.04519        -1.15683
LJ           1.90191      -0.0179258        0.335537
LJ          -5.62836        -5.48412        -3.47288
LJ          -1.37233         3.65261          4.2849
LJ           2.62946         1.69386         1.60381
LJ          -2.17006        -1.60945       -0.244381
LJ          -3.25689        0.988647         5.39082
LJ          -1.02481          4.0807         2.89131
LJ           5.69845         3.47293        -5.09927
LJ         -0.984787        -3.93349         4.96786
LJ          -1.78718        -5.82084        -6.11991
LJ          -3.10674      -0.0719207         1.57209
LJ          -3.85265         3.98998         1.44915
LJ          -1.08433         1.26925        -6.23408
LJ           4.94475        -1.12299      -0.0232594
LJ             5.969        -3.06119         1.73506
LJ          -2.82577        -4.74056        -3.81483
LJ          -2.52836         1.36727         1.74936
LJ          -5.39081        -4.06888         4.40249
LJ           5.31894         4.19288         3.39819
LJ           1.74618         3.90708         1.43484
LJ          -1.66958         3.07527         6.33691
LJ          -5.76697         3.71039         1.82071
LJ          -3.33737        0.973681        0.628493
LJ          -4.98624         4.22432        -1.47228
LJ          -4.10284        -1.06704         5.12026
LJ          -4.95896         1.99068         5.53339
LJ           2.41002        -5.15625         1.91936
LJ          -4.15667        0.118922         1.75318
LJ          -1.15269         4.29278        0.116704
LJ          -5.38397        -5.80869       -0.978825
LJ          -2.68694         -2.5838       -0.144059
LJ          -2.61215         3.43495         2.00543
LJ          -3.32701         4.81481        0.728358
LJ           4.37363         3.27289         2.79749
LJ           2.61351         5.26013        -3.34205
LJ           1.95907         1.08674         2.12173
LJ           5.26809        -6.08773        -4.84137
LJ           -5.4292       -0.288513        -4.51093
LJ         -0.544991         3.08765        -1.96271
LJ           1.23434        -3.26292         5.57666
LJ           2.58043        -1.97525         1.15175
LJ            2.3107        -5.78791        -3.85382
LJ           2.35728         4.46825        -2.60362
LJ          -2.83047         2.84991         0.21203
LJ          -5.72888          1.5481        -4.11955
LJ           3.47734         0.66147        -4.33257
LJ           5.44271        -2.48206         -5.1504
LJ          0.799065        0.736444         4.56395
LJ            1.2629        -5.90464        -3.26312
LJ           6.11089        0.625821          1.7194
LJ           2.88722        -1.29571         2.25123
LJ           4.37201         -1.8144         5.88409
LJ           3.21421         4.88172          5.6412
LJ           2.48582        -2.58665       -0.458375
LJ           0.89545        0.235729        -5.26093
LJ         0.0647307         3.15952         4.63801
LJ           3.46607         4.90955         1.49049
LJ           5.98508         5.11307         2.82625
LJ           4.70489         -3.5245        -4.07526
LJ            3.5237         3.94648         2.63727
LJ           3.21192          6.4394        -4.89978
LJ           1.73826         5.67439        -0.57879
LJ           5.05217         5.21522        -4.02584
LJ          -5.91152         6.22401       -0.203125
LJ         -0.193205        0.261961         2.14544
LJ           4.69923         -4.0465        -2.23548
LJ          -5.74248        -3.87904         3.01454
LJ          -4.35794        -5.61398        -1.30471
LJ          -3.60765        -4.26584        0.846615
LJ          -1.13493         5.45075         -6.2988
LJ           1.53453         2.44686        0.561474
LJ          -3.90307         2.11242        -3.58789
LJ          -4.12148        -4.86857         5.13111
LJ          -6.28024        -6.42964         1.97126
LJ           -4.7313         2.36663        0.276194
LJ           2.31545         5.33933         4.10835
LJ          -6.02415          4.3018         2.65078
LJ           6.37648         2.86593        -5.60294
LJ          -6.35467        -3.25686         2.52799
LJ           5.94411        -3.29805        -2.21133
LJ         -0.330172         4.89472        0.935057
LJ          -4.53584         3.10054         1.47414
LJ           5.93197         3.84501         1.54002
LJ           4.76643         5.71883          2.4993
LJ           5.69531        -4.69757         3.05867
LJ         -0.407502         5.24712         5.96423
LJ           2.60759        -2.66553        -6.19962
LJ           6.09158         2.00122        -1.04854
LJ          -5.48847       -0.686733        -2.35684
LJ           5.23592        -5.96344         1.52081
LJ          -2.31981         -4.0434         4.91888
LJ          -5.92176         6.33059        -5.65553
LJ           1.20879         1.58766          6.4326
LJ           5.34511         1.32721       -0.902087
LJ           3.86191         4.36321       -0.610386
LJ          0.439635         1.51321         3.53139
LJ          -6.07241        -3.25573         -5.0426
LJ          -2.89391        -2.53992         6.04315
LJ           5.67274          2.2745        -4.23439
LJ          -5.41977        -5.61601        -6.45632
LJ            2.6776        -1.94622         4.13101
LJ           5.08833        -3.52065        -5.51334
