108
#Comment!
LJ          -4.35357        -4.96337         -6.1418
LJ          -2.14913        -6.00631        -4.33296
LJ          -5.95646        -5.31614        -6.46166
LJ         -0.469869        -5.99582        -3.86676
LJ          0.980722         4.69528        -6.17872
LJ           4.65805        -3.89318         4.95338
LJ          -5.00313        -5.36449        -2.97655
LJ         0.0612427        -5.68524        -3.08228
LJ          -6.31248         5.69748         6.04881
LJ          0.987111        -3.67412        -4.09384
LJ           1.89952         3.61233         6.30796
LJ           2.53185         5.53311         -4.3473
LJ           3.96906        -2.34942        -3.97166
LJ          -2.51966         1.42714         6.23884
LJ          -5.64464         3.70008        -1.93212
LJ          -5.19326        -3.69153        -2.51539
LJ          -1.55587        0.490874        -5.29202
LJ           1.55475        -3.81279         5.34188
LJ          -1.96664         2.69065        -5.04055
LJ            1.7774        -2.21374        -3.64262
LJ              3.47        -2.26582        -5.69975
LJ             2.735         3.60258         -4.2646
LJ           3.95243        -3.24025        -1.51458
LJ          -5.14025        -2.23313        -2.58317
LJ           5.57946         2.21866        -5.28176
LJ           5.89129         4.85584         5.57284
LJ          -5.51896         1.99732        -4.80157
LJ          -4.50603          3.7631        -4.14305
LJ          -2.71494        0.178622        -4.19657
LJ          -4.14002         3.67723         6.10091
LJ          -4.16378         5.76748         -5.5919
LJ          -3.71281         2.31823        -4.30204
LJ           2.76975         1.08008        -1.69533
LJ           1.39031          1.7929        -5.98282
LJ          0.845661         3.96944         -4.8775
LJ           1.59566         6.17351        -2.69725
LJ          -4.01652         3.95631       -0.558507
LJ          -4.65012         6.37004        -2.39068
LJ          -5.29682         4.28416       -0.360118
LJ          -5.11174        -4.23033        0.903926
LJ          -0.56747        -5.37756        0.252568
LJ          0.428002         -2.3092        -4.38319
LJ          -4.12092        0.577523        -1.61763
LJ          -1.16111         -5.8069        -2.29467
LJ          -1.81912        -5.51309        -3.02244
LJ          -3.02164        -2.36189        -1.02403
LJ           2.59921        -4.17187         -2.0774
LJ           3.05028        -5.50724        0.218088
LJ           4.16456         3.60238        -2.01376
LJ          -2.41585         1.80257        -4.95449
LJ           4.23321        -1.69676        -2.46121
LJ          -6.36907         -0.4926        -4.12374
LJ         -0.220569        -3.65302         3.54025
LJ          -1.44994         3.08101        -2.53934
LJ         -0.393259        -1.42652       -0.383231
LJ          0.251198        -4.05048         2.53528
LJ           2.33892        -4.43698        -3.74229
LJ           4.88709          1.4308        -3.50395
LJ         -0.800599        -1.85841        -1.64064
LJ           2.28754        -1.07367       -0.504703
LJ           6.41346         5.41095        -2.06018
LJ          -3.14743         3.47377        -3.18464
LJ           2.00596         4.41498       -0.192942
LJ          -4.75644       -0.524119        0.289358
LJ           -2.7303        0.306191         1.35234
LJ         -0.396304         2.71673         -4.1549
LJ          -1.12514        0.884746        -1.33467
LJ           1.45365         4.52483        -2.84891
LJ          0.439146         3.71663        -3.62542
LJ           1.37198         4.32056       -0.989103
LJ            0.2468         3.57623         1.49644
LJ           2.93947         4.53929          1.7683
LJ          -5.58887        -6.15045         2.04335
LJ          -4.98728         -3.6534         4.65063
LJ          -5.91154         -1.7313         3.71935
LJ          -5.08135         4.58428          2.4699
LJ          0.733688          4.3272         4.51113
LJ         -0.335209        -5.07349         3.85843
LJ           1.52853        0.879407         4.51904
LJ           1.22747         -5.0054         3.67615
LJ         -0.484065         5.00788        0.717346
LJ           5.04595        -5.13442         1.24494
LJ           3.93874        -5.33891          3.5334
LJ           3.64349         5.32283          5.5385
LJ           5.85379        -3.19071         2.19313
LJ           5.44081       -0.683533         1.63187
LJ          -5.01115         1.60113         4.46637
LJ           6.18072        0.265072         1.85519
LJ          -5.49952         1.02767         1.35392
LJ           -2.2369        -4.53601         3.55071
LJ          0.996543        -1.75996         3.34521
LJ           1.53376        -2.76491        -4.68289
LJ           3.57333        -3.58566        0.723126
LJ            3.9134           1.236         2.17991
LJ            6.2715         2.52277         3.45826
LJ           4.66653        -1.86327         1.85295
LJ           5.78725         2.09183        0.535163
LJ          -4.87924         6.25334         2.55035
LJ          -4.38086         2.63952          5.0443
LJ         -0.976673         2.20906         1.51186
LJ          -1.64347         1.20624         2.16605
LJ         0.0396519         4.80519         1.87351
LJ         -0.741185         3.82528        -6.32963
LJ          -1.54191         1.65372        -5.28679
LJ           3.12377         3.80938         2.68159
LJ           5.69342          1.9869          2.0891
LJ          0.500335         1.66409         3.81882
LJ           5.51206        0.370194         5.80306
