108
#Comment!
LJ          -4.46598       -0.391371         5.66228
LJ          -1.64014         4.13156        -5.77677
LJ          -5.25105         6.41371         5.20941
LJ            2.0119        -5.68242        -2.56177
LJ           1.73179         2.19855         4.24029
LJ          -3.91557        -4.01396         3.06147
LJ           5.55931        -3.74999        -1.59857
LJ           2.03674       -0.890688        -2.89177
LJ          -2.42457         3.42763         3.98891
LJ           -2.8723        -4.23488       -0.438688
LJ           2.28086        -1.17068         3.09193
LJ         -0.334816         4.46086        -5.58771
LJ           1.82259        -6.14493         4.99173
LJ         -0.563493         2.79131         6.40097
LJ          -4.25594        -6.03253        0.173928
LJ          -6.43394         -5.6504       -0.846752
LJ          -1.84408         0.53491        -3.04001
LJ           3.30645          6.2432          3.0568
LJ         -0.213244         3.54443        -4.88984
LJ           4.03709        -1.81596        -2.95094
LJ           4.27483        -2.79937        -3.86812
LJ         -0.328592         5.35138         -2.8366
LJ           5.54294         5.71403       -0.234348
LJ          -3.11691        -2.47969       -0.803975
LJ           5.79146         4.40056        -3.99377
LJ           2.42083         6.03408         4.71229
LJ           5.46905        -1.88442        -6.31897
LJ           5.74019          4.4346         6.32997
LJ          -2.13223        -0.34129        -1.85604
LJ            4.9155         4.29958         3.03403
LJ           -4.4399         4.47739         6.30058
LJ          -5.88853         1.52864         -5.0045
LJ           1.17398            3.52         1.20069
LJ          -2.09591     -0.00327762        -4.50465
LJ           1.51786         3.41152         6.38109
LJ           1.22942         6.40121        -1.15943
LJ          -4.30569         1.40074        0.569667
LJ           -3.8889         4.77941        -1.33888
LJ          -3.11804        0.167238       -0.543085
LJ          -5.79785        -1.46108        0.893709
LJ           1.54788        -4.45792         2.77094
LJ           1.08802       -0.700101         6.35631
LJ          -5.43393         4.06443        -2.73561
LJ          -1.51555         6.21433         1.86073
LJ          -5.33165        -2.43421        -2.50499
LJ           1.46966       -0.239205         1.32402
LJ           2.67772        -2.61321        -5.69429
LJ            1.6107        -4.42248        0.588075
LJ           1.53853        -4.06412        -2.23854
LJ          -5.73528         1.77539         5.43172
LJ           5.57105        -4.20615         2.00706
LJ           4.85829        0.196545        -6.18298
LJ          -1.75594      -0.0728874         1.89956
LJ          0.229257         2.43417        -0.34025
LJ           1.51281        -2.69406        -1.06709
LJ          0.656772        -5.68798         3.33471
LJ           2.27539        -3.91412        -5.63971
LJ           5.15915        0.460861        -1.42385
LJ          -0.24832        -3.60332         -3.7513
LJ         0.0162779       -0.893661       -0.732435
LJ          -4.67515        -6.23879        -3.22226
LJ           5.90369         4.81597        -3.03775
LJ         -0.688188         5.30223        -1.49646
LJ          -5.33915        -3.11112        0.412528
LJ          -3.44555        -2.00261         4.77648
LJ           1.54903         1.14733        -2.75007
LJ          0.131646        -1.22353        -3.02988
LJ           2.56787         -3.7922        -2.83608
LJ          -1.94924          4.8017        -3.12804
LJ          -1.83508         5.92303         -1.5573
LJ          -1.00211         2.72657       -0.313086
LJ           4.80531        -6.20341        0.109947
LJ          -4.93035        -5.59543         1.78018
LJ          -5.30178        -2.60214        -5.16418
LJ           -5.1813         1.59198         2.97816
LJ          -6.11692         3.62047       0.0881735
LJ           3.80072         1.59578        -6.26125
LJ          -1.22262        -1.92402         5.88655
LJ           -4.4366        0.549774           4.588
LJ           2.74097          -3.621         2.53905
LJ          -2.69964            3.53        0.432561
LJ           5.89419         -5.7026       -0.178188
LJ           5.37143        -6.40662         2.64811
LJ           3.16558          4.0904        -6.21625
LJ           5.29396        -3.68428         3.45169
LJ           5.57518         1.58542      -0.0979249
LJ          -4.03399          1.1881         4.02484
LJ           4.58062         1.89799        0.779395
LJ          -6.26006         2.44214        0.732063
LJ          -4.40664         5.30569         5.29021
LJ           3.99833        -5.14058         4.16673
LJ           0.47214        -2.71305        -3.35103
LJ           4.08785        -3.77082         2.12386
LJ           5.01886          2.1475         1.83094
LJ          -2.47557         5.32095        0.878402
LJ           3.57304        -4.21066        0.100505
LJ            3.8361         4.03732        -1.47175
LJ          -4.24277        -6.03809         4.11762
LJ         -0.829497         3.91586         5.80407
LJ           1.83746         2.12031       -0.291613
LJ          -1.96823         2.54437         2.27161
LJ          -3.03193         3.60193         1.53805
LJ           1.93909         3.15873        -3.18513
LJ          -2.22376        0.697763        -6.04526
LJ           3.88381        -6.29667          4.4457
LJ           6.15796       -0.472298         2.95214
LJ          -2.54395        0.793298         3.16159
LJ           5.85592        -2.83803         6.06094
