108
#Comment!
LJ          -2.24836        0.145603        -1.00412
LJ          -1.43903         2.14269          -2.674
LJ           5.73381        -5.45099         4.25749
LJ           5.75829         1.18253        0.641626
LJ          -3.99056         4.58545       -0.924439
LJ           -3.9844        -6.01229       -0.394152
LJ           2.50719        -2.85062       -0.345083
LJ           -5.9765        0.199714        0.767908
LJ          0.685494         6.09393          4.5391
LJ           1.42926         6.10294        -1.07112
LJ          -4.23465        0.587535        -1.64152
LJ           6.25058         4.55907         4.84022
LJ          -2.06134         3.77371        0.532732
LJ          -2.81778        0.133381        -4.27414
LJ          -2.51435         -1.4258        -4.93967
LJ          -2.60307        -2.52883        -6.29854
LJ          -2.71942        0.246262         5.06172
LJ          -2.69238         4.23246       -0.326424
LJ          -3.80248       -0.448556         4.64703
LJ          -6.15769      -0.0586354         1.78046
LJ           4.30295        -4.24249         2.87796
LJ          -1.12464        -3.96552        -3.85502
LJ          -1.52207         4.66893        0.821905
LJ          -5.19523        -3.24915        -4.54525
LJ          -5.08501         1.82378         1.62051
LJ          0.287889        -4.40842         2.93163
LJ          -2.35522        0.341467        -5.96278
LJ          -4.34518         -6.0689         4.20555
LJ          -5.84466         1.30682         2.51067
LJ        -0.0662027         3.84411        -2.61233
LJ          -1.33601         -1.8771        -6.19435
LJ          -4.37509         1.41356         3.48985
LJ          -5.11191        -2.38994       -0.260254
LJ          -4.86198         1.21816         6.26891
LJ          -3.88364        -4.55115        -3.79923
LJ          -4.22815         2.08237         1.98132
LJ          0.364681        -2.13928       0.0436042
LJ          -1.63837         2.11559         4.55841
LJ          -2.80555         3.11742      -0.0554397
LJ           1.77251        -6.42448        -5.99282
LJ           3.19091         4.56766         4.98499
LJ          -1.82615        -1.28557         2.57332
LJ           2.84908        -3.27235        -4.65676
LJ            5.2498         5.89646        -1.29057
LJ          -3.37311         4.39379        -2.01113
LJ         -0.585284         4.97159        -2.54226
LJ           2.85245        -1.43606        -3.17118
LJ           2.70068         4.05238        -6.44156
LJ           5.48586         3.31537        -1.58672
LJ          -1.05298        -5.60165        -3.66527
LJ           4.72808        -2.65349         -4.9328
LJ           3.11096         5.41421        -1.62744
LJ          -3.59078        -1.74185        -3.38259
LJ           1.40643       -0.202551        -3.56545
LJ          -1.12912        -6.29091         3.90037
LJ         -0.527853         3.66521         4.59132
LJ          0.768669          -1.414        -1.77806
LJ           1.29636        -3.89004       -0.448945
LJ           1.06431         3.77834         4.10127
LJ           2.22692          -3.139        -1.34422
LJ           4.59569         2.97924         6.38353
LJ        -0.0895248       -0.480371        -5.69725
LJ           1.57335         1.18041         3.84862
LJ           5.44252         4.65413         1.53115
LJ         0.0461301        -1.51211         5.44693
LJ          -5.61918         -4.6703         1.83216
LJ           4.98565        0.452538        -4.19626
LJ          0.662097        -3.00717         2.42254
LJ           1.44588         4.55718        -3.09996
LJ           4.05131        -5.15506         3.16711
LJ          0.261699        -4.19981         6.35766
LJ           6.00031       -0.255915         1.12531
LJ           -3.2722        -3.74673         3.62854
LJ          -3.84067        -3.65475        -4.70875
LJ          -2.89889      -0.0220928        -2.06404
LJ           1.53735        -3.30423        -5.06811
LJ           6.09982         -4.6164         3.54039
LJ          -2.17342        0.800979         1.17418
LJ           4.36781        -5.07266         4.32445
LJ          -1.70165         3.72137         2.64733
LJ          -3.48889         1.38101        0.586356
LJ          -1.42154         2.71487        -6.05493
LJ           -5.3048        -5.98362         5.15551
LJ         -0.989023         1.16861        -2.91041
LJ           6.40418        -3.47547          6.2837
LJ           6.33032          5.3281         6.29267
LJ          -3.74533         6.17533         3.44417
LJ          -3.27062         2.11083        -1.67946
LJ             5.818         6.38931         2.23723
LJ           6.02365         3.67035          1.2414
LJ          -5.86056       -0.317564         2.85098
LJ            4.3052         1.81496         3.58468
LJ          -2.09811         6.35455         3.55269
LJ          -5.58156        -2.30234        -4.60717
LJ           5.00002         3.37434         1.03975
LJ           -5.5899        -4.35945        -3.81238
LJ           6.13313        -1.69048       -0.939742
LJ           1.74461           4.915        -1.77261
LJ           2.31122        -3.38664         3.71126
LJ           5.83695        -3.11315        -4.82537
LJ          -3.64254         5.97207         -3.4293
LJ          -5.03083        -1.05195         3.85126
LJ          -5.85741         4.13398         5.12121
LJ          -4.37804        -1.54096        -4.18143
LJ           -3.6393         1.89533          -3.762
LJ          -6.27161        -4.49273         5.30716
LJ         -0.938105        -5.87012         2.48072
LJ           4.03005        -5.41527         5.57752
