108
#Comment!
LJ          -3.61513         2.95272         -2.2347
LJ           3.28302       -0.375767         1.61019
LJ           -4.2847        -3.46604         3.88915
LJ          0.764506        -1.08501        -1.38471
LJ          -4.95638          2.2841         0.86033
LJ          -1.19614      -0.0066809        -1.79346
LJ           3.83462        -6.18201        -4.56482
LJ          -5.16938         1.98073         5.13817
LJ          0.714864         -1.8344         4.56117
LJ            2.2388        -2.52001        -5.94214
LJ          -2.45371         2.77375        -3.46782
LJ         -0.683059         2.49754        -2.00286
LJ          -1.25264         3.85201         2.68797
LJ          -5.46554        -4.54991        -4.01568
LJ           3.29775        -2.96918         2.38127
LJ          -3.70627         1.90942         3.89024
LJ          -5.79213        -1.57107        -1.85514
LJ         -0.501351         5.53547        -5.49303
LJ           6.17871        -3.29413         3.60798
LJ           -5.5764         2.24032       -0.540069
LJ           4.82368        -4.62537         6.00925
LJ           2.78231         4.65299         -4.9601
LJ           2.05939        -2.09707        -3.89528
LJ          0.532446         1.57646        -5.09339
LJ          -6.01903         2.84966         0.56085
LJ         -0.222525         2.61118         5.09836
LJ           -5.3478       -0.486101        -5.38477
LJ          -1.22214        -2.11646         4.89304
LJ          -4.12316         2.43482       -0.580851
LJ         -0.144183        -3.06336        -4.16866
LJ          0.808034       -0.364303        -2.63174
LJ          -3.53802       -0.469012         2.64806
LJ          -1.03415         2.06783      -0.0982108
LJ          -4.08844         3.37938        -1.23625
LJ           4.83797        -5.11423         2.81497
LJ          0.302371        -3.57411        -5.20989
LJ          -1.33822         0.56939          1.4144
LJ          0.119955        -3.31518         3.13982
LJ           1.21727         4.20011       -0.286653
LJ           5.74544        -3.63854         -2.4948
LJ           4.68519         2.57527       -0.631157
LJ          -6.02067        -5.25362         3.00134
LJ           3.78211        -2.34883         1.88243
LJ           5.77608        0.925556         2.59792
LJ          -2.23466           4.861         4.39752
LJ           6.22629         4.41599        0.454748
LJ           1.63556        -2.52038         4.00147
LJ           2.60212        -0.19144         3.90229
LJ          -4.12051         4.04561        -3.95111
LJ          0.220241         1.20857         4.40244
LJ           3.94999        -3.87565         5.75546
LJ         -0.830945       -0.493872         2.56896
LJ          -5.58677        -2.58115      -0.0657041
LJ           4.98992       -0.632516        -2.22063
LJ           -5.1718        -5.06016        -1.46714
LJ          -5.55614         2.99571        -1.16357
LJ           1.13096        -3.74338        -3.29198
LJ         -0.884554        -4.09094        -5.47533
LJ          -3.74773        -2.08193         1.89095
LJ         -0.384019        -4.47594        -3.17848
LJ          -4.98562          2.5141          3.2218
LJ           -2.4991         2.35689         5.69234
LJ           5.41879        -1.30719        -4.65831
LJ           5.95012        -5.91796       -0.219931
LJ           -3.2748        -3.26958        -5.97139
LJ          0.308171         -1.8784         1.36295
LJ           5.89427        -3.16575        -1.15487
LJ          -2.86985         2.97875         2.11997
LJ          -3.50381         5.43564         3.75483
LJ           1.96539         3.96869         5.04747
LJ          -2.37395         4.56875        -1.94804
LJ          -6.39795         2.00721          5.0939
LJ         -0.807561        -4.20839        0.497143
LJ           -1.6071        -1.77823        -5.96002
LJ          -2.52525         3.07736        -2.09219
LJ          -2.08449        -0.34413        -4.10394
LJ           5.08659          3.0488         5.28362
LJ          -0.99152          2.8499        -5.52895
LJ          0.641823        -1.69016        -2.80429
LJ            5.6341         3.51316         1.56995
LJ          -3.45929        -2.19501          3.2589
LJ          -5.15454         2.28673        -4.57966
LJ          -1.82553        -3.07784         4.02727
LJ           3.29396        0.872335          1.3972
LJ          -6.34492          4.6904         4.91727
LJ          -5.16824         1.58844        -5.50782
LJ           5.15383        -4.93519         4.36339
LJ           5.67718        -5.10313         5.32783
LJ           3.32431         5.88027         2.53689
LJ          -6.20163         4.02658         2.68816
LJ          -5.75258         -1.3099        -4.72707
LJ          -5.69683        -3.02713        -6.34992
LJ          -5.51381       0.0259763        -2.15841
LJ           2.50214        -3.61801         -4.7969
LJ           5.49813         4.70438        -4.13266
LJ           3.01586        -3.62556         5.05027
LJ            3.6211         2.24898         4.77556
LJ          -3.65675         2.84804        0.278676
LJ           3.05568         5.30614        0.058864
LJ           3.89603         3.90119        -5.90174
LJ          -2.58359        -6.03254        -6.16408
LJ            6.0597        -5.87785        -5.13496
LJ          -5.15959          4.4795        -6.44857
LJ          -1.37453      0.00739488       -0.732205
LJ        -0.0730133         2.00697        -3.14905
LJ          -6.45863        -5.00526         4.61852
LJ           1.43346         4.01801         3.56355
LJ          -3.06393         4.82877         1.51141
