108
#Comment!
LJ          -2.43521         3.53176         1.20339
LJ          -5.27452         3.35972        -5.46218
LJ          -5.58495         5.98915        -6.26685
LJ            5.8182        0.655009       0.0134344
LJ          -1.00121         -3.1598         3.71693
LJ          -3.83703         2.07893        -3.54024
LJ            6.3873         3.24319         1.71812
LJ          -2.38992        -3.66059        -3.93281
LJ          -1.04586         3.20969        0.871812
LJ          -2.07926         3.04392         3.04473
LJ          -1.81944         1.48262        -2.07482
LJ         -0.785093         3.53858         2.84974
LJ        -0.0468794         -5.7961        -2.70606
LJ          -3.13191         1.79412        -1.96682
LJ          -5.31724        -3.10049        -2.80482
LJ           1.37694         3.14483        -2.58645
LJ          -1.36854         1.13339         5.65905
LJ          -4.83346         3.59378        -2.37387
LJ           5.51586       -0.671925         4.35099
LJ          -1.02722         3.86668        -4.04662
LJ        -0.0353922         -1.0169         3.04339
LJ          -2.78984        -3.95431        -5.40257
LJ          -1.71536        -6.43669        -4.71366
LJ           4.96634       -0.425661         0.17275
LJ          -5.96001         4.21337        0.978517
LJ           2.19667        -5.06331         3.13378
LJ          0.462513        -6.09606        0.261034
LJ           2.64925         5.33032         4.85205
LJ           1.79377        -2.60767         4.12712
LJ           6.35953         1.90181         2.77438
LJ          -1.10179         1.24873        0.473494
LJ           6.22909        0.577782         1.13903
LJ            3.6026         2.30663         1.94824
LJ           1.70121         6.30818         6.10806
LJ            6.4485         4.82391       -0.826006
LJ          -2.21219       -0.995789        -5.32667
LJ          -5.76329         3.07088        0.258771
LJ           3.99902         4.18186       -0.350835
LJ           -3.6989        -4.64671        -4.80405
LJ           3.73637         2.54502         -1.9339
LJ           6.31026        -6.45573         3.18587
LJ           3.48604          6.0857         4.68514
LJ          -3.44413          3.8143        -4.48938
LJ           3.53045         4.36672        -3.19137
LJ         -0.236726        -3.57982         5.63205
LJ           3.00537       -0.629482         3.60623
LJ          -6.39585         6.08074          6.0879
LJ           2.23185         4.41402          1.4808
LJ          -2.30972        -6.40238         4.58284
LJ            6.3419          3.3917        -2.81113
LJ           4.30704        -5.39499         2.32323
LJ          0.428542         3.33266         2.50055
LJ           1.32611         1.43173         1.19792
LJ          -1.54742        -2.36075        -1.46466
LJ          -5.36666         3.60563        -3.53262
LJ           4.59116         -6.2202        -4.82116
LJ          -5.89649         5.60614         2.95249
LJ          0.149138         6.40865          4.7666
LJ         -0.853168        0.600394         3.19927
LJ           -2.7725         5.90868        -5.74463
LJ           5.47015       -0.851819         5.95305
LJ          -1.09044         4.17417         3.61814
LJ          -2.90749        -1.17314        -1.66254
LJ           2.44968         3.37042         3.90132
LJ           4.44258         5.44357          3.7035
LJ           1.49222         3.17219         2.21108
LJ          0.262456      -0.0821287         5.07135
LJ          -2.01483         6.26736        -2.56602
LJ         -0.170733         3.23183        -4.50399
LJ          -5.62331       -0.357182        -3.05971
LJ          -1.14991          1.7281        -5.35157
LJ           1.85615         1.38613        -1.12109
LJ          -2.26707        0.218925        -2.72102
LJ            1.5928         -1.2307       -0.504171
LJ           2.33964        -3.41627        0.783104
LJ         -0.123053        -3.28302         1.83561
LJ           5.65681         4.12021         3.40365
LJ           2.15049       -0.561062        -5.72625
LJ            5.0725        0.528323          4.1432
LJ           2.68959        -2.94532        -1.97117
LJ          -3.76018        0.188117         6.03635
LJ           5.20112          4.9529        -6.00519
LJ          -6.23229         4.26285         2.50399
LJ          -6.30262        -6.40744        -3.41358
LJ          -1.14149        -5.68595        -2.62814
LJ           4.62355        -3.36579        -3.93016
LJ          -4.66954       -0.641855         4.32172
LJ           -1.0419         2.41716       0.0708577
LJ          -4.08738         -4.6267         5.56856
LJ           4.20839         3.16409         2.73684
LJ           2.29895        -5.51184        -1.71774
LJ          -1.10923        -5.63342         1.70706
LJ          -4.20276         4.19146         5.79339
LJ          0.226761        0.513726         6.09188
LJ           5.67713         1.91621        0.213537
LJ          -3.88731        -5.81441         5.08054
LJ           5.63724       -0.272916         2.85724
LJ          0.915465        -3.56392         3.62923
LJ         -0.998842        -2.39141         4.77696
LJ          -2.89755         4.77752        -5.45421
LJ           4.43834       -0.348178        -3.52006
LJ           3.94376        -4.99631         1.43165
LJ          -4.41329        -1.47796       -0.871717
LJ          -4.25744        -1.63971        -2.49167
LJ          -1.01229         4.70305        -0.48828
LJ           5.53683        -1.81086        -2.55111
LJ          -3.52885       0.0384951         4.79974
LJ          -1.24003        -1.51664        -2.92985
