108
#Comment!
LJ          -2.39156        -0.55958       -0.334104
LJ          -1.99626         2.37719        -3.24567
LJ           5.43266        -5.13895         4.71059
LJ           6.23097        0.404956        0.606012
LJ          -4.52905         5.05937         -1.0283
LJ          -4.36448        -5.60994       -0.526903
LJ            2.1211        -2.43185       0.0463509
LJ          -5.78292        -0.22908       0.0146358
LJ          0.706664         5.38216         4.46762
LJ            1.6138         5.45943       -0.125235
LJ          -4.40548       0.0990832        -1.39587
LJ            5.5757         6.20862         5.01285
LJ          -1.99765         3.36313        0.390964
LJ          -3.22051        0.950562        -4.20519
LJ          -2.74947        -1.84358        -4.78364
LJ          -2.40126        -2.97578        -6.05775
LJ          -2.53947       -0.134821         4.22856
LJ          -2.52534         4.23899       -0.178537
LJ          -3.50706        -0.18511         5.10362
LJ          -6.35128        0.381974         1.63847
LJ           4.27881        -3.78781         2.36281
LJ          -1.39768        -4.02746        -4.13234
LJ          -1.23206         4.12264         1.08989
LJ          -5.39727        -3.32349        -5.04522
LJ          -5.99764          1.2378         1.76684
LJ          0.685274        -5.12517         2.68789
LJ          -2.22521        0.736922        -6.04437
LJ          -4.76593         6.28916         4.02949
LJ          -5.29483        0.597557         2.61351
LJ          0.916902         4.08055        -2.35898
LJ           -2.0354        -2.09504         6.22294
LJ          -4.17577         2.02605         3.48149
LJ          -5.90918        -3.09646        0.090081
LJ          -4.77778         1.19217         5.63282
LJ          -3.31275        -5.24893        -3.08456
LJ          -4.40393         2.92518         1.43658
LJ          0.154617        -2.58474        0.360335
LJ          -1.80862           2.337         4.19507
LJ          -3.26854         3.38537       -0.130344
LJ           1.51137         6.13022        -6.45839
LJ           2.86651         4.72815         5.64199
LJ          -1.22599       -0.924138         2.50206
LJ           3.21517        -3.80005        -5.25847
LJ            5.4651        -5.98637        -1.81674
LJ           -3.2986         4.12032        -1.34576
LJ         -0.135395          5.3931        -3.22273
LJ           2.89598        -1.52256        -2.40033
LJ           2.76046         4.61855         -6.2297
LJ           4.93866         3.25442        -1.15442
LJ          -1.25275        -4.36729        -2.90164
LJ           4.77391        -2.39321        -4.45884
LJ            3.3459         4.50505         -2.2292
LJ          -3.66811        -1.82996        -4.16509
LJ            1.3346      0.00929269        -4.33054
LJ         -0.423676         6.46017         4.86491
LJ          0.576929         3.43575         3.44415
LJ           1.30528        -1.21409        -1.28214
LJ           1.72795         -3.5489         -1.5099
LJ           1.43109         4.61456         4.51228
LJ           2.69332         -3.1184        -1.00472
LJ           4.07118          2.9409        -6.00779
LJ        -0.0242426       -0.478624        -4.92534
LJ           1.16396         1.60707         3.29319
LJ           5.32403         4.64322         1.42252
LJ          0.448004        -1.69238        -6.14151
LJ          -6.27017        -5.11722         2.02275
LJ           4.65058       -0.535384        -4.43173
LJ          0.560835        -3.29216          1.6037
LJ           2.05411         4.15681        -3.59757
LJ           4.32656        -5.49823          2.4994
LJ          0.244934         -3.6718         5.64406
LJ           5.73123        -0.63098        0.125026
LJ          -3.65369        -3.68817         3.99062
LJ          -4.41132        -4.50322        -3.73904
LJ          -2.79732       -0.224102        -1.41135
LJ           1.48464        -3.48023        -5.27276
LJ          -5.48796        -5.45453         2.96738
LJ          -2.41763        0.684192        0.243498
LJ           4.64568        -6.07014         4.73075
LJ          -2.61297          3.5808         2.84195
LJ          -3.44932         1.80094        0.687733
LJ          -0.72001         3.13026         -6.4292
LJ          -5.55562        -6.20243         4.86411
LJ          -1.75622         1.09282        -3.30919
LJ          -6.27694        -3.11783         5.64288
LJ           6.07145          5.8653         6.42021
LJ          -3.11284         6.01846         3.15367
LJ          -2.94978         2.47238        -1.02329
LJ            5.9157         6.16467         1.87805
LJ           6.05501         3.74953          1.8924
LJ          -5.98567       -0.390202          2.6982
LJ           3.66104         2.33859         3.46995
LJ          -2.05496        -5.78083         4.12814
LJ          -5.49056        -1.40648        -4.20862
LJ           2.86255         3.24844        0.577131
LJ          -5.24878        -4.52252        -3.29197
LJ           -6.0661         -1.9376      -0.0733795
LJ           2.47799         5.32883         -2.3474
LJ           2.22622        -2.65912         4.19226
LJ           5.98911        -2.34557        -3.97527
LJ          -4.46626           5.805        -2.93152
LJ          -4.47797       -0.437426         3.49143
LJ          -5.97957         3.09448         5.51036
LJ          -4.22064        -2.15755        -5.07059
LJ          -4.13413         1.86377        -3.78699
LJ          -6.33639        -4.50919         5.58387
LJ         -0.628864          -5.091         2.79434
LJ           5.27165        -4.78764         5.82236
