108
#Comment!
LJ         -0.167625        -2.21509         5.44688
LJ          -1.19852        -2.57608         4.67865
LJ           4.07003        -6.43726         5.57445
LJ           4.19504         3.85421         1.94894
LJ         -0.173292        -1.46887        -4.02612
LJ          -5.75349         2.78568         -3.3331
LJ           -4.0324         2.35396        -3.18302
LJ           -5.2955        -6.13896        -1.13007
LJ          -1.86162        -5.10237           3.441
LJ         -0.514429         4.32872         2.97849
LJ           1.93637         3.37233        -1.60507
LJ          -2.69896       -0.223067         4.89557
LJ          -3.79479         4.81181        -2.36278
LJ          -3.24253        0.507544         6.15885
LJ           4.63437         -2.8184        -2.01844
LJ          -1.30307         1.01056        -2.55951
LJ          -2.23794        0.820018         5.86066
LJ           -5.6386         5.57742        -6.07371
LJ           6.30888         2.72536          5.4436
LJ          -2.16641        -3.16058        -5.08971
LJ           5.04448         6.25069       -0.888019
LJ           4.92474        -1.04257        -4.24031
LJ          -4.92325         5.48578        -1.90335
LJ          -6.43375         -4.3665         3.06688
LJ            5.5192         6.19047        -2.72058
LJ        -0.0239293        -5.97428         3.47275
LJ           5.23408        -5.31448         1.96703
LJ          -5.54603         5.28169         2.67415
LJ          -2.81858         5.76126        -3.96539
LJ          -4.47329         -0.6999         4.07266
LJ           4.74721         2.83145       -0.344931
LJ          -1.86557         1.78952         3.66879
LJ           4.27355        0.776106        -1.02981
LJ           1.85744         3.05509        -3.70971
LJ           2.61111         4.89592        -3.36643
LJ         -0.896714        -4.10581       -0.833925
LJ           2.09533         5.14094        -4.31361
LJ           2.11747         -4.1174        -1.85055
LJ          -4.34643         3.41814         -4.9281
LJ           2.47496         1.03359        -1.01855
LJ           6.25106        -5.21965        0.159817
LJ           0.69807         4.01751         4.87937
LJ         -0.112027         3.55498         5.81584
LJ           3.51575         2.08953         4.58879
LJ          -1.38628        -1.96799         2.73515
LJ           4.72261         1.54376         5.98776
LJ           4.58437        0.644896        -5.61444
LJ          -3.10343         0.54169         2.57231
LJ          -5.92974         4.75234        -1.32232
LJ           1.21068        -5.25398         1.63328
LJ           5.94515        -4.08184        -5.79009
LJ          -1.66048         4.85203         2.94992
LJ           1.51468        -2.03803        -4.11913
LJ          -2.17145         1.96062        -4.84149
LJ          -5.87976         6.07108        -5.09021
LJ          -4.20172         4.53852         5.52846
LJ           6.09694         4.85531        0.884504
LJ           1.58308        -2.84159        -6.39179
LJ           0.55014         3.55974         -5.1838
LJ          0.487773        -5.73414        -4.86561
LJ          -5.87658        -0.79827        -4.47902
LJ           1.05272        -3.52143        -2.61259
LJ          -3.65747         -0.6221        -2.15348
LJ           5.54742       -0.209835         2.41991
LJ           5.33404        -5.96662         2.82275
LJ           4.25233          3.8073       -0.062296
LJ           3.17401         2.02171         5.61324
LJ          -1.40015         3.03444        0.110007
LJ           2.91514        0.998416        -5.15539
LJ           3.68011         2.36382         3.53549
LJ           2.47452         0.86978         5.38533
LJ           3.38096         4.17917         2.79813
LJ          0.793718          1.5045         -2.9857
LJ         -0.565281         5.82274        -3.64774
LJ          -1.96928         3.41198        0.905414
LJ           1.04376        -4.56129        -3.09192
LJ           2.56763         2.87165         3.62811
LJ           2.58194        -4.68434         3.93237
LJ           6.18564       0.0939113        -4.82949
LJ           5.91453         2.44956        -3.83886
LJ           1.52836      -0.0267299        -2.95346
LJ          -5.29508         1.80489          5.0233
LJ           1.51322         4.61953         4.49872
LJ          -6.03273        -3.47888       -0.695598
LJ          -3.76488         1.54654        0.285026
LJ         -0.382316       -0.522556        -3.47546
LJ           6.39006        -3.89502         4.72043
LJ           2.73814        -1.88386        -4.13034
LJ           6.23642        -4.47077         1.00997
LJ          -1.44996         1.25223        0.137202
LJ           1.69516         6.40739       -0.745585
LJ         -0.578346         6.36541       -0.488023
LJ          -3.86381        -6.35846        -1.85219
LJ          -5.10793         2.08184         3.97113
LJ           4.71783         1.15997         2.05397
LJ           5.57359         4.38385        0.230556
LJ          -6.45147       0.0139198        -2.07359
LJ           3.65406        -5.84203        0.668782
LJ           3.92881        -1.25765         4.56598
LJ           -4.9596         3.73589      -0.0289602
LJ           3.22012        -2.29897        -1.17756
LJ            5.0032         4.95791         3.72098
LJ          -2.38529        -3.24823         2.63543
LJ          -3.32714        -1.95517        -2.64363
LJ           1.76102         5.13577         5.71263
LJ          -6.40034         3.99641       -0.202112
LJ           1.18227       -0.541652        -6.30469
LJ          -1.14617         -4.2551        -4.12808
