108
#Comment!
LJ           5.69583        0.105263       -0.576121
LJ           3.78481       -0.697571         1.81647
LJ           -4.3668         2.16093        0.827789
LJ           6.14901        -3.35051       -0.697723
LJ         -0.793425        -5.78076         3.58615
LJ           4.35388        -3.02775         5.72898
LJ          -2.43199        -3.80257        -6.38467
LJ           -2.2822        -0.59006        -3.39146
LJ          -2.23691       -0.794262      -0.0995849
LJ           5.56078        -1.40522        -1.36165
LJ          -5.13844        0.679029        -1.35734
LJ          -3.40101         5.11683         1.45669
LJ           -1.0282        -4.93228         5.00237
LJ          -5.91218        -4.75687        -4.99725
LJ           5.75652        -6.39875         1.75272
LJ         -0.434261          5.8707        -0.28764
LJ          -4.91159        -2.33008         5.20038
LJ           1.48456         3.52768         2.11317
LJ           2.72479       -0.675167         2.34553
LJ          -1.77386       -0.969486        -6.16649
LJ         -0.651067       -0.336022        -5.66169
LJ          -5.40033        0.048591        -5.24338
LJ           2.40778        -1.79383        -5.53144
LJ          -1.07733        0.893916         3.90218
LJ          -2.23082         -3.1445         5.58659
LJ          0.781526         2.16333         6.22105
LJ          -3.18832        -6.07001         0.87621
LJ          -1.05157          4.9282         5.14407
LJ          -6.36283         4.18469        -2.13803
LJ          -3.69121        -4.02893       -0.920378
LJ          -1.79199         3.54525         -2.1538
LJ          -5.89429         1.64345         1.45498
LJ          -0.49729         -3.6668        -2.98122
LJ           3.41421        -2.30662        -2.96568
LJ         -0.974916         -4.0491         4.47607
LJ          -4.72414         4.13386        -4.35537
LJ          -2.97054        -5.35671         4.56382
LJ          -4.97338        -5.53999        -1.88292
LJ          -5.07988         6.24127         1.30133
LJ          -1.17724         6.44836       -0.981375
LJ            3.6908         6.24182         2.23597
LJ           3.02224         6.18389         1.23246
LJ          -5.78852        -2.50158         4.51665
LJ           4.29879        -4.34232       -0.590543
LJ           4.14839         -3.4085        -4.61028
LJ          -2.51876        0.483428        -1.47281
LJ           5.99019        -4.58369        -3.10561
LJ          0.118972       -0.518336         1.75577
LJ          -4.65022        -2.45346        -4.80716
LJ          -4.03496         5.32398         5.35279
LJ           1.68124         2.22195        -2.79879
LJ           4.01414         -1.5132        0.120027
LJ          -2.72349        0.331577         -5.0017
LJ           -2.1431          5.3778         1.50077
LJ           3.58046        -5.99625         1.20101
LJ          0.276785          3.2469         1.87867
LJ         -0.267731         4.40175        -2.38599
LJ          -2.21984        -1.87864        -1.88812
LJ           3.89353        -1.43461        -2.78562
LJ            5.9465        -6.14405         -4.0925
LJ           1.05014         1.43946         1.82589
LJ         -0.408027         5.19996        -1.17076
LJ           6.25919         4.17162        -3.31862
LJ          -4.58869         3.46109        -5.13081
LJ          -6.34349        -6.39994        -2.12743
LJ           1.93624         5.30232        -1.55911
LJ          -3.67311         3.49323        -4.38191
LJ          -1.14737         1.62903         2.38183
LJ           4.40115        0.418333        0.845512
LJ           2.53034       -0.723442        -2.60647
LJ           1.46308         3.67201        -1.89622
LJ           2.80453         6.17949         3.77831
LJ          -3.06552          4.0003          3.0904
LJ          -3.02472         6.35254        -5.09946
LJ           1.26571         4.89296         0.97538
LJ              -2.4        -5.79238        -2.31514
LJ           -3.2142         3.32645      -0.0576088
LJ           1.64886         -3.0906        -1.57382
LJ          -1.86328        -3.38275        -2.03898
LJ           4.17224         1.09413       -0.739676
LJ           -3.7184         -2.2922        -2.70389
LJ          -6.31261         -6.3515         4.63205
LJ           5.07567         3.50831       -0.368142
LJ          -2.71322        -1.56054        -5.82491
LJ          -1.10094        -2.14275        -4.74439
LJ          -2.57343        -4.43767        -3.65931
LJ            5.3053        -1.39156        -5.84813
LJ           1.75024        -4.63575        -5.26852
LJ            1.4126         3.80816        -3.20479
LJ         -0.227901         5.10639        -4.57284
LJ          -5.65784         5.19309         -4.0797
LJ         -0.899262        -1.60565         2.17982
LJ          -1.60852        -1.03184        -2.26994
LJ          -5.43244         3.01564         1.54947
LJ          -3.56883        0.348828         4.88616
LJ        -0.0931986         2.54339        -3.13205
LJ           4.83063         2.25212        -4.14964
LJ           1.69419         2.76176        -4.62312
LJ             -1.31        -3.95584          1.6379
LJ          -3.10683         -6.2791        -3.16371
LJ          -4.22946       0.0583206        -4.59195
LJ           1.33885         1.44302         5.48092
LJ          -2.15222         4.75173         -2.5623
LJ          -6.03369         2.91441       -0.770654
LJ          -1.77999         1.65517        -3.23835
LJ           4.49584         4.65205        -1.60633
LJ          -6.32033        -5.68278        -3.42014
LJ          -1.48142        0.111642         -5.4074
