108
#Comment!
LJ          -3.28305         -3.6508         4.94884
LJ          -1.18929        -5.25417        -5.86151
LJ          -4.43197         3.14738        -2.56463
LJ           5.42675        0.418253        0.497582
LJ          0.796715        -4.14922         5.14943
LJ          -5.99194        -4.33659         -2.9148
LJ          -2.39708        -6.43525         4.41072
LJ         -0.151912        -5.12139         5.86539
LJ           5.07995         2.18696        -2.67043
LJ          -5.06599        0.819242         3.17163
LJ           -5.4162         1.71236       0.0510944
LJ          -2.13567         2.62659        -4.84648
LJ          -6.04128        -4.78939        -5.15019
LJ          -6.07407         6.01629          1.6773
LJ           1.55296           5.302         6.22181
LJ           2.44308         3.70318        -1.11761
LJ          -5.05254        -2.17108        -2.00972
LJ         -0.651667         3.05623        0.391014
LJ           2.15776        -1.22887         3.87421
LJ          -2.69934        -4.32507        -5.81821
LJ           5.52316        -3.36034         2.58128
LJ          -2.37561         5.13095        -1.79219
LJ         -0.648265        -5.36849         4.68966
LJ          -2.68461         4.16001         -4.6945
LJ          -5.28543        -5.09096         2.74334
LJ           2.94808        -3.33004        0.658623
LJ          -5.61542         4.69505        -1.14866
LJ          -4.89531        -0.29062        -6.05561
LJ           5.66803        -2.31717        -1.96294
LJ          -3.54258         -5.7532       -0.662136
LJ           5.18792        -4.31484         3.45344
LJ          -2.04356          2.8241        -2.91933
LJ          -5.97596        -1.30022        -6.17358
LJ           2.70795         -1.6833        -1.41585
LJ          -6.09031         4.72986         1.47937
LJ          -2.35578         2.41562         2.47423
LJ           -5.7621        -1.66477        -4.18514
LJ          -6.09088        -2.47488        0.258149
LJ          -3.70028         5.62287        -5.54328
LJ           3.87026        -2.30033        -3.49279
LJ           -0.7013        -5.68788         3.50182
LJ           -2.9302       -0.186816         2.83047
LJ           5.32581         5.82322        0.682776
LJ           2.06175        -2.98483          2.9977
LJ             2.596        -1.51903        -4.39733
LJ          0.282225        -1.33205      -0.0275916
LJ           4.30173        -3.36362        0.662853
LJ          -4.78888        -4.25021         1.61688
LJ          -1.39568        -1.43365        -2.05523
LJ          -5.01806         -2.8107         5.03359
LJ           4.23626         1.32469       -0.830181
LJ           0.83522         3.86855         2.63344
LJ           1.25763         2.98345         4.12328
LJ         -0.759584        -5.44038         2.33604
LJ          -3.41934         1.27289        -1.38757
LJ           1.95474        0.793516       -0.154205
LJ          -3.22027         6.13698         5.78999
LJ          -1.37823         2.93845        -6.00267
LJ          -5.66833        -3.38402        -6.05953
LJ           1.31086        -5.85773        -4.69057
LJ           2.66957       -0.483612         2.89909
LJ          -2.22071        -4.06346        -3.14708
LJ          0.733735        -4.16867         3.81045
LJ           1.72669         -6.1496       -0.792092
LJ           3.69603        -4.04896        -1.20484
LJ          -5.78866         2.04272         6.21528
LJ          -1.97239        0.758089        -4.79806
LJ           3.81534         1.86717        -2.01363
LJ           3.34903         3.19211         3.97857
LJ          -6.10436        -5.27144        -2.84468
LJ          -6.29506         2.51069        -3.15247
LJ          -2.67266         -2.3372        -3.42165
LJ          -2.35876         1.26242        -2.27364
LJ           3.65954         4.98337          3.5791
LJ          -5.03103        -6.20898        0.362881
LJ          -2.02394        -1.73659         5.07914
LJ          -5.17988         -2.1232         1.92414
LJ           1.07093         4.69559         -1.7361
LJ          0.589461         5.85241         6.09639
LJ           3.57023      -0.0566562         1.87031
LJ           1.59473        0.266977         3.57624
LJ           3.76163        -3.31665        -4.35931
LJ          -4.56634        -3.29698         6.31367
LJ          -4.61431          3.3541        -5.91174
LJ           5.40408         1.71217        -4.51684
LJ           4.97221       -0.879821        -3.48555
LJ           1.57011      -0.0792799         1.61345
LJ          -5.37885         1.39426         2.19223
LJ           -1.0546         6.22856        -3.61314
LJ         -0.664043          2.6981         3.89827
LJ           1.34618           5.015        -3.41073
LJ            1.5818        -2.07972         2.18564
LJ           0.45004         2.19954         1.41844
LJ           4.54377       -0.503755          2.3563
LJ          -6.30931        0.319353         1.56904
LJ           1.94923        -2.11438        -2.96921
LJ           4.35856      -0.0986273         3.78852
LJ         -0.938514        0.273382        -4.06752
LJ          -1.58226         1.36486         1.86806
LJ          -1.38509          3.2545         -3.8053
LJ          0.632424         0.85215        -4.57635
LJ          0.883637        -2.64201        -4.34197
LJ           2.69721        -4.92262        -2.35977
LJ          0.734027        -5.24661        -2.04504
LJ          -1.66674         1.00021        -5.95036
LJ          -2.95687        -5.97029        -6.38727
LJ           1.70336         4.91784        0.915383
LJ         -0.455669         2.25691         5.61902
