108
#Comment!
LJ           6.31316        -1.98784         3.62515
LJ          -5.88388        -3.65637         2.06654
LJ          -2.51775        -2.00788        -4.28819
LJ         -0.703474        -4.78153        -3.27123
LJ          -1.28085        -4.33365          2.6722
LJ           1.36884        -4.61727        -1.14604
LJ          -3.78587         5.11786         2.19523
LJ           6.41335         5.49563        0.723088
LJ           2.64468        -2.18812         4.46222
LJ           2.51346         3.24287        -3.25493
LJ         -0.870493        -6.39082        -5.16484
LJ          -5.15843        -3.62334        -5.21468
LJ          -4.99393        -5.76368         2.54582
LJ         -0.217386          4.3868       -0.900691
LJ          0.778076         6.22837       -0.849608
LJ          -1.70189         1.90944         4.42114
LJ          -0.95643        -2.68857         6.10057
LJ            3.7303         3.25385        -1.54793
LJ          -6.42587        -4.93529         4.79926
LJ          -4.03678         5.58047        0.439983
LJ          -1.01865        -3.39478        -3.12561
LJ          -5.09295         5.90355        -4.97611
LJ          -5.19839          2.8716        0.580417
LJ           4.41889        -4.77091       -0.303257
LJ           -5.5582          4.4121         3.97574
LJ          -4.65543        -6.35944        -1.65939
LJ           3.77125        -1.36703        -4.37096
LJ           6.27802         0.97491        0.133343
LJ          -3.46356         2.68612       -0.529612
LJ        -0.0726748        -5.05477         3.17342
LJ           1.85118         -1.8389        -5.43083
LJ          -1.20097        0.946929         2.24189
LJ           1.76527        -6.44726        -1.19898
LJ           2.69426        -4.19337         2.72945
LJ          -6.11465        -2.74985        -3.17568
LJ           1.12472       -0.536913        -3.99185
LJ           -3.5763         2.59084         3.71859
LJ           4.74026        -4.76419        -2.49677
LJ           5.52191         5.36603        0.151045
LJ          -1.42899       0.0732414        -1.02451
LJ           4.61737        -2.34286       -0.630687
LJ          0.147022         5.54828        -1.68298
LJ           3.87398         2.95656         3.92227
LJ            5.8517        -4.21551         3.03952
LJ           1.86066         2.52423         4.14706
LJ         -0.628595         4.64366         5.24928
LJ          -4.36836        -4.42007        -1.53477
LJ           2.17345       -0.173732         1.45776
LJ         -0.451012         3.20563        -2.69842
LJ          -3.16142         1.15509         1.57368
LJ           -1.7572        -4.29187        -6.25201
LJ          -3.66056       -0.583607        -3.73998
LJ           3.79521         1.48389        -2.28816
LJ          0.981524        -1.48485        -3.48579
LJ           1.46915         5.19263         3.66401
LJ          -5.58407        0.687215         6.10601
LJ          -5.73302        -6.28431         -2.1884
LJ           3.94205         2.09217       -0.713369
LJ           3.20154        -1.88674          2.0367
LJ         -0.581169        -3.93657        -4.65426
LJ          -2.41659        -3.42955         1.93387
LJ          -2.79715        -4.34805        -5.79716
LJ           2.05033        -3.08073       -0.406595
LJ          -5.12018         1.35919        -4.63024
LJ            2.5282       -0.681381        -5.23919
LJ          -2.28269         3.01526        -5.21888
LJ           5.36158        -1.94364        -5.80352
LJ           5.34919        0.630441        -4.31575
LJ          -2.78884        -6.37082        -4.91211
LJ           2.09782         5.69186         2.61419
LJ          -4.11577         1.50115        -1.07623
LJ           6.24541        0.745558        -4.99952
LJ           1.25996         5.22168        -2.55931
LJ         -0.322506         2.57975         6.43443
LJ           5.17193         1.76796       -0.838926
LJ          -1.95961        -5.89533         2.27589
LJ           3.71024        -2.42029         4.91459
LJ           0.89145        -2.67076        -3.03671
LJ          -1.54381        -1.08604        -4.07454
LJ          -3.02278        -5.89443         5.89568
LJ           3.25472         -4.6847        -5.76271
LJ          -4.54127       -0.238898         3.56267
LJ           4.98979        -4.63346        -3.88867
LJ           4.70896         1.31296         4.66719
LJ           6.30084        -6.17223         2.94355
LJ          -3.38812        -5.77013        -3.46886
LJ           4.94258         4.55544       -0.720151
LJ           -2.0535         4.26294        -1.81675
LJ           4.71767         1.49934         3.44368
LJ           1.79601         3.16482         6.39056
LJ         -0.195822         1.60258        -4.76609
LJ          -4.57316         2.14205         1.70882
LJ          -5.29098        -4.82354        -4.20182
LJ          -2.59444        -1.72119        -5.56912
LJ           1.29553         5.76436         1.57861
LJ           1.82013        -3.03205        -3.49032
LJ          0.750875        -2.46964        -1.13928
LJ          -2.92816           3.334         4.85956
LJ           3.60148         4.84356        -2.54688
LJ          -5.29448        -4.77444         1.45569
LJ         -0.901199          4.0797         6.21099
LJ           4.14487        -1.05017         5.86353
LJ           6.26057        -6.04384        0.559479
LJ         -0.481038       -0.870962        -2.77987
LJ          -1.92073         4.30085         4.58292
LJ          -4.95003        -3.50328         -3.6263
LJ           3.96355          6.4582        -1.60039
LJ           5.19372        -6.38862         6.37593
