108
#Comment!
LJ          -5.95636        -1.00252         2.63866
LJ           6.15833        -2.57585         2.47732
LJ          -3.37605        -2.19049        -5.25715
LJ         -0.201213          6.1482        -4.38024
LJ           -2.1343        -5.75381         3.21373
LJ           1.06385        -5.28669        -2.57094
LJ          -5.42933          4.4421         1.98482
LJ          -6.21592         4.65761         2.86967
LJ           3.01892        -1.44663         4.33134
LJ          -1.06286         5.52295        -4.92425
LJ         -0.121925        -6.07464        -5.42777
LJ          -4.77166        -2.42087        -4.34619
LJ          -4.83223         5.86485         2.77448
LJ          0.893293         4.77885        -2.64551
LJ          0.529072         6.13079       0.0874125
LJ          -1.91472         3.08332          3.6707
LJ          0.396983        -2.66481         4.66547
LJ           2.36986         1.17863        -1.32291
LJ          -6.39157        -4.48481         4.22102
LJ          -3.81284         5.14843        0.361349
LJ         -0.224657        -3.02023        -3.80563
LJ          -6.00606        -4.94054        -5.99058
LJ          -6.05364         3.36414         1.69117
LJ           5.63083        -5.79917         1.57835
LJ          -5.77603         6.31281         3.74639
LJ           -5.9672         6.43391        -3.43151
LJ           4.24474        -1.18352        -4.44382
LJ           5.09503        0.385779        0.765847
LJ          -4.21415         3.19532        -1.39935
LJ          -0.73179        -5.88015         2.53307
LJ           1.39702       -0.766658        -4.19923
LJ         -0.811264        0.440375         1.97501
LJ           1.91969         5.30982       -0.226023
LJ           1.45353        -2.03927         2.99223
LJ          -5.01607        -2.45665        -3.28665
LJ           1.07223         1.09771        -4.35765
LJ          -3.94063         2.52137         3.51585
LJ           3.70943        -2.61398        -1.50738
LJ           5.07785          5.9206       -0.270195
LJ           -2.3989       -0.405019        -1.04677
LJ           4.56914        -1.84482       -0.295578
LJ           1.41332         6.13733       -0.837513
LJ           1.69419         1.99829         3.69203
LJ           6.24939        -3.40131          3.2353
LJ           2.15322          3.5356         4.39276
LJ         0.0711059         4.23627        -6.07499
LJ          -3.89453        -4.81007        -1.74255
LJ           1.56397       -0.150721         1.17918
LJ         -0.299629         4.75334        -2.42174
LJ          -2.29739        0.882686         1.66444
LJ          -0.61494        -4.50792        -5.40094
LJ          -2.89617       -0.824004        -5.15764
LJ            4.2699        0.927408        -1.52989
LJ             2.038        -3.29041        -2.36401
LJ           2.47178          4.5259         4.61777
LJ          -4.65063         2.11679         5.43621
LJ           6.24902         5.35883        -2.68176
LJ           2.37772         1.10816       -0.148417
LJ           3.92338         -2.2408        0.588314
LJ          -1.12072        -4.81612        -4.47302
LJ         -0.747454        -2.34549         2.07054
LJ          -2.81102        -5.48264         5.79582
LJ            2.9073        -2.75545       -0.448096
LJ          -5.34366         2.36649        -3.95546
LJ           3.84668        -1.22258        -5.40015
LJ          -3.60427         1.67983           6.198
LJ          -4.69067        -1.39222         5.90214
LJ          -6.44341        -1.09867        -3.25359
LJ         -0.873179         6.39368        -5.99983
LJ           1.80548        -5.63087         3.55394
LJ          -3.98481         1.68389        -0.93118
LJ            5.9956         2.54316         -4.3061
LJ          0.972695         6.42191        -2.19767
LJ         -0.305554         1.30019        -5.75425
LJ           5.69632       -0.667848        -1.11797
LJ          -2.31684         5.73136           1.169
LJ            4.1384        -3.45497          5.0708
LJ         0.0381013        -4.09203        -3.75229
LJ          -0.49259        -1.62803        -2.82044
LJ          -3.45345         6.04689         5.27022
LJ           2.21302        -4.29675         6.36567
LJ          -5.36123       0.0791638         4.36744
LJ           3.51245        -4.84594        -4.74559
LJ           4.67968         1.17361         4.65463
LJ           5.87501         4.81408         3.77494
LJ          -3.72537        -4.43853        -4.03583
LJ           4.48166         4.53118       -0.868701
LJ         -0.878488         6.11949        -0.69616
LJ            3.3942         2.57324         3.43222
LJ           2.37936         3.39494          5.6501
LJ          -1.65595        0.332796        -3.88867
LJ          -4.60151         3.26747      -0.0689595
LJ          -4.57983         -5.7789        -2.79528
LJ           -2.0251        -1.53366        -5.26977
LJ           3.10408         5.75257         1.66176
LJ           1.50968        -4.30607        -4.25202
LJ           1.19548         -4.2538        -1.29106
LJ          -3.61961         2.77709         4.53343
LJ           3.96662         4.60023        -1.71077
LJ          -5.57024         -3.1079         3.22148
LJ          0.965523         4.76148        -5.17523
LJ           4.50664        0.266844         3.66626
LJ          -6.45634          5.8516         2.94968
LJ          0.485608       -0.940595        -3.14334
LJ          -1.18301         4.08282          2.9399
LJ          -5.63113        -4.12303        -2.16424
LJ           3.48235        -5.77089        -1.38674
LJ           3.41017        -5.22499         -5.6039
