108
#Comment!
LJ           2.15423         2.44176         1.88967
LJ           2.20457        0.885124         1.40629
LJ          -3.94635       -0.520302        -3.62701
LJ           5.30896        -3.41466        0.024922
LJ          -1.99161        -6.17006         1.17859
LJ          -5.76752        -3.61236         -6.1126
LJ          -4.67531        0.259612        -3.85841
LJ           5.39779        -4.28284        -2.73736
LJ            5.1518         4.71627         6.43623
LJ           4.33662        -5.30182         2.28929
LJ          -1.70383         2.12239         2.04614
LJ          -4.68334        -3.61203         5.68157
LJ           0.59397         1.14167       -0.270857
LJ           2.68758        -2.50002         5.41595
LJ          -1.46696        -1.75753        -5.03853
LJ          -2.64727        -4.58751         5.25561
LJ          -3.23751        -4.24234        -0.68251
LJ          -4.76638         2.83826         2.14605
LJ           4.76054        -2.05051        -3.85161
LJ          -1.39464        0.717981        -2.72122
LJ          -3.84518        -3.88101        -5.05193
LJ           3.23884         4.20979         -2.6956
LJ           6.22254        -6.23121         5.68252
LJ           -4.2579          2.7973        -2.58808
LJ           3.34498         4.64435         5.77598
LJ          0.245925         4.99913       -0.336719
LJ          -5.69985       -0.712841         5.14339
LJ          -3.84388         3.23756        -5.27889
LJ          -4.73243        -4.95402         5.78351
LJ        -0.0322388         3.70682         1.96777
LJ          -2.69495         1.30356        -4.62608
LJ          -4.15469         6.06898        -6.45438
LJ        -0.0012208        -2.88963         4.38734
LJ           4.07464        0.189741       -0.927455
LJ           5.44294         1.40608        -3.00195
LJ           5.32883         2.81955         2.51893
LJ           4.03956         1.29202        0.932167
LJ           2.19849         0.44066         -2.3058
LJ          -2.11683       -0.191486         2.31044
LJ          -5.44575         3.35507        -2.65117
LJ           5.16087        -2.22237         5.76088
LJ           6.25868         1.52971        0.880637
LJ           -2.2877        0.200198        -3.62277
LJ         -0.763543           5.441         3.30088
LJ          0.910575       -0.819299         1.19964
LJ          -5.53504         1.28157        -5.12009
LJ           4.20679        -5.14999         5.69282
LJ          -5.51127         1.75079        -1.34294
LJ           6.22047         4.02058        -6.17497
LJ          -1.59555        0.616096         3.24033
LJ           4.99762        -1.51833        -4.86451
LJ           1.95998        -6.32376         1.47315
LJ            3.4451         3.36421        -4.70431
LJ           6.23621         4.97737        -5.23475
LJ           5.79348         2.69717        -4.74208
LJ           1.89619        -3.28477       -0.828704
LJ           2.66903        -5.23884       -0.582891
LJ            4.6891        0.533669         3.32505
LJ          0.221531         1.11511        -5.64238
LJ           3.80956         4.30993         1.71335
LJ          0.643584        -1.44103        -1.20027
LJ          -3.23431         2.93729        -1.84182
LJ          -4.23917         4.09843        -2.11852
LJ           3.84389        -2.61577         6.12259
LJ          0.809564         2.96834        -1.28594
LJ           1.08936        -1.95454         3.98321
LJ           2.36509         6.06959         4.62919
LJ           2.76652        -1.18353        -1.72464
LJ           -1.9288        -3.74991         3.80963
LJ          -2.32833         4.36817        -3.50601
LJ           1.52057         2.88359        -4.52958
LJ          0.509676         5.86931       -0.269501
LJ           6.24291        -5.39903        -3.12712
LJ          -5.21017          -3.799        -2.71652
LJ          -3.01897       0.0394468         1.23566
LJ          -4.70916         1.25715        -1.17533
LJ           -1.0369        -3.45875        0.891966
LJ           4.84279        -5.18229       -0.102736
LJ          -3.93134        -3.18617         6.31216
LJ          -6.22101         2.51955        -3.27296
LJ          -4.11452        -3.48405         2.22974
LJ          -4.47442        -4.14749        -6.33929
LJ           1.03916        0.104129         4.99532
LJ          0.363104       -0.149318        -5.83075
LJ           4.05102         2.96135          6.0232
LJ          -3.78335        -3.11724        -2.52933
LJ           5.59314        -3.87189         1.54497
LJ          0.743218        -0.72755         6.16851
LJ           3.14256         -3.2135      -0.0605775
LJ           5.75854        -4.22424         3.44954
LJ          -4.68486        -2.51106        -2.71091
LJ          -4.20743        -1.90125        -3.72658
LJ          -5.74491         2.81422        -1.36838
LJ          -5.16889       -0.294354         3.78339
LJ          -1.23027        -1.80749        -3.21629
LJ           3.48331       -0.782003         -6.0289
LJ           4.42538         4.63289         2.66378
LJ         -0.206187         3.20565         3.44321
LJ          -3.12973         1.60115        -1.02524
LJ           2.42087        -2.06292        -1.31594
LJ          -4.41254        -3.77521        -3.76026
LJ           1.38385        -1.28563        -2.37166
LJ           3.71274        -4.90456       -0.028869
LJ         -0.721635        -1.03816         3.53612
LJ          -5.37618         2.17109        -2.68943
LJ          -1.08653        -4.32376         3.06382
LJ           6.36565       -0.197635         5.66338
LJ          -6.39953         1.47324        -3.78321
