108
#Comment!
LJ          -3.68302         2.95528        -2.40428
LJ           3.04635       -0.311676         1.44091
LJ          -4.36837        -3.59084         3.88848
LJ          0.724889        -1.24486        -1.92767
LJ          -4.81612         2.62239        0.789424
LJ            -1.154       -0.505968        -1.77654
LJ           3.77183         -6.0471        -4.32934
LJ          -5.26739         1.92413         4.93787
LJ          0.649926        -2.07407         4.64594
LJ           2.15107        -2.71615        -5.82747
LJ          -2.52756         2.72162        -3.37357
LJ         -0.365839          2.5291        -1.73611
LJ          -1.25157         3.82185         2.49682
LJ          -5.15407         -4.3449        -4.01519
LJ           3.11395        -2.96076          2.8859
LJ          -3.43288         1.78556         4.07819
LJ           -5.5865        -1.11601        -2.04999
LJ          -0.65599         5.22346        -5.08103
LJ           6.33922        -3.13848         3.57901
LJ          -5.61857         1.95586        -0.40217
LJ           4.81079         -4.5616         5.87216
LJ           2.51709         5.03838        -4.74291
LJ           1.91516        -2.46689        -3.59315
LJ          0.942192         1.28805        -5.00149
LJ          -5.73378         3.04598        0.173116
LJ         -0.467153         2.37734         4.99009
LJ          -5.18624       -0.423507        -5.45568
LJ          -1.44827        -2.24567         5.06446
LJ          -4.16155         2.35066        -0.32931
LJ         -0.275159        -2.79625        -4.07622
LJ          0.781305         -0.5138        -2.61053
LJ          -3.68378       -0.459037         2.71221
LJ          -1.18669         1.93587       -0.211062
LJ          -4.22943         3.25038        -1.55846
LJ           4.33278        -5.08705         3.07056
LJ          0.255221        -3.33574        -5.39497
LJ           -1.1784        0.450191         1.26015
LJ        0.00714033        -2.81079         3.37303
LJ           1.07326         4.05749       -0.264092
LJ           5.56382        -3.75083        -2.48513
LJ           4.61461         2.72813        -0.30798
LJ          -5.85324        -5.03404         2.92753
LJ           3.76532        -2.29868         1.53952
LJ           5.69584         1.06168         2.41758
LJ          -2.49565         5.01392         4.40783
LJ          -6.41128         4.38218        0.581924
LJ           1.80136        -2.36893          4.2693
LJ            2.6053       0.0126388         4.02333
LJ          -4.26174         3.86392        -3.99295
LJ          0.255678         1.25106         4.54248
LJ           4.04239        -3.80752         5.94751
LJ         -0.584899       -0.780007         2.42748
LJ          -5.41525        -2.74259         -0.1691
LJ           4.77459       -0.676154        -2.16731
LJ          -5.04194         -4.8619        -1.23431
LJ          -5.53787         3.12541       -0.916974
LJ           0.89739        -3.51533        -3.41807
LJ         -0.850311        -4.31613        -5.79316
LJ          -3.37034        -1.92503          1.8513
LJ         -0.268025        -3.96878        -2.81702
LJ          -5.09996         2.72665         3.10382
LJ          -2.47198         2.21493          5.8106
LJ           5.20004        -1.24005        -4.86945
LJ           5.95448        -6.12055       -0.105014
LJ            -3.058        -3.34092        -5.97617
LJ        -0.0926395        -1.94821          1.3584
LJ           5.93022        -3.70841        -1.53052
LJ          -2.77181          2.4852         2.37999
LJ          -3.02684         5.37543         3.72124
LJ           2.01865         4.24832         5.29413
LJ          -2.18396         4.78368        -2.14305
LJ          -6.35558         1.88358         4.89184
LJ         -0.905125        -4.20566        0.656934
LJ           -1.7106        -1.80236        -6.14741
LJ          -2.63847         2.82856        -2.00569
LJ          -2.07179       -0.537996        -4.33464
LJ           5.09651         2.68962         5.24955
LJ          -1.00822         2.73089        -5.78556
LJ          0.666936        -1.63987        -2.82554
LJ           5.26757         3.63871         1.56015
LJ          -3.52135        -1.97278         3.04202
LJ           -4.9324         2.38709        -4.45901
LJ           -1.9881        -3.13879         4.61575
LJ           3.13739         1.00774          1.1555
LJ          -6.30084         4.89336         4.98682
LJ          -5.13415         1.72329        -5.51626
LJ           5.18708        -4.96858         4.52728
LJ           6.02837        -5.50266         5.62954
LJ           3.46777         5.93091           2.562
LJ          -6.03523         4.03918         2.49717
LJ          -5.47896        -1.36348        -4.95763
LJ          -5.72894        -2.77414         6.34153
LJ          -5.33041        0.039763        -2.05245
LJ           2.84718        -3.62047        -4.93014
LJ           5.48647         4.62666        -4.49252
LJ           3.00103        -3.56835         4.98079
LJ           3.63601         2.03613         5.14298
LJ          -3.52826         3.06669         0.34698
LJ            3.0356         5.33802        0.247005
LJ            3.6872         4.19099        -6.02879
LJ           -2.1945        -5.98442        -6.22154
LJ           6.09127         -5.7198        -5.43061
LJ          -5.84301         4.41088         6.39136
LJ          -1.53511        0.118888        -0.70065
LJ         -0.184574         1.95758        -3.33316
LJ          -6.42317        -4.93232         4.66562
LJ           1.24644         4.06413          3.4133
LJ          -2.99084         4.67749         1.46922
