108
#Comment!
LJ           2.01322         4.30654         2.19101
LJ           1.47853         1.21514         2.47133
LJ          -5.55575       -0.499276        -3.55024
LJ           4.07578        -2.54919         2.13627
LJ          -2.13086         6.28811        0.484187
LJ           -6.3113        -3.64127         5.49203
LJ          -5.64549         1.20853        -4.32239
LJ           4.80411        -4.12539         -4.1425
LJ           5.04561           5.932         3.01203
LJ           3.60589         -1.9724         3.90396
LJ          -1.85272         2.37237        0.266463
LJ          -2.51788        -2.52185         4.57527
LJ          0.908747        -1.33544       -0.913714
LJ           1.16754         -2.1914        -5.16412
LJ         -0.806987        -1.80818         5.58198
LJ           -4.2478        -3.12655         6.26856
LJ          -2.22076        -4.94995         2.48987
LJ          -6.41185         2.51551         1.86867
LJ           3.49474        -4.31646        -5.29517
LJ         -0.635419         1.09354        -1.61543
LJ          -2.47901          -4.107        -4.56904
LJ           2.01998          2.2243         -2.2409
LJ          -6.13563        -4.59447         4.18763
LJ          -5.65427         2.19846        -3.24095
LJ           4.35735         2.41023         2.87692
LJ         -0.708995         2.70628       -0.677257
LJ          -5.27869        -2.18186         6.08154
LJ          -4.81296         3.36111        -4.61275
LJ          -4.15862        -4.37676         6.25667
LJ          -1.64086         3.64898       -0.224389
LJ          -2.13581         1.29626        -3.89808
LJ          -3.13294         -5.7492        -5.86721
LJ           1.69716        -2.04272         1.13127
LJ           4.59037       -0.151881         -2.1696
LJ           4.54118         1.98741        -5.06938
LJ            4.9503         1.75601         1.45817
LJ           5.94879       -0.711658         3.08941
LJ           3.38746       -0.821517        -2.79665
LJ          -1.94041        -1.19157        0.206237
LJ           5.17513         4.99479        -2.86439
LJ           4.66928        -4.39733        -6.10959
LJ          -4.77132         1.54469         1.16116
LJ          -2.11439       -0.220604        -2.11434
LJ          -2.12634         2.07499         1.19715
LJ          0.029337        -1.86832       -0.232681
LJ          -6.37838        0.277923         -5.4387
LJ           4.06893         5.50094         4.66768
LJ           -5.4616         3.05186        -2.30227
LJ            2.6826         4.52391        -5.17358
LJ           1.64554         3.24597         5.10263
LJ           3.59726        -2.18066        -5.74194
LJ           4.39364        -4.13272         2.14265
LJ            2.1942         4.95535        -3.78144
LJ            5.9038         5.58463        -5.62593
LJ           6.32373         3.54777        -5.39953
LJ           4.19181        -2.84044        -1.58863
LJ           4.98108        -5.36735        0.405491
LJ           4.06999        0.945002         4.90658
LJ          -2.17699         3.00462        -5.55545
LJ           3.02338          4.2654         2.40826
LJ         -0.635349        0.248762        -2.44044
LJ          -2.61294         1.92566        -2.88751
LJ          -4.88067          5.9426       -0.893086
LJ           3.29759        -3.04715         5.13029
LJ          -1.53482         1.69827       -0.594081
LJ           2.24147        0.423074         2.69765
LJ           4.67526        -6.43396        -6.05693
LJ           4.96291        -3.74625        -2.08759
LJ         0.0539457        -1.14411         5.25669
LJ          -1.67693          3.4443        -3.52301
LJ            2.7746         3.59034        -4.53912
LJ            1.5592        -5.51297       -0.253744
LJ           5.12877        -4.31307        -2.82168
LJ          -4.45054        -3.86253         -3.0012
LJ          -2.67073        -2.49116         1.71463
LJ          -1.73034        0.484235        0.164555
LJ          -1.51114        -5.66961      -0.0714254
LJ           5.88716        -6.19524       0.0743611
LJ           -3.8285        -2.59634        -4.63808
LJ           -5.7725         3.36086        -3.73367
LJ          -3.81289        -3.90495        0.407121
LJ          -4.99843        -3.62081        -4.89258
LJ           0.52846         1.31339         6.24251
LJ         0.0737471        0.192753        -3.85736
LJ           4.74116         4.32326         4.78825
LJ          -2.20051         5.84557        -3.53102
LJ           5.11596        -4.50535        0.928529
LJ           1.74932        0.550808        -4.28967
LJ           3.36982       -0.808328       -0.833296
LJ          -5.57198        -3.14059         4.19574
LJ          -3.95848       -0.382511        -3.58595
LJ          -4.48723        -1.39029        -3.79045
LJ          -6.28068         3.69289        -2.63821
LJ          -5.23065        -1.37608         5.28945
LJ          -2.28501        -3.48321        -2.42069
LJ           4.20147        -2.48634         5.47485
LJ            2.7564         5.58283         3.25421
LJ          -1.87926         3.19297         4.98252
LJ          -4.22579         2.12294       0.0154258
LJ           1.67362        -3.02588        0.762438
LJ            -3.695        -5.32729         -2.9096
LJ          -0.36486         2.65891        -3.68821
LJ           3.82747        -5.11049          1.1812
LJ         -0.708905       -0.891495         4.41851
LJ          -5.07863        0.960838        -1.55285
LJ          0.605674         5.41002         3.89107
LJ           5.42645        -1.77153         4.97945
LJ            5.8399         2.28041        -4.82074
