108
#Comment!
LJ           2.95513        0.458536         1.03811
LJ           2.32004        0.458567       -0.087809
LJ          -3.04097       -0.360607        -1.30438
LJ          -6.30519        -4.47952       -0.842877
LJ          -1.80893        -5.37454         2.23215
LJ           4.28091        -2.90346        -1.62332
LJ          -3.42857       -0.788112        -4.14123
LJ          -5.70723        -5.19031        -2.25575
LJ           3.33649         2.01235        -5.06021
LJ           6.31832         3.87705       -0.392914
LJ          -2.07386           1.289         5.31559
LJ          -5.45465        -5.56046         4.10644
LJ         0.0698047         3.81228         1.53617
LJ           4.31004        -3.27656         1.90498
LJ         -0.130747        -2.67409        -2.47724
LJ          -1.00663        -5.96925         3.46845
LJ          -4.68284        -2.74594        -4.52207
LJ          -2.41745         2.97755         2.31174
LJ           6.07872        0.233643        -1.40473
LJ          -1.76468        0.517495        -3.86499
LJ          -6.34798         -3.3222        -5.28799
LJ           4.93334        -5.93474          -3.486
LJ           5.23516         2.72272        -4.60858
LJ          -4.41411         1.44556        -0.29132
LJ           2.15814        -5.25316        -3.02576
LJ          0.296691         3.15931        -1.78824
LJ          -4.73893         1.67624         3.54345
LJ          -2.34652         3.56543         5.74463
LJ          -4.65557        -6.45851         3.33704
LJ           3.08236         5.29262         1.45702
LJ          -3.64596         1.53288        -5.42613
LJ          -5.16085         3.37192         5.56223
LJ          -1.72366        -3.52225        -4.50358
LJ           4.58626          0.3528         0.79214
LJ           4.87961       -0.817878        -4.08148
LJ           5.99913          3.6846          4.4311
LJ           1.11413         3.97925        -1.96957
LJ         -0.357054         3.30885        -2.63919
LJ          -5.79366        -3.22948       -0.584052
LJ          -5.04788         3.53427        -1.94655
LJ           4.71973        0.671613         4.54773
LJ           3.86316         2.31858        0.535822
LJ          -3.48914       -0.275023        -5.78881
LJ           1.77253        -3.90006        -6.34203
LJ            1.8845        0.460202         3.49671
LJ          -4.64398         2.49865        -3.67151
LJ           4.13128        -2.25897        -5.51275
LJ           4.81487         2.41986          1.1483
LJ          -3.16358         5.00512         4.08763
LJ          -3.40216          1.7778         5.74099
LJ          -4.22784       0.0573188        -3.65822
LJ          -1.12423         3.44776        0.220936
LJ           5.48443         1.51435        -5.20846
LJ          -3.85296         4.92074       -0.526921
LJ           5.95153         0.27706        -3.08086
LJ          0.766089        -2.05144         1.39871
LJ           2.21042        -5.82503       -0.895014
LJ           5.69562     -0.00816092         1.03422
LJ            3.8447        -1.24322        -5.27801
LJ           4.76639         3.34013         1.83012
LJ          0.530408          -1.113         1.91912
LJ          -2.76265          4.5896        -1.06908
LJ          -3.86579         4.12765        -3.98368
LJ            4.9001        -1.19709        -5.76048
LJ           3.94838         4.86234        -1.91591
LJ          -2.19459        -4.65142         6.28216
LJ         -0.471747         5.57759         1.12771
LJ         -0.237208         1.31517       -0.511786
LJ          -4.48179         5.64449         2.05246
LJ           -1.8995        -6.20261        -3.96822
LJ         0.0516392         1.79003        -4.41533
LJ          0.796892        -5.48862      0.00546558
LJ            -5.659        -6.18617        -4.40136
LJ           4.05312        -4.52199        -3.59081
LJ          -2.66942         3.70305         1.17397
LJ          -5.29217         1.34215        -1.06997
LJ         -0.744022       -0.774911         1.40572
LJ           2.51368        -4.48921        -1.28321
LJ          -2.52595        -4.04528         3.48687
LJ            5.6768         2.15769        -2.28391
LJ          -4.24673        -3.08893         4.86453
LJ          -4.91573        -5.32407         5.41462
LJ           1.60198        -2.52772         3.57053
LJ           0.32129       -0.824978         3.70573
LJ           2.62365          1.4142        -6.14594
LJ           -2.7294         1.82122        -2.86333
LJ           6.02203        -1.79856         3.03173
LJ          0.542202        -2.02977         3.65093
LJ           2.16304         6.03878       -0.489063
LJ           3.39079        -5.12731        0.819236
LJ          -5.33902        -4.40258        -3.27071
LJ          -3.20936         -2.1442        -1.76393
LJ          -3.93164         1.85026        -1.97301
LJ          -5.27594         1.23112         2.73779
LJ         -0.471827        0.458022         -4.6141
LJ           2.19708        0.877662        -4.09628
LJ           5.64897         3.98623        0.780818
LJ           1.46532         1.39649         3.96806
LJ         -0.244648        -1.35839      -0.0888861
LJ           6.20574        -3.58668       -0.888999
LJ          -5.72164        -1.26047        -3.51329
LJ           1.51082        -4.84055        -4.38734
LJ           2.18306        -5.03784        -2.09995
LJ          -1.45225        -0.79919         2.54425
LJ          -4.55945           1.237        -2.59014
LJ          -3.40882         0.27993         1.89817
LJ          -6.33908         2.58725        -5.84984
LJ          -5.45257         0.13125         -3.4282
