108
#Comment!
LJ          -4.19583         1.49728      -0.0807999
LJ           4.34998       -0.708366         3.38651
LJ          -5.04925        -3.31685         4.42774
LJ          0.776143         0.95538         3.60998
LJ          -5.42922         2.06899         1.76246
LJ         -0.753669         4.76174        -2.58392
LJ           4.71628         5.40183           5.708
LJ          -5.18499         2.58109        -5.69123
LJ           2.36849       -0.344568         3.56042
LJ           3.18946        -0.21603         6.23434
LJ          -1.81659         4.41303         -4.6945
LJ          -2.71824         0.90383        -3.79763
LJ          -1.48532         3.59397          3.1467
LJ           4.24547         6.44605        -4.04471
LJ           2.14941         6.39694        0.117382
LJ          -2.91957         3.49427          3.2725
LJ           4.39486        -3.18871        0.459931
LJ           1.11349        -4.11682         3.14863
LJ           -5.9001        -3.69471         3.76634
LJ          -4.67684          3.5198       0.0631439
LJ           2.89151        -4.30787        -5.53724
LJ           4.76303         1.01069         5.68444
LJ           3.48462          1.2062         5.55853
LJ          -3.33922         3.71596         6.38791
LJ           6.26958        -1.28669         3.07549
LJ           2.58507         4.80913         5.97452
LJ           5.94603       -0.957071        -4.77472
LJ           1.29193        -1.09315         2.68414
LJ           -4.9458         2.54261        -4.25673
LJ         -0.638882        -5.51891        -1.30552
LJ          0.858139       0.0280181        -2.67482
LJ          -1.85658       -0.559037         2.00326
LJ          0.518538         3.39084        0.993702
LJ          -2.85156         3.01195         2.35017
LJ          -4.25788        -4.38644          0.4891
LJ          0.814046         5.79587        -4.99596
LJ          -3.13738         1.92788          2.5338
LJ           1.46846         4.47986        0.846328
LJ           2.89418          5.4322       -0.558546
LJ          -5.19374        -2.16159        -1.69702
LJ           5.35517         0.92532        -3.33981
LJ            4.3482        -6.31058         2.76644
LJ          -4.68703       -0.508972         2.73191
LJ          -6.35675       -0.355706         3.93367
LJ           0.22433         3.89584         5.13749
LJ           3.07204         4.53029       -0.797938
LJ         -0.649688        -3.53814         1.58034
LJ             2.332         -2.2149         2.57189
LJ          -2.42698         5.59678        -3.28605
LJ         -0.245689        0.865692         2.95207
LJ           2.01367        -4.42381        -6.12567
LJ          -2.54581        0.835429         4.63642
LJ           5.41213        -1.01773        0.690553
LJ           4.88844        -1.60439        -2.61304
LJ           6.07593         5.76695        -4.02121
LJ          -5.10994         3.80385        -5.14434
LJ           3.27017        -5.89318        -2.45585
LJ         -0.707478         -1.4364        -2.56828
LJ            5.2864        -3.47262         2.30328
LJ         -0.927031         6.33971        -5.16028
LJ           4.37966          1.0568         2.61475
LJ          -2.70287         3.95543         4.57739
LJ           4.41385        -2.54762        -2.07764
LJ           6.17363         6.02027        -1.79126
LJ          -5.65796        -2.57908        -5.89095
LJ           4.43784       -0.976344         1.55831
LJ           3.66606        0.256874         2.19925
LJ          -3.78452        -6.40391        -0.44866
LJ           4.52278         5.86906         4.43998
LJ           1.62683      -0.0515706         4.82448
LJ          -3.55706         3.74921       -0.654749
LJ          -5.94283         3.29323         -5.6524
LJ            0.1889        -4.22415        -1.19723
LJ         -0.409999        -1.86815        -3.83798
LJ          -3.36382          5.5877        -2.21699
LJ          -2.14813         1.99613        -1.80027
LJ           5.22944        -6.33539         5.43197
LJ         -0.766393         4.46114        -3.67456
LJ          0.470714        -1.21192        -2.34705
LJ          -4.07698         3.98125         2.65096
LJ          -1.12731        -3.17271         4.47338
LJ           6.44469         1.29842         6.26949
LJ         0.0326216        -2.09177        -1.89331
LJ           4.80785        0.824033         3.89651
LJ           6.01139         2.24117         4.68967
LJ          -5.20403       -0.265245        -5.24077
LJ           5.21852        -6.24727         1.70667
LJ           2.92966         -3.2828         2.73116
LJ           1.88854         5.01723          2.3929
LJ           4.75805         3.83122         4.03208
LJ          -4.87834       -0.941231         -3.2226
LJ          -5.26506        -5.66968        -3.90631
LJ           -5.4672         1.87688        -2.74966
LJ          0.253567         -2.9295        -4.58813
LJ            5.7042         5.80733       -0.621448
LJ           2.47318        -4.22642          5.7384
LJ           3.16458         4.80519         1.28745
LJ          -3.52351         2.29493        0.942102
LJ           3.41378          4.7788        -1.85672
LJ           5.77061        0.973789        -4.87817
LJ           6.27232         6.40299        -5.52173
LJ            5.7761         5.09266        -1.65434
LJ           1.82279         2.12614         6.14039
LJ          0.366621       -0.985741        -1.16476
LJ         -0.188216         2.76393        -0.74248
LJ           6.39111        -5.25693         1.78422
LJ           3.17255         4.76617         2.38193
LJ          -2.44532        -5.61291          3.3028
