108
#Comment!
LJ           -4.3724        -5.15044        -6.10951
LJ          -2.12834        -5.87039        -4.18948
LJ          -5.97521        -5.27072        -6.41344
LJ         -0.593234        -6.02499          -3.959
LJ          0.960905         4.77137        -6.08042
LJ           4.48382        -3.88839         5.02386
LJ          -4.88914        -5.33446        -3.01236
LJ        -0.0609501        -5.70896        -3.08062
LJ           6.40519          5.7566         6.08069
LJ           1.16566        -3.63546        -4.24765
LJ           1.81814         3.86609          6.4492
LJ           2.63729         5.56691        -4.33478
LJ            4.0388        -2.17485        -3.81449
LJ          -2.59425         1.38018         6.24553
LJ          -5.68675         3.57347        -2.00939
LJ          -5.14959        -3.62308        -2.59749
LJ          -1.57312        0.370936        -5.37971
LJ           1.48467        -3.69573          5.4128
LJ          -2.01233         2.70115        -5.05278
LJ           1.70533        -2.21979        -3.62662
LJ           3.42701         -2.2681        -5.74707
LJ           2.84937         3.47764        -4.34638
LJ           3.91982        -3.10535        -1.65218
LJ          -5.33386        -2.23903        -2.63109
LJ           5.61165         2.21195         -5.4402
LJ           6.04207         4.82189         5.59994
LJ          -5.53525         2.10574         -4.7728
LJ           -4.4774         3.73448         -4.1438
LJ          -2.71952        0.212708        -4.31027
LJ          -3.97499          3.6419         6.21204
LJ          -4.15334         5.81148        -5.57304
LJ          -3.55761         2.40175        -4.23301
LJ           2.82351        0.973576        -1.81174
LJ           1.51703         1.87589        -6.02491
LJ           0.89473         4.07613        -4.97312
LJ           1.70943         6.04436        -2.74058
LJ          -4.06362         4.03595       -0.625228
LJ          -4.68795        -6.45234        -2.40452
LJ          -5.33584         4.47702       -0.356928
LJ           -5.0744        -4.33839        0.889872
LJ         -0.656541        -5.41841        0.181627
LJ          0.412649        -2.38674        -4.28125
LJ          -4.05873        0.390085        -1.55341
LJ          -1.08353        -5.78995        -2.41026
LJ          -1.72858        -5.62043        -3.10874
LJ          -3.21726        -2.43916        -1.06765
LJ           2.58808        -4.22921        -1.95835
LJ           3.12747        -5.54791        0.190109
LJ           4.26172         3.39643        -2.02544
LJ          -2.49261         1.77722        -4.80721
LJ           4.17413          -1.608        -2.63326
LJ           -6.2936       -0.540298        -3.97638
LJ         -0.281536        -3.67516         3.79919
LJ          -1.53438         3.04994        -2.63475
LJ         -0.479564        -1.36458       -0.373529
LJ          0.252392        -4.02389         2.41601
LJ           2.35069         -4.4358        -3.64878
LJ           4.84188         1.38692        -3.48365
LJ         -0.688343         -1.8257         -1.6258
LJ           2.36648        -1.09503       -0.491736
LJ           6.36526         5.30995         -2.0064
LJ          -2.95308         3.38904        -3.13228
LJ           2.23311         4.38958        -0.20426
LJ            -4.746       -0.423509        0.300747
LJ          -2.69732        0.403794         1.21893
LJ         -0.387052         2.82607         -4.0637
LJ          -1.16727         1.01546        -1.25563
LJ           1.38245          4.3948        -2.76926
LJ          0.489164         3.67063        -3.54699
LJ           1.47118         4.31318        -1.00124
LJ          0.322113         3.58362         1.44175
LJ           2.98249         4.35781         1.78387
LJ          -5.64204        -6.15293          2.0452
LJ          -4.96001        -3.69322         4.53624
LJ          -5.94514        -1.85993         3.74809
LJ          -5.03046         4.62747         2.57546
LJ          0.604318         4.44025         4.44156
LJ         -0.290787        -5.18216         3.76428
LJ           1.31296        0.863118         4.44202
LJ             1.149        -5.06076         3.72026
LJ         -0.385675         5.05546        0.751353
LJ           5.00803        -5.10444         1.28555
LJ           3.87991        -5.29581         3.56873
LJ           3.65824         5.36345         5.49756
LJ           5.87321        -3.17084         2.14168
LJ           5.43245       -0.769553         1.66474
LJ          -5.04644         1.63043         4.48735
LJ           6.29254        0.161133         1.96309
LJ          -5.38318        0.922757         1.37783
LJ          -2.15526        -4.41281         3.47665
LJ          0.865046        -1.63282         3.29697
LJ           1.55276        -2.82952        -4.79333
LJ           3.52012        -3.53433        0.763348
LJ           3.86725         1.22074         2.18955
LJ            6.0989         2.41348         3.53662
LJ           4.73572        -1.78976         1.92109
LJ           5.80093         2.07195        0.564478
LJ           -4.8749         6.20259         2.50323
LJ          -4.53767         2.59973         5.01147
LJ          -1.09583         2.23603         1.61619
LJ          -1.62032         1.13754         2.17554
LJ         0.0472196         4.92192         1.97085
LJ         -0.793844         3.83584        -6.43961
LJ          -1.44836         1.67401        -5.41651
LJ           3.08554          3.7059         2.59453
LJ            5.6185         2.07385         2.09801
LJ          0.606149         1.63422         3.92203
LJ            5.4999        0.504167         5.79986
