108
#Comment!
LJ         -0.690947        -1.44256         5.23568
LJ          -2.57241        -1.12992         5.21143
LJ           5.05926         6.46062         5.99225
LJ           4.59614         3.23728          1.8052
LJ         -0.692561        -1.94036        -5.10963
LJ          -4.46032         2.67578        -4.43667
LJ          -4.17169         2.21185        -1.76017
LJ          -4.22096        -6.26211        -1.80063
LJ         -0.914834        -5.51222          2.6425
LJ          -0.72405         3.91483         3.26966
LJ           1.00406         3.04582        -1.48252
LJ          -3.35071        0.394259         3.35685
LJ          -3.09585         5.26331        -2.17562
LJ           -3.0037        0.613576        -5.87813
LJ           4.91069        -2.46102         -1.6207
LJ         -0.559667         1.92871        -3.07575
LJ          -1.61934          1.0023           5.566
LJ          -6.16971          5.2974        -5.59895
LJ           6.40855          2.0893         4.82163
LJ           -2.0273        -1.53251        -4.51746
LJ           4.34796         5.01641         -0.1852
LJ           6.09526       -0.999861        -3.25623
LJ          -4.85927          6.1397        -2.51942
LJ           6.06455        -4.54217         2.48217
LJ           5.25382          5.4753        -2.07323
LJ          0.418807        -5.84425         3.64702
LJ           4.20416        -5.47668         1.50155
LJ          -4.05945         5.40762         3.13096
LJ          -2.11421        -5.77365        -4.89379
LJ          -5.32072       -0.613864         4.49168
LJ           3.99043         2.74047        0.913414
LJ          -1.80173         1.72349         3.82231
LJ           4.35689         1.17976       -0.657911
LJ           1.50842          3.2476        -3.96014
LJ           3.34832         4.99168        -3.07557
LJ          -1.20341         -3.3514         -1.6483
LJ          0.529455         5.15445         -3.7755
LJ           2.63977        -4.76367        -1.54315
LJ          -4.43679         3.91825        -4.86207
LJ           2.95883         2.17904        -1.05583
LJ           6.35378        -5.07208        0.410849
LJ           2.21931         3.60529         5.00962
LJ           1.67069          3.5757         6.40101
LJ           3.26673          1.6898         4.95472
LJ          -1.13663        -2.18438         3.13801
LJ           4.36633         1.08298         5.19673
LJ           5.59224         1.47492         6.46209
LJ          -2.07762         1.23073         2.21471
LJ          -4.93516         4.40456        -2.30441
LJ           2.01949        -6.18975         1.40218
LJ           5.63606        -4.63392         6.17665
LJ          -1.35258          4.9793         2.48855
LJ           1.40726       -0.895363        -3.38845
LJ          -2.19555         1.48154        -3.75193
LJ          -5.40974         5.54006        -4.58971
LJ          -5.51828         4.02184          5.4689
LJ          -6.23152         4.83916        0.962926
LJ           1.36215        -3.63182         6.09421
LJ          0.218299         3.21655         -6.4278
LJ         -0.376559        -6.01781        -4.96819
LJ           -6.2636       -0.549656        -5.66271
LJ           0.58683         -4.0772        -1.67605
LJ           -3.5252       -0.917258        -2.16098
LJ           5.06361        0.917708         3.00961
LJ           4.14325        -6.45441         2.50468
LJ           3.83751         3.36286        -1.75516
LJ           2.94095         1.68415         6.18617
LJ           -1.6169          2.2519        -0.97341
LJ            1.9054        0.697805        -4.29702
LJ           4.02746         2.83764         4.39033
LJ           2.21424         1.30184         5.30799
LJ           2.86214         3.98433         1.71832
LJ          0.263707         1.21475        -2.83228
LJ        0.00318259          4.5632        -2.84825
LJ          -3.56572         1.51668         1.00343
LJ          0.859895        -5.17723        -1.38116
LJ           2.96595         3.04788         2.89804
LJ           2.56299        -3.90141         4.50451
LJ           5.92033        0.276852        -5.78971
LJ           5.20935         1.55147        -3.46522
LJ          0.164317        0.533571        -4.08144
LJ          -5.71725         2.02566         5.62042
LJ           2.46257         4.54443         4.48177
LJ          -6.20908        -4.38826       -0.381891
LJ          -3.39225        0.804004       0.0570416
LJ          0.323112        -1.22552        -3.54693
LJ           6.36727        -2.95655         4.74566
LJ           2.71691       -0.166357        -3.86815
LJ          -5.72384        -4.01273         1.09566
LJ          -2.48519         2.08747        0.475109
LJ           2.50226         6.43013       -0.406856
LJ         -0.818458         6.13544        0.269878
LJ          -3.68872         6.29303        -2.60036
LJ            -2.945         1.85174         4.08489
LJ           5.21704         1.10577         1.55454
LJ           5.57997         4.81758         1.16415
LJ           6.35665       -0.606322        -2.12532
LJ           2.83646        -5.78513        0.354822
LJ           2.61823        -1.06646         4.74954
LJ          -4.58675         4.08854        -1.33032
LJ           3.97584        -2.04825         -1.7482
LJ           5.23304          6.3404         2.98993
LJ          -3.14789        -3.21643          2.1762
LJ          -3.37178         -1.8908        -2.45164
LJ           1.22348          5.2066        -6.25321
LJ           5.70848         3.30952         1.71703
LJ          0.656104        -1.02222         6.45678
LJ          -1.04892        -3.94098        -3.90536
