108
#Comment!
LJ           3.59745       0.0580162       -0.230096
LJ            2.1951        0.268377       0.0156941
LJ           -3.6373        0.338159        0.116048
LJ          -5.14105         -5.5817       -0.771216
LJ          -1.44962        -5.41428         2.93286
LJ           3.08749        -2.84802        0.502419
LJ          -3.01301        -1.49508        -4.64082
LJ          -4.90175        -4.90704        -2.31591
LJ           2.62616        0.701111        -4.15584
LJ          -5.59629         2.47604        -1.48799
LJ          -2.48195        0.965947        -6.03454
LJ          -5.46695         6.28585         3.13751
LJ         -0.388166         4.82211         2.67552
LJ            5.0495        -3.62831         0.30462
LJ           1.19152        -3.46818        -1.63578
LJ         -0.451242        -6.43229          2.4726
LJ          -4.81868        -1.75971        -5.17512
LJ          -1.35898          3.0897         2.26064
LJ           5.32691       -0.115548        -0.28109
LJ          -1.72645        0.357229        -4.57906
LJ            4.4839        -3.15765        -6.11783
LJ           5.64095         -4.5786        -3.84446
LJ           4.94187        0.513763         -3.6936
LJ          -3.70377        0.944692         1.01156
LJ           1.55701        -4.34976        -4.22026
LJ          0.607911         3.15803         -3.0491
LJ          -4.25574         2.80975         2.74736
LJ          -1.72761          3.6787         4.87138
LJ          -4.81049         5.93594         2.38525
LJ           4.49513         6.17395        0.972621
LJ          -4.18035         1.25769         -5.5731
LJ          -5.66748         2.12209         4.87039
LJ          -2.42579        -3.83186        -2.79564
LJ           4.11584        0.194947        0.826546
LJ           5.23562        -2.06662        -5.04127
LJ           6.40053         3.89084         5.37136
LJ         -0.425156         4.80777        -3.27651
LJ          -1.69064         4.83767        -2.84217
LJ          -4.25075        -3.85039        -1.17705
LJ          -4.63805         3.60961        -1.76472
LJ           4.49141         1.95477         4.03299
LJ           3.51798         3.25304        0.627777
LJ          -4.07565       -0.406719        -6.39187
LJ            3.4098        -2.88159        -4.84542
LJ            2.4917       -0.507474         4.28721
LJ          -4.16072         2.83462        -2.66763
LJ           4.33416        -2.57975        -4.97557
LJ           3.86097         1.15692         1.30974
LJ          -1.55902         5.49498         3.15537
LJ          -3.87496         2.65672        -6.20772
LJ          -2.38215        0.612292        -2.89287
LJ          -2.75594         2.08292       -0.141267
LJ           6.35957         1.28896        -5.03427
LJ          -2.85913         4.88022        0.487817
LJ           5.38401        -0.33036        -3.12348
LJ          0.557563       -0.623855         2.24101
LJ           2.48551         6.13466        -1.11312
LJ          -5.93673       -0.504062         0.33132
LJ           3.37785       -0.645513        -4.29838
LJ           5.03097         4.20033         3.48761
LJ          0.148021        0.497757         1.85839
LJ          -2.79958         5.38468       -0.618653
LJ          -4.21151          3.9007        -4.54324
LJ          -6.01892       -0.227159        -5.78201
LJ           5.30552         5.64476        -2.12669
LJ          -4.29429         -5.2538        -5.52319
LJ           -1.7978         5.25551        -0.47139
LJ          -1.06748          1.9153        0.162271
LJ          -5.61059         4.21947         1.53724
LJ          -1.23292        -4.74208        -4.36358
LJ         -0.296003         2.07597        -3.92532
LJ           1.05548         -6.1359       -0.191508
LJ          -5.04034         6.07939        -5.73548
LJ           2.37188        -4.98078        -3.80046
LJ          -1.77917         4.97737          2.2723
LJ          -4.66937         2.74836        -0.82267
LJ         -0.952673      -0.0403337         0.95297
LJ            1.4939        -3.33206        -0.26396
LJ          -2.20988          -4.205          2.1561
LJ           5.37307         1.75708        -1.77855
LJ          -4.18715        -3.01415         6.10274
LJ          -5.07711        -5.86038         4.77971
LJ           2.53474        -4.15336         2.68176
LJ        -0.0400699        -1.28424         4.57067
LJ              1.82        0.546311        -6.09837
LJ          -2.41393         3.71531        -3.25955
LJ           6.17803       -0.897635         3.71145
LJ          0.820472        -2.53522         3.45367
LJ           1.59507         5.26194        -1.21891
LJ           2.25479        -5.55415       -0.504769
LJ          -5.44967        -5.35219        -3.34694
LJ          -2.66139         -2.0122       -0.837785
LJ          -3.00408         1.14048        -2.22982
LJ          -5.31854           1.866         2.30852
LJ          -1.00284        0.672627        -5.34611
LJ           1.65462         1.55748        -3.55212
LJ           5.45068         3.64934       -0.371204
LJ           1.65891         1.59979         4.93559
LJ           1.06945         -2.6533        0.507888
LJ           4.19285        -4.36827        -1.54142
LJ          -6.09105       -0.639991         -3.5109
LJ           1.47524        -6.40547        -5.25681
LJ           1.24705        -6.01773        -1.12243
LJ          -2.17687        -0.10848         1.51631
LJ          -4.68567         1.27412        -2.36869
LJ          -4.44091         2.45172         1.48754
LJ          -6.34607         3.75421        -5.13793
LJ          -4.57316       -0.202659        -3.79801
