108
#Comment!
LJ           4.12017       -0.179284       -0.851334
LJ           2.56039       0.0536828        0.180816
LJ          -4.11989        0.784026        0.766698
LJ           -4.4442        -6.17652       -0.901943
LJ          -1.08731        -5.65898         3.22835
LJ           2.70841        -2.84482         2.20755
LJ          -2.75266        -2.00259        -5.05473
LJ          -4.39609        -4.75577        -2.54839
LJ           1.55037        -0.13423        -3.24303
LJ          -5.64518         1.29437        -1.86187
LJ          -2.88496        0.750188        -4.67226
LJ          -5.56148          5.4749         2.59832
LJ         -0.603557         5.53015         3.48078
LJ           5.61187        -3.90731        -1.02061
LJ           2.33093        -4.13533       -0.776305
LJ         -0.306122         6.07114         1.89625
LJ          -4.87017       -0.903617        -5.73756
LJ         -0.521143         3.29556         2.19802
LJ           4.72398        -0.34875        0.677919
LJ          -1.77592        0.113751        -4.93232
LJ           2.70694        -2.82514        -6.44479
LJ           6.21359        -3.46348        -4.13797
LJ           4.10732        -0.15597        -3.98969
LJ          -2.84801        0.648312          2.3513
LJ          0.992757         -3.6549        -5.30049
LJ          0.682294         3.13965        -4.14992
LJ          -4.11064         3.46903         1.84266
LJ          -1.22741         3.77789         4.14213
LJ          -4.83044         5.40594         1.42612
LJ           5.63504        -6.03847        0.571279
LJ          -4.18704         1.31793        -5.16079
LJ          -6.10565         1.14171         4.30959
LJ          -2.21726        -3.86284        -1.99212
LJ           3.49815       -0.626793        0.139876
LJ          -6.14667        -2.65368        -5.98724
LJ          -6.16742         4.01702         6.13273
LJ          -1.33348          5.3841        -4.28856
LJ          -3.16137          6.1202        -2.86486
LJ          -3.71073        -4.69346        -1.13042
LJ          -3.92321         4.28775        -1.83207
LJ           4.31083         3.00361         3.61325
LJ            3.3173         3.93675        0.747409
LJ          -4.60694        -0.51673         6.15609
LJ           3.64142        -2.50491        -3.58465
LJ           3.01079        -1.39038         4.87654
LJ          -3.64711         2.54637        -2.01407
LJ           4.73554        -3.04072        -4.62937
LJ           2.88883        0.830872         1.60616
LJ          0.498022        -5.85064         4.12697
LJ          -4.10724         3.51108        -5.85623
LJ         -0.542804        0.625527         -2.8652
LJ          -4.77087         1.29413        -0.32483
LJ          -5.86981         1.07059        -4.82807
LJ          -2.54715          5.0054        0.835997
LJ           4.93408         -1.6866        -2.06006
LJ          0.198185        0.929584         2.68509
LJ           2.08376         5.67015         -1.1667
LJ          -4.96087       -0.861705       -0.288738
LJ           3.10181       -0.204351        -3.69397
LJ           5.25499         4.87374         4.82228
LJ          0.436388         1.54584         1.70812
LJ          -3.36583         6.20337       -0.794775
LJ          -4.56293         3.70033        -4.83168
LJ          -4.82391       0.0751867        -5.89994
LJ           6.41023         6.28313        -2.29492
LJ          -6.01709        -5.78697        -4.60738
LJ          -2.11651         4.73651        -1.60341
LJ          -1.11808         1.93329         0.69644
LJ           6.44526         3.04676         1.16483
LJ         -0.698819        -3.53777        -4.66916
LJ         -0.315781         2.68314        -3.38227
LJ           1.27865         6.15917        0.768915
LJ           -4.5262         5.59107         6.12759
LJ           1.07377        -5.37216        -3.97188
LJ         -0.997486         4.46185          2.3943
LJ          -4.27362         3.80564       -0.620543
LJ          -1.59507        0.481726        0.212851
LJ           1.09098        -3.14404       -0.764147
LJ          -2.13192        -4.02232          1.1311
LJ           5.15311         1.42507        -1.36513
LJ          -4.14482        -2.93433        -5.79605
LJ          -5.23394        -6.33843         4.17095
LJ           3.24461        -5.43077         1.96082
LJ         -0.317901        -1.84792         5.99522
LJ           1.19359       -0.136774        -6.01788
LJ          -2.12135         5.08123         -3.6685
LJ            6.3068       -0.157461         4.26191
LJ            1.0391        -2.82211         3.26815
LJ           1.41233          4.8957        -1.85942
LJ           1.53473        -6.00548        -1.51035
LJ          -5.38471        -5.99702        -3.01686
LJ          -2.22522        -1.89711      -0.0875389
LJ          -2.85558         1.05105        -1.96858
LJ          -4.90949         2.84267         1.83979
LJ          -1.58605        0.679132        -6.23909
LJ           1.37531         2.05269        -3.28149
LJ           5.29333         3.34566        -1.31647
LJ           1.77491          1.8427         5.78288
LJ           1.15783        -2.90385         2.32022
LJ           2.37704        -5.05647        -2.07473
LJ          -5.72883       -0.524139        -3.74058
LJ           1.47102         5.30365        -5.88979
LJ          0.599822         5.77232        -1.66096
LJ          -2.82182        0.570764        0.638912
LJ          -4.09382         1.27809        -2.41883
LJ          -5.46899           4.151         1.65916
LJ          -6.33246          4.6714        -4.56622
LJ          -3.88721       -0.345693        -4.09886
