108
#Comment!
LJ          -2.15766         1.00184        -1.85971
LJ         -0.809666         2.06509        -1.92469
LJ           6.00376        -5.59729          3.6524
LJ           5.06487          2.1167        0.815755
LJ          -3.87431         4.23152       -0.581779
LJ          -3.51377         6.40336       -0.232554
LJ           2.87111        -3.40833       -0.828491
LJ          -5.96071        0.723592         1.36003
LJ          0.637925        -5.97354         4.61823
LJ           1.28122        -6.20028        -2.32029
LJ          -3.93692        0.885853        -1.88468
LJ           5.05512          3.8036         3.46724
LJ          -2.31269         4.25171        0.635611
LJ          -2.37528        -0.80814        -4.25797
LJ          -2.00317         -0.9796        -5.50501
LJ          -2.74633        -1.89802         6.45032
LJ          -3.13027        0.602676         6.12064
LJ          -2.59631          3.8733       -0.421378
LJ          -4.06648       -0.683496         4.04875
LJ          -5.53192        -0.15568         2.04774
LJ            4.4683        -4.20504          3.3399
LJ         -0.780296         -4.0134        -3.45365
LJ          -1.92788          5.3409        0.461456
LJ           -5.4768        -3.15476        -4.10448
LJ          -4.99378         2.17351         1.12668
LJ         -0.183038        -3.37979         3.18373
LJ          -2.55082       -0.192231        -5.82569
LJ          -3.74897         -5.3252         4.39989
LJ          -6.29164         2.28227         2.19765
LJ         -0.749358         2.66835        -2.80827
LJ         -0.605602        -1.57485        -5.55258
LJ          -4.62094         0.67753         3.35127
LJ          -4.18556        -1.45741       -0.719937
LJ          -4.95258         1.24247          -5.882
LJ          -3.37105        -4.28098        -4.82944
LJ          -3.12339           1.237         3.05861
LJ          0.655161        -1.60888       -0.373457
LJ          -1.42119         1.86665         5.01446
LJ           -2.1277         3.04631       0.0173773
LJ           2.09551        -5.96787        -5.42803
LJ           3.55511         4.33171         4.29445
LJ          -2.56883        -1.72777         2.66393
LJ           3.37176        -2.64786        -3.74261
LJ           4.97641         4.59916       -0.641612
LJ           -3.1194         4.54169        -3.02044
LJ          -1.61892          5.3281        -1.84979
LJ           2.76945        -1.34491        -4.12429
LJ           2.67057         3.38702         6.09876
LJ           6.15762          3.3978        -2.11063
LJ         -0.824241         5.92678        -4.66882
LJ           4.81979        -2.94336        -5.44435
LJ           2.58042        -6.40479       -0.912345
LJ          -3.70467        -1.56467        -2.36486
LJ           1.50483       -0.503791        -2.61405
LJ            -1.788        -5.88407          2.8984
LJ          -1.81588         3.94749          5.9969
LJ           0.13043        -1.67016        -2.37476
LJ          0.890714         -4.1691         0.80148
LJ          0.507686         2.75461         3.60685
LJ           1.60042        -3.22307        -1.70502
LJ           5.23002         3.04282           5.715
LJ         -0.404994        0.161546        -5.77405
LJ           2.07756        0.660933         4.53466
LJ           5.74641         4.29442         1.57054
LJ         -0.256919        -2.00663         2.92322
LJ          -4.83118        -4.13838         1.68202
LJ           5.39873         1.66627        -3.90563
LJ          0.708418        -2.81365         3.48396
LJ          0.695787         5.08957        -2.17256
LJ           3.42209         -5.5649         3.96384
LJ          0.294676        -4.83757         -5.6727
LJ           5.80498     -0.00441517         1.80909
LJ          -2.80412        -3.82594          3.1835
LJ          -3.31444        -2.78159         -5.6464
LJ          -3.14019        0.400185        -2.79352
LJ          0.632865        -3.03061        -4.99739
LJ           5.26469        -3.54381         4.12091
LJ          -2.01353        0.997839         2.26334
LJ           3.49097        -3.88437         4.47805
LJ         -0.577074          3.9028         2.38697
LJ          -3.46424        0.874754        0.541862
LJ          -2.28919         2.19378        -5.60382
LJ          -5.12609        -5.60541         5.57978
LJ        -0.0122495         1.06243        -2.43659
LJ           6.45336        -4.18611        -6.30629
LJ          -6.15312          4.7164        -6.26402
LJ          -4.45223         6.29792          3.7592
LJ          -3.51598         1.89065        -2.60589
LJ           5.69276        -6.25613          2.7127
LJ          -4.75453          4.6754        0.726892
LJ          -5.60373       -0.644379         3.88282
LJ           5.10297         1.17186         3.72287
LJ          -2.40289         5.28891         2.69959
LJ          -6.36959        -2.46215        -5.00947
LJ           5.34519         2.95812         1.52997
LJ          -6.22645        -4.30287        -4.46452
LJ            5.2914        -1.42278        -1.96949
LJ          0.918971         4.52446        -1.24755
LJ           2.41852        -4.29531         3.10938
LJ           5.28143        -3.97294        -5.59229
LJ          -2.61905         6.17048         -4.0262
LJ          -5.72922        -1.69325         4.23162
LJ          -3.80679         4.11013         5.25957
LJ          -4.16933       -0.854465        -3.10806
LJ          -2.99978         1.88623        -3.68138
LJ          -6.27248        -4.41433         5.00875
LJ           -1.2756         5.99086         2.04891
LJ           2.57794        -6.17364         4.98799
