108
#Comment!
LJ          -4.31472         5.98175         3.28874
LJ           -1.3963         3.60972        -4.67393
LJ          -3.84053         4.86319         3.62486
LJ           5.66135        -3.93914       -0.167761
LJ           3.51682        -1.46987         1.02358
LJ           1.84649        -4.21806        0.444275
LJ           3.01538         0.22067        0.487889
LJ           5.88742         4.23275        -4.93401
LJ          -1.73014         3.00286         3.87029
LJ           5.58807        0.322147          1.5452
LJ         -0.332616        -2.34412        0.464001
LJ          -1.97672         4.22074         4.77058
LJ           -1.3463         5.20199         5.10922
LJ           2.94778         4.09095        -5.36988
LJ          -1.00218        -5.50727         3.03173
LJ          -1.13843         5.13947         6.39613
LJ          -2.65748       -0.175967       -0.165311
LJ          -5.57164         3.74009         1.60231
LJ          0.350564         2.21063        -5.54457
LJ           4.69697       -0.587713        -1.64993
LJ           4.66558        -3.40803       -0.358814
LJ          -3.62229        -5.23505        -3.32466
LJ          -4.85414         2.85352         1.37976
LJ          -4.31607        -3.42705          2.5294
LJ           5.50981         5.87777         4.89078
LJ           3.02828         2.53355        0.964945
LJ          0.634797         5.32059         5.40425
LJ           5.70723         3.68301         2.48009
LJ          -2.35299         0.91489     -0.00247471
LJ         -0.864366         4.66672       -0.694467
LJ           -4.1844        0.971414          5.5446
LJ          -5.75683         1.66847        -6.11603
LJ         -0.266044        -6.17307         2.98027
LJ          -4.47785       -0.548341       -0.788319
LJ          0.321238           3.257         2.41691
LJ           4.94225        -4.68751       -0.997734
LJ          -4.57411        -2.34233     -0.00609505
LJ             -2.74         3.79945         0.90807
LJ          -2.66217        -5.48474         0.15018
LJ           6.10725         1.96526        0.700246
LJ           3.79148        -4.41824        -5.05642
LJ           2.08712         1.23822         3.51524
LJ           5.41761        -5.85078        -4.51366
LJ          -3.87481         3.26606        -6.09851
LJ             2.451        0.995994        -2.20655
LJ           2.21161      -0.0102054          3.1485
LJ           2.53657        -2.07538         2.91772
LJ           1.56966        -4.95242        -2.40652
LJ          0.886867         2.56832        -1.61315
LJ          -4.74288         3.88618         3.01848
LJ          -5.58566         5.13757        -5.66057
LJ           3.59101        -1.44456        -5.35797
LJ          -6.39859         -1.0396        -2.99347
LJ           1.02021        0.391867         2.96346
LJ           2.28346        -4.63858         -1.4652
LJ          -3.86214        -1.70556         2.71467
LJ           2.93006        -1.94757         4.08971
LJ           5.26365        -1.18618         2.76605
LJ           3.62441         4.80858         5.62394
LJ          0.906007        -1.78092       -0.730455
LJ           -1.1036        -2.09319        -4.50998
LJ          0.636023         3.96081        -2.48546
LJ           5.95339          5.8228       -0.173959
LJ          -6.43238        -6.24293         2.05943
LJ          -5.03534        -4.32087        -4.01247
LJ           2.71043         1.46254         2.15896
LJ           2.03512         3.24052        -3.98531
LJ              2.43         2.65308        -1.44392
LJ          -5.58167         5.56001        -3.23552
LJ          -4.10976        -5.90488        -2.22057
LJ         -0.590942         2.23919      -0.0599895
LJ           5.49648         -6.2191        -1.20464
LJ          -5.37957        -4.80267         2.28811
LJ          -5.00302        -2.86214        -1.48299
LJ          -4.02625         6.17965         1.74847
LJ          -4.35704         3.58671        -4.87769
LJ           4.18696        0.297143        -1.80212
LJ          -3.74008         2.55577        -4.93132
LJ           3.46417         -3.3814         5.07197
LJ           4.99168        -4.77202         1.91463
LJ          -5.16262          2.3874        0.267464
LJ           3.48884         6.18729         2.33776
LJ           6.36626          4.5728         1.53378
LJ           3.51886         3.28882        -6.04338
LJ          -6.41478        -2.88085         2.65655
LJ           5.91853       -0.369964        -1.54018
LJ          0.530682          3.5948       -0.843795
LJ          -5.87436           2.724          1.5502
LJ            5.9421         1.22567         1.65496
LJ           4.16874         4.96872         4.85076
LJ           5.07973        -5.99112         4.07302
LJ         -0.394627        -6.09981         -5.8108
LJ           4.82697        -2.75156          5.7125
LJ           5.89355         3.82268         0.81185
LJ           3.71001        -4.15073        -3.04108
LJ           4.12501        -6.39855         1.20375
LJ          0.326564        -5.37118        -5.16842
LJ          -4.72016         5.49608          -6.118
LJ         -0.376637          4.6427         6.38428
LJ           3.74329         2.32946         0.33746
LJ           1.03234         3.29979        0.160896
LJ           3.81825         2.63789         3.22054
LJ           5.61445         6.13594        -3.23953
LJ          -2.93297        -1.41504         6.21031
LJ           4.56568         3.50923        -5.52008
LJ          -6.39982        -4.01343         5.03342
LJ           5.17109       -0.709687          4.3045
LJ           5.04127        -4.89368        -4.73739
