108
#Comment!
LJ          -4.29389        -4.22094         -6.2752
LJ           -2.2159         6.38753        -4.87534
LJ          -5.86636        -5.49931         6.27318
LJ         -0.183542        -5.98306        -3.75491
LJ           1.06624         4.35292         6.36693
LJ           5.35419        -3.91444         4.66906
LJ          -5.44566        -5.51096        -2.80908
LJ          0.711037        -5.47423        -2.80576
LJ          -5.50888         5.43568         5.90561
LJ          0.314094        -3.76943        -3.50211
LJ           2.20234         2.61509         5.75355
LJ           2.10096         5.37614        -4.38117
LJ           3.67879        -3.03456        -4.61776
LJ          -2.21263         1.62045          6.2507
LJ          -5.46765         4.21609        -1.59252
LJ          -5.36259        -3.94865        -2.19366
LJ           -1.5631        0.600077        -4.92179
LJ           1.83251        -4.28465         5.04996
LJ          -1.63135         2.82315        -5.02157
LJ           2.12556        -2.12603        -3.58511
LJ           3.64554        -2.26683        -5.47773
LJ           2.25823         4.12563        -3.93448
LJ           4.07245        -3.77758       -0.969777
LJ          -4.36924        -2.24225        -2.38922
LJ           5.45399         2.23772        -4.63509
LJ           5.32014         5.02281         5.48284
LJ          -5.44028         1.57158        -4.91137
LJ          -4.59399         3.85523        -4.12985
LJ          -2.67978       0.0600607        -3.76179
LJ          -4.79439         3.77913         5.62429
LJ          -4.20752          5.5912        -5.66843
LJ          -4.31933         1.99389        -4.59071
LJ           2.55492         1.50557        -1.22956
LJ          0.883114          1.4689        -5.81582
LJ          0.751188         3.51857        -4.71492
LJ           1.13703        -6.26388        -2.52982
LJ          -3.90608          3.6493       -0.288101
LJ          -4.51903         5.99107        -2.35377
LJ          -5.07464         3.49987       -0.411039
LJ          -5.26293        -3.79978        0.961924
LJ         -0.210876        -5.21495        0.536258
LJ          0.534614        -2.02578        -4.78551
LJ          -4.36964          1.3268        -1.87377
LJ          -1.22029        -5.95236        -1.61466
LJ          -2.39414        -5.02016        -2.95446
LJ          -2.23139        -2.05085       -0.853903
LJ           2.64948         -3.9389        -2.56812
LJ           2.74549        -5.33808        0.331621
LJ           3.77471         4.42606        -1.96799
LJ          -3.01351         1.78957        -5.26334
LJ           4.46475        -2.06589        -1.77915
LJ           6.25538       -0.300049        -4.71295
LJ         -0.359164        -3.18439         3.09816
LJ          -1.11331          3.2053        -2.16671
LJ        -0.0666255        -1.68735       -0.465548
LJ          0.638649        -4.59069         2.45991
LJ           2.27428        -4.42203        -4.10155
LJ           5.07303         1.61206        -3.59716
LJ          -1.23893        -1.97596        -1.65348
LJ           1.97147       -0.988247       -0.557548
LJ          -6.30947         5.80966        -2.27444
LJ          -3.94295         3.80546        -3.41541
LJ           1.26388         4.54445       0.0781197
LJ          -4.79869       -0.922421        0.245328
LJ          -2.84983      -0.0715647         1.89354
LJ         -0.432815          2.3141        -4.52464
LJ         -0.956905        0.361119        -1.65101
LJ           1.73027         5.04598        -3.19205
LJ          0.134065         3.91198        -3.74229
LJ          0.807368         4.32449        -1.16972
LJ        -0.0600672         3.37126         1.71503
LJ           2.77563         5.23274         1.74353
LJ          -5.53783        -6.02116         1.92138
LJ          -5.09701        -3.49479         5.10954
LJ          -5.77805        -1.21835         3.60336
LJ          -5.28401         4.42654         2.04887
LJ           1.25355         3.87321         4.79748
LJ         -0.487829        -4.59493         4.20664
LJ           2.37343        0.958579          4.8165
LJ           1.50441        -4.76668         3.49349
LJ         -0.831916         4.79059         0.65423
LJ           5.19476        -5.25044         1.08297
LJ           4.17512        -5.50884         3.39299
LJ           3.58758         5.15884         5.70226
LJ           5.76873        -3.26344         2.39552
LJ           5.47213       -0.354739         1.51293
LJ          -4.84909         1.52326         4.40167
LJ           5.74437        0.724434         1.41421
LJ          -6.01395         1.43336         1.27168
LJ          -2.55541        -5.02878         3.84766
LJ           1.52008        -2.27286         3.53809
LJ           1.34107        -2.62499        -4.33808
LJ            3.7889        -3.79637        0.557665
LJ           4.10974         1.29843         2.13964
LJ          -5.97025         2.94849         3.12614
LJ           4.41492        -2.13857         1.57698
LJ           5.73805         2.16054        0.452856
LJ           -4.7375         6.32314         2.85084
LJ          -3.78323         2.80144         5.18976
LJ         -0.520179         2.07954         1.12435
LJ          -1.71905         1.50449         2.09254
LJ         -0.034773         4.52657         1.40667
LJ         -0.521079         3.77987        -5.87956
LJ          -1.11762         1.88995        -5.02099
LJ           3.26551           4.255          2.9895
LJ           6.01069         1.61281         2.02762
LJ         0.0933022         1.77183         3.41639
LJ            5.5612       -0.165139         5.81633
