108
#Comment!
LJ            3.1948        -5.09851         5.82307
LJ          -5.38482        0.355233        -4.18386
LJ          -1.99383         1.19726        -6.15495
LJ           1.05009        -5.88688         1.33058
LJ          0.347657       -0.140226         1.06049
LJ           2.36589        -4.76976         3.57812
LJ          -1.57253        -3.70166         4.05194
LJ          -4.00339        -5.04966        0.166712
LJ           3.55783        -3.41843         6.07168
LJ         -0.315577        -6.41474        0.833015
LJ          -4.19588         5.56161        -3.75107
LJ          -2.86526        -1.92121         3.54918
LJ          -4.82818         6.09981         5.68656
LJ          -4.05888         2.00298         4.65426
LJ           1.53424        -5.62616        -2.61251
LJ          -1.22259       -0.993366        -5.96156
LJ          -2.72081        -1.94575        -5.43829
LJ           5.43438         6.16832        -5.51854
LJ          -6.40549        -6.07999        -6.22248
LJ          -2.28821        -4.97915         3.32929
LJ          -3.67726       -0.345852        -3.03423
LJ          -2.99056        -1.12048        -1.10925
LJ          -2.04097          2.6204        0.648624
LJ         -0.904798        -1.79945         6.38668
LJ          -5.87798       -0.961971         5.62067
LJ          -3.08241        -5.39778          1.9474
LJ           1.23396        -2.03896        -5.39949
LJ          -1.88305         2.37543        -3.29685
LJ          -2.50597        0.325654         1.73605
LJ            1.1637        -2.65643         3.90569
LJ           4.26197        -3.40541         4.37222
LJ          -2.58948         2.57685         3.52377
LJ           2.17016        -2.82752        -3.94734
LJ           5.90726         3.10433        0.840462
LJ           3.70056        -4.54875        -3.10943
LJ          0.726749         1.77638        -1.21257
LJ          -1.83399         3.19814         4.43102
LJ          -4.50061          2.3216         6.39206
LJ           6.00769         4.78448         1.27864
LJ          0.406526          4.0087        -1.09441
LJ           5.23787        -4.07295         -2.7995
LJ          -1.12906         5.58003        0.386944
LJ          -2.01346         5.07411         4.95871
LJ          -5.90061        -5.05071         1.98129
LJ          0.473083       -0.204264         3.06395
LJ           -4.1041         3.65432         1.58686
LJ          -2.73502        -3.33031       -0.672399
LJ           4.20834       -0.448831         2.51543
LJ          -1.04246        -1.99167        -3.11332
LJ          -5.58643         1.43113         2.03951
LJ          -3.94298        -1.58582         2.43126
LJ          -5.34731         1.77663        0.531783
LJ           5.84094        -3.44278         1.01101
LJ          -2.06113        -5.41047       -0.896545
LJ          -3.16786         4.63603         3.94347
LJ           5.00182        -3.22216         5.36601
LJ         -0.965531        -2.42307         1.00486
LJ           4.56928          4.7036        -3.12961
LJ            1.1176       -0.325229         3.93011
LJ         -0.294351         1.27128        -6.42808
LJ          -6.10724        -4.76627        -0.75429
LJ          -5.35293        -3.42724       0.0433356
LJ          -1.27445        -1.53853       -0.892988
LJ           -6.3274        -2.64112         6.03284
LJ           0.63912        -2.96184         -5.8018
LJ          0.111912         3.16653         6.26239
LJ           -2.7772         5.94107         1.19994
LJ           2.76869         6.21517         4.90421
LJ           5.75116         4.06144        -2.84645
LJ           2.66336         3.34144        -4.75757
LJ          -4.42335        0.744184        -3.41471
LJ            6.2721        -4.78663        -2.34217
LJ           1.60406         3.65984         -2.4051
LJ           -1.3193         6.07418         3.57605
LJ          -3.76619         5.78458         1.21059
LJ         -0.459865       -0.783549          5.7422
LJ           2.34702        0.574289         4.70142
LJ           2.43911         1.84088       0.0797243
LJ          -4.93969       -0.247717         4.65777
LJ          -1.70268        -4.45608        -4.38502
LJ           4.85608        -5.82512        -2.00348
LJ          -2.73931       -0.638093         1.59709
LJ          -6.15037        -0.94593        -2.30432
LJ            5.3867        0.705987        -5.71928
LJ           5.96439        -4.64294         2.66936
LJ          -3.35287         3.19595        -3.14262
LJ           6.03769         5.76105         1.78721
LJ          -5.42464        -1.09945        -4.73386
LJ          -3.35564        -1.18657        0.792947
LJ           3.32196         6.24767         2.79759
LJ          0.476715         3.12959        -3.60962
LJ          -3.71698        -1.76194         5.70526
LJ           5.76002        -5.39331         6.08963
LJ          -4.81552        -1.39635         -2.0294
LJ         -0.809613         3.67947         1.61875
LJ         -0.579633       -0.269215        -3.56555
LJ           2.33367        0.315409        -1.59219
LJ         -0.269105         5.17992         3.91158
LJ           1.76537        -5.87811         -6.1783
LJ          -6.29254         4.09554        -4.41135
LJ          -1.19176       -0.504994           2.039
LJ           2.71053        -1.90507        -2.73919
LJ           5.60607        -3.11979         6.23394
LJ          -2.12537       -0.869312        -2.61762
LJ            5.9777        -4.82804        -5.53542
LJ           6.37557        -4.18372         4.72874
LJ            4.8938         3.55678        -3.11705
LJ          -3.04853         2.96476         4.41454
