108
#Comment!
LJ           1.55115         6.44153          2.2062
LJ          0.828804         1.47569         3.85284
LJ           5.68567         1.47782        -2.69865
LJ           2.57403        -2.31237         5.05707
LJ          -3.03627         4.92715        0.410783
LJ           5.84401        -3.42376         2.98718
LJ          -5.16125          1.5333        -3.85505
LJ           3.87574        -4.21768         6.39236
LJ           4.13238        -5.17879         -1.7949
LJ           2.64858          1.9914         5.92902
LJ          -4.12889         3.19326         -1.6111
LJ         -0.258784        -1.18091         2.58908
LJ          0.834553        -4.66877         -1.4916
LJ          -1.61439        -2.03688        -3.35967
LJ           1.47534        -3.27015         3.68287
LJ          -4.18731        -3.38653        -4.72458
LJ           -0.9137        -5.78627         6.37346
LJ           4.69054         2.26672          0.9533
LJ           2.88758         5.86798         5.87944
LJ         0.0360461         1.19227        0.804213
LJ         -0.882435        -4.28893        -3.65083
LJ        -0.0306622       -0.256659         -1.8061
LJ           -5.7253        -3.67809         3.65138
LJ           5.27328         2.52815         -2.3357
LJ           4.58908       -0.053561         1.67405
LJ         -0.525384         2.14877        -3.67014
LJ          -4.99035        0.297233        -2.35582
LJ          -5.13693         4.01285        -6.12949
LJ           -3.8697        -2.78273         6.34895
LJ          -2.92326         1.91729        -1.98069
LJ         -0.782743         0.45594        -5.79745
LJ          -2.08777        -4.85249        -4.19337
LJ            3.7404        0.688441        -2.21479
LJ           5.92426       -0.777872        -2.75662
LJ           3.61431         2.54316         5.41043
LJ           5.25171       -0.191988        -1.87679
LJ          -5.04239        -3.35512         5.91722
LJ           3.75105        -2.72612        -3.98268
LJ          -1.77368        -2.22867        -2.05659
LJ           1.59912        -5.39287        -3.91739
LJ           3.41903         6.26073        -4.27322
LJ          -2.45983        0.862487         2.85767
LJ          -1.79583       -0.655012       -0.271209
LJ          -4.69159        -2.48746        0.662856
LJ         -0.879024        -2.85914        -2.27791
LJ           5.53809       -0.610216        -5.52195
LJ           2.76856         2.97217         4.40572
LJ           6.23467         2.38776        -3.33638
LJ         -0.570008        -6.39671         -5.0829
LJ           5.71459        -6.34726         -5.4913
LJ           4.76764        -2.91761         6.34789
LJ          -5.34879        -1.55044          2.1502
LJ          0.987118        -6.26359         -3.3558
LJ            6.2596         5.89035        -4.93785
LJ           -6.4057         4.40403        -6.40665
LJ          -5.09488        -2.74902        -2.49102
LJ          -5.12105         5.74994         1.02391
LJ           3.56613         1.88449        -5.81268
LJ          -5.24943          5.3046        -5.31681
LJ           1.56451         5.35537          3.1375
LJ         -0.733949         1.06108        -2.34448
LJ          -3.31026         0.94851        -4.08154
LJ          -5.97589        -4.86561        0.782311
LJ           2.86417        -3.19707         3.77143
LJ          -3.52813       -0.600007       -0.240536
LJ           3.47864         3.52875         1.05606
LJ          -6.15244        -5.27517        -3.80665
LJ           6.23194        -3.85483        0.567278
LJ           2.03636         2.06348         -5.9892
LJ          -1.48555         2.39317        -2.64889
LJ           3.90047         3.27796        -3.44534
LJ           2.85043        -3.47833       -0.138187
LJ           4.21989        -5.24175          -5.308
LJ          -3.53874        -4.46722        -3.90855
LJ          -1.86091        -5.43395          2.1583
LJ           1.87687        0.240972         1.32467
LJ          -1.62854         5.37861         -2.0144
LJ          -6.40276         5.84481        0.417092
LJ          -4.05295        -2.48907          -3.359
LJ          -5.72567         4.03855        -3.97602
LJ          -3.34634        -4.20923        -1.56815
LJ          -6.24927        -3.36557        -3.64509
LJ         -0.103333          2.7618        -5.10168
LJ         -0.651504         1.22112        -1.15865
LJ          -5.94041           5.063         3.21124
LJ          -3.30506         2.46906        -3.89237
LJ           5.35497        -2.75327         2.31599
LJ           2.70881         2.07272        -1.02512
LJ           3.48485         1.83719         -2.0811
LJ          -4.78346         -3.7532         1.82628
LJ          -4.48747         1.30248        -5.45795
LJ          -3.07976       -0.281455        -2.30794
LJ          -6.21376         4.00465        -5.13742
LJ           6.33518        -1.80288         6.29158
LJ          -3.91935        -5.75235        -1.97909
LJ           4.32431        -5.25781         4.46286
LJ           1.10118         5.73613         4.01067
LJ          -3.97487         3.15711         -5.9481
LJ          -3.96294         2.77817        0.593131
LJ          0.841416        -5.61172         2.13129
LJ          -2.45057          6.1181        -1.36448
LJ           1.58111        -6.35074         5.31311
LJ           3.85605        -6.09997         1.80679
LJ         -0.568274        0.541085         5.16638
LJ          -4.51895       0.0951373       -0.129108
LJ           3.01645         1.58972           4.793
LJ           4.68203        -2.66093         3.70386
LJ           3.33913         4.27834        -6.14924
