108
#Comment!
LJ          -2.24535        -6.21692        -2.04795
LJ          -5.12769         4.56441        -4.52182
LJ          -4.75976         5.05819        -5.70098
LJ           6.17076        0.576122       -0.276376
LJ          0.273785        -2.73481         3.28519
LJ          -3.91603         1.16961        -2.61327
LJ           -5.3065         4.54009         3.03232
LJ         -0.154605       -0.798916        -3.25123
LJ          -3.14748         3.90466        0.679872
LJ          -2.50007         2.59856         3.83862
LJ          -3.25072         1.50448        -1.91125
LJ         0.0503161         3.80412         3.87753
LJ           2.49171        -5.06965         -3.1635
LJ          -4.56477         2.36967       -0.846208
LJ          -6.16833        -4.83011        -4.53733
LJ           1.85423         3.31467        -1.87447
LJ           -1.7367        0.190491        -5.89597
LJ          -4.34983         3.39421        -1.05927
LJ           3.95135       -0.565095         4.03512
LJ         -0.458743         5.85438         -4.7705
LJ          -2.47014        -2.65356         3.44887
LJ         -0.920918        -5.23434         5.25984
LJ         -0.972183         6.14627        -5.71173
LJ           3.14482         1.59273       -0.559224
LJ          -5.65504         5.50782         1.23164
LJ           3.16903        -4.49327         2.28911
LJ           -1.4314         -6.3299       -0.314108
LJ           4.29609         3.71168         5.52477
LJ           2.98447         -2.5071         2.05979
LJ          -5.94925         3.67542         1.58669
LJ          -3.22551       -0.491451        -2.66664
LJ          -3.13768        0.305973        -1.43994
LJ          0.707567         1.58862         3.74294
LJ           2.15761        -4.85388          4.2545
LJ          -5.09401         3.99879       -0.151622
LJ          -2.44719      -0.0477354         6.04479
LJ          -6.20225         1.38332         2.40861
LJ           4.48474         1.87849      -0.0561067
LJ          -4.76753        -4.82661        -4.85785
LJ           3.89503         1.01106        -2.49769
LJ          -4.61307        -5.90587         3.41271
LJ           5.47482        -4.71281         3.74814
LJ        -0.0624886         4.17366        -3.14744
LJ           1.81167         5.51741        0.750533
LJ          0.295849        -5.68408        -5.88933
LJ           1.60166        -1.43569         3.04747
LJ           5.77902        -4.28213         5.21912
LJ            3.9567         5.74078          1.4999
LJ          -1.71634        -5.08419         1.93092
LJ          -5.91209         1.52628         -4.4612
LJ           4.02632        -4.01101         2.04622
LJ          0.585182         3.11338         2.96944
LJ           1.90601         2.45296         2.19166
LJ          -1.02195        -3.19291       -0.211569
LJ          -3.54917          3.9037        -3.03025
LJ           3.77449        -4.53236        -3.22719
LJ           -5.8446         5.77187         3.96444
LJ         -0.622541           5.787         4.73774
LJ           -1.9026        -1.17333         4.70889
LJ          -1.90396        -5.99425        -6.20198
LJ           4.64703       -0.508294         5.10842
LJ          -2.33082          1.8265        -6.32848
LJ          -2.06939        -1.93562       -0.450133
LJ          0.977116          4.4982         3.68596
LJ           4.92378         6.13038         5.84989
LJ          0.772674         1.02809        -1.80498
LJ            -1.068       -0.105709           5.714
LJ            -4.029        -4.00227         -2.3086
LJ          0.601454         5.18105        -5.48857
LJ          -5.34748         1.26552         -2.4512
LJ          -2.63168         1.66601        -4.62135
LJ           1.52944      -0.0569651        -2.19477
LJ          -3.00201        0.299796        -3.53619
LJ           1.98773         -4.0226        0.554505
LJ          -0.76622        -5.44768        0.135603
LJ         -0.972194        -1.80962         2.48351
LJ          -5.71974         2.30075         3.17831
LJ           1.88505        0.998557        -4.49572
LJ           3.71762         1.84631         4.39863
LJ           2.44872        -2.85846        -1.18207
LJ          -6.01807        0.367614         5.68297
LJ           4.56521        -6.10911        -5.35661
LJ          -4.60506         4.99178         3.64508
LJ          -6.35149         5.52422        -4.84425
LJ          0.479753         5.53772        -3.81024
LJ           6.45081        -5.76597        -4.08901
LJ          -2.75289       0.0411509         3.95053
LJ           -2.3006         1.86282        0.819124
LJ          -3.43668         -5.3203        -5.39751
LJ           1.76739          2.9026         3.25036
LJ             1.053        -5.98213        -2.04826
LJ         -0.554529        -4.85919         1.97565
LJ            -4.333         3.02428         3.79819
LJ           1.61469       -0.515086         5.24675
LJ           5.62972         1.26391        0.743048
LJ          -1.79424          -4.806        -6.22523
LJ           5.90696        -1.52499         4.34072
LJ          0.457494        -2.45244         5.32315
LJ          -1.34178        -5.32401         3.94042
LJ          -2.72799         3.41118         6.03393
LJ           2.72495       -0.381899        -3.34518
LJ           2.71558        -4.34207       -0.118178
LJ          -3.18245         -1.6383        -1.75104
LJ          -2.44136        -2.47765        -1.98246
LJ          -1.60034         3.72329         2.24872
LJ           5.76467        -2.98079         -6.2489
LJ          -6.18738         1.73311         4.13104
LJ          -1.42421       -0.166596        -3.16633
