108
#Comment!
LJ          -6.16269        0.745971        0.299304
LJ           3.49804        -1.36609         2.72372
LJ          -4.16477         2.11564        0.503375
LJ           5.67911        -2.46068       -0.493423
LJ           -0.7289        -5.75357         3.88021
LJ            4.7315        -3.12138         6.24799
LJ          -2.49198        -4.40327         6.27546
LJ          -1.67775         0.70265        -4.11623
LJ           -2.7788       -0.320064         1.16611
LJ           4.90658        -1.99187        -1.05073
LJ          -5.66953        0.706497       -0.546056
LJ          -2.87997         4.88895        0.770984
LJ          -1.23371        -4.51067         5.35667
LJ          -5.72021        -5.01293        -5.93168
LJ          -6.24465         5.82541         2.47564
LJ        0.00806139         5.89194       -0.494425
LJ          -4.95352        -2.70503         4.62187
LJ           1.77982         3.23474         1.96269
LJ           2.46336       -0.678273         2.46115
LJ          -1.85622        -1.46168        -6.37708
LJ         0.0202361       -0.939756        -4.28976
LJ          -5.17881        0.895087        -5.61675
LJ           1.96163        -2.23183        -5.90511
LJ          -1.39219         1.49614         3.72427
LJ           -3.1193         -3.1865         4.95165
LJ           1.14004         1.78201         5.38121
LJ          -2.99782        -5.33807         1.07286
LJ          -1.24192          5.4427         5.90154
LJ          -6.36659         3.47328        -2.48888
LJ          -2.75786        -3.52013        -1.38852
LJ          -1.21875         3.45672         -1.3593
LJ          -5.66092         2.08914        0.663407
LJ         -0.794134        -3.78021        -3.40477
LJ           3.68752        -2.82999        -3.41133
LJ          0.423262        -4.15158         3.86425
LJ           -4.1925         3.74439        -3.74755
LJ          -3.33805        -4.75816         3.50666
LJ           -4.8097         -5.3566        -1.08757
LJ          -5.03488         6.38061         2.01958
LJ         -0.999163        -5.49701        -1.10844
LJ           3.16697        -6.38735         2.33449
LJ           2.20199         5.46005         1.66664
LJ           -6.0687        -3.01982         4.18518
LJ           4.25057        -5.86851      0.00249459
LJ           4.78296        -4.31431        -3.78081
LJ          -2.16523       -0.125304        -1.45929
LJ           5.96039        -4.47772        -2.54912
LJ         -0.652043       -0.895362         1.77801
LJ          -2.42056         -1.7501        -3.72036
LJ           -4.0391         5.81557         4.87914
LJ           1.64514         2.95467        -2.74531
LJ           3.39037        -2.43904        0.245675
LJ            -2.341         0.15661        -4.88761
LJ          -2.00649         5.61814         1.69583
LJ           4.30787        -5.15758         1.19719
LJ          0.363198         3.00534         1.53534
LJ         -0.766578          3.5958        -3.13052
LJ          -2.33573        -2.63464        -2.16233
LJ           4.36813        -1.26649        -3.16938
LJ           5.22328        -6.23727        -4.07134
LJ           1.16509          1.1658         1.84228
LJ         -0.105572         4.88592        -1.46037
LJ           5.53599         4.62382        -3.93293
LJ          -5.49597         3.96767        -5.80568
LJ          -6.30705        -6.32644        -2.25199
LJ          0.606758         4.75258       -0.758495
LJ          -3.08665         3.36885        -4.17628
LJ          -1.01974         1.86149         1.96218
LJ           4.32051        0.550208        0.897514
LJ           3.23365        0.380071         -2.0665
LJ           2.13092         3.42408        -1.88086
LJ           3.61291        -6.02677         4.60326
LJ          -2.69752         3.60265         2.29839
LJ          -4.14386         5.98079        -5.68412
LJ           1.98732         5.07529        0.561597
LJ           -1.6591        -4.90774        -3.32859
LJ          -3.66587         4.15026        0.125096
LJ           1.62945        -3.45697        -1.33578
LJ          -1.68543         -3.2942        -3.07353
LJ           3.84218         1.08568       -0.808241
LJ          -3.38105        -2.07908        -1.83137
LJ           6.27148        -6.16901          5.0424
LJ            5.5112         2.47035        -1.14553
LJ           -3.1235        -0.93236        -5.88773
LJ          -1.89153        -2.56831        -4.17568
LJ          -2.66411        -3.62845        -3.52473
LJ           5.02218        -1.82986        -5.08359
LJ           2.00008        -5.31839        -4.33983
LJ           1.19111         3.96899        -3.10307
LJ         -0.574276         5.10557        -5.50083
LJ          -6.36516         5.17942        -4.04334
LJ          -0.47403         -1.4843         2.75506
LJ          -1.23892        -1.50426        -2.78627
LJ          -5.90166         2.89967         1.75697
LJ          -4.05867        0.235508         4.44887
LJ         -0.549406         2.45121        -3.11829
LJ           4.71868         1.96954        -4.88426
LJ           1.47645          3.0948        -3.88122
LJ           -1.9623        -4.22395         1.44111
LJ          -4.41564        -6.44239        -3.03518
LJ          -3.47098        0.283986        -4.76455
LJ           1.13123        0.500058           5.368
LJ          -2.96694          5.4536        -2.66484
LJ           6.09494         3.57952       -0.999366
LJ           -1.2412         1.74342        -3.28171
LJ           3.33261         4.52003        -2.39698
LJ          -5.32834        -5.41332        -2.82705
LJ          -1.47262        0.819162        -5.68051
