108
#Comment!
LJ           2.31504         1.19767         1.75686
LJ           2.77706        0.720254        0.594075
LJ          -2.46799        -1.11741        -3.05042
LJ           6.05544        -4.29145        -1.14872
LJ          -1.88607        -5.80327         1.63053
LJ           5.76348        -3.15868        -4.11558
LJ           -4.3449        0.321001        -3.59555
LJ           6.17439        -4.73687        -2.01265
LJ           4.23644         3.62255         -5.9552
LJ           4.85101          5.4631         1.19637
LJ          -1.84746         1.83699         3.51447
LJ          -5.07433        -4.53876         4.82318
LJ          0.349216         2.68639        0.123105
LJ           3.42728        -2.86161         3.77517
LJ          -1.70409        -1.71295        -3.44733
LJ          -1.87009        -5.26025         4.47657
LJ          -3.90747        -3.71859        -2.78791
LJ          -3.71388         2.96217         2.25848
LJ           5.64148       -0.739971        -2.73879
LJ          -1.54704        0.718117        -3.20458
LJ          -4.69243        -3.59861        -4.97048
LJ            4.0312         5.49582        -3.06004
LJ           5.77545          4.9001        -6.01317
LJ          -4.28182         1.88427        -1.30765
LJ           2.78205         6.04696        -5.24205
LJ          0.246349         3.76448       -0.518767
LJ          -5.22334        0.373426         4.60326
LJ          -3.12685         3.39141        -6.16483
LJ          -4.76389        -5.66156         4.62574
LJ           1.38619         4.25913         2.00397
LJ          -3.08033          1.3807        -4.96678
LJ          -4.56935         4.87995         6.27079
LJ         -0.880337        -3.18699         6.36247
LJ           3.87646        0.500479       0.0162629
LJ           5.33113        0.589301        -2.80553
LJ           5.58359         3.40256          3.3158
LJ           2.73805         2.55383       -0.415153
LJ           1.09129         1.46052        -2.31376
LJ          -3.73078        -1.46056         1.16544
LJ          -5.04809         3.45237        -2.34469
LJ           4.98779       -0.853792         5.16233
LJ           5.00006         1.60647        0.738833
LJ          -2.83575       0.0493955        -4.82021
LJ         0.0590622        -5.42816         4.83678
LJ           1.56419      -0.0328518         2.05365
LJ          -5.11436         1.93152        -4.58659
LJ           4.20728        -3.80896        -6.45269
LJ           5.83137         1.90181        -0.78676
LJ          -5.10327         4.40717         5.27826
LJ          -2.55112        0.898366         4.27661
LJ          -6.25124       -0.786662        -4.46264
LJ          0.459972         5.23391        0.869658
LJ           4.25138         2.30978        -5.23821
LJ          -5.40789         5.05468        -3.04301
LJ           5.99184         1.66751        -3.68186
LJ           1.23278        -3.85121       -0.181129
LJ           1.77224        -4.69399       -0.534861
LJ           5.10065        0.280228         2.26778
LJ           1.86865      -0.0751273        -5.60075
LJ           4.28954         4.28092          1.3256
LJ          0.870888        -1.87948        0.234105
LJ          -3.08551         3.81046        -1.53293
LJ          -3.49062         4.29939        -3.23938
LJ           4.20793         -1.9921        -6.23507
LJ           2.29692         3.89788        -1.62887
LJ         0.0210321        -3.61961         4.96236
LJ           1.04549         5.86713         3.02557
LJ            1.2914        0.302246        -1.33382
LJ          -3.14895        -5.41946          2.9346
LJ          -2.72965         4.98135        -3.48779
LJ           0.83599          2.3887        -4.49287
LJ          0.746962         -5.2646      -0.0245101
LJ          -6.28134        -5.60589        -3.25144
LJ            6.0224        -4.01507        -3.21692
LJ           -2.8349         1.71008         1.15598
LJ          -5.21081         1.10608        -1.93733
LJ         -0.837265         -2.0671         1.59734
LJ           4.11822        -4.76928       -0.542603
LJ          -3.16074        -3.53423         5.03005
LJ            6.1265         2.43518        -2.93201
LJ          -4.23677        -3.25449         3.41191
LJ          -4.69918        -4.74936         6.17928
LJ            1.2671       -0.892644         4.49998
LJ          0.544643       -0.500127          5.5732
LJ           3.55104         2.25078        -6.13686
LJ          -3.39638       -0.642178        -2.37912
LJ           5.81803        -2.86976         2.21459
LJ         0.0952849        -1.32518         4.37917
LJ           2.80921        -5.12863       0.0531436
LJ           4.64578         -4.6815         2.25886
LJ          -5.26852          -3.568        -2.77079
LJ          -3.84207        -2.15393        -2.87807
LJ          -5.05593         2.66169        -1.53152
LJ          -5.22162        0.417683         3.06177
LJ         -0.677314       -0.725767        -3.90698
LJ            2.9978       0.0533104        -5.00052
LJ           5.45194         4.08942         2.11617
LJ          0.625447         2.53015         3.44742
LJ          -1.78246        0.220411        -0.59586
LJ           3.90886         -2.6643         -1.3651
LJ           -4.9781        -2.40195         -3.6811
LJ           1.70833        -3.03042        -3.08908
LJ           2.92562        -5.05634        -1.31609
LJ         -0.723769        -1.20428         2.99032
LJ          -4.79785         1.16989        -2.94712
LJ          -2.23588        -2.18652         2.55307
LJ           6.45402         1.11672          6.3315
LJ          -5.78985        0.859991         -3.0902
