108
#Comment!
LJ           3.01677        0.415988        0.933965
LJ           2.27957        0.443844      -0.0987514
LJ          -3.09328       -0.300054        -1.17521
LJ          -6.20528        -4.59444       -0.823725
LJ          -1.80084        -5.34348         2.28734
LJ           4.17023        -2.89566        -1.42835
LJ          -3.38247         -0.8659        -4.19063
LJ          -5.63004        -5.17756         -2.2463
LJ            3.2859         1.89744        -4.97811
LJ           6.43957         3.76853       -0.513113
LJ          -2.10157          1.2547         5.45647
LJ          -5.47676        -5.64864         4.02115
LJ         0.0313374         3.90357         1.64273
LJ           4.37923        -3.30912         1.75952
LJ         -0.010705        -2.74615        -2.40204
LJ         -0.943943        -6.02041         3.38382
LJ          -4.69601        -2.65776        -4.58306
LJ          -2.31823          2.9811         2.31431
LJ           6.00827        0.200578        -1.30306
LJ          -1.77446        0.497762        -3.92143
LJ           6.39049         -3.3121        -5.36899
LJ           5.00111        -5.81319        -3.51914
LJ           5.19478         2.53577        -4.50737
LJ          -4.43654         1.42065       -0.244984
LJ           2.10098        -5.15226        -3.03038
LJ          0.334581          3.1297        -1.89159
LJ           -4.6797         1.79461         3.48606
LJ          -2.28854         3.57683         5.66477
LJ          -4.65342         6.41271         3.24135
LJ           3.21251          5.3734         1.41348
LJ          -3.69029         1.53415        -5.46139
LJ          -5.20443         3.25547         5.49891
LJ           -1.7885        -3.54914        -4.34597
LJ           4.55401        0.344885         0.80504
LJ           4.85908       -0.918127        -4.17839
LJ           6.03207         3.70649         4.51642
LJ          0.961688         4.07913        -2.08922
LJ         -0.476048         3.45763        -2.67092
LJ          -5.83217         -3.3308       -0.686471
LJ          -5.03762         3.53366        -1.91479
LJ           4.69887        0.789505         4.50055
LJ           3.81695         2.41505        0.533197
LJ          -3.54389        -0.29026        -5.84973
LJ           1.92462        -3.80557        -6.20658
LJ           1.89279        0.484357         3.62155
LJ          -4.60301         2.53359        -3.58945
LJ           4.10754        -2.20403        -5.43849
LJ           4.74208         2.28541           1.168
LJ          -3.01645         5.05056           4.004
LJ           -3.4594         1.83971         5.85545
LJ          -4.05268        0.114612        -3.58229
LJ          -1.22997         3.29584        0.184085
LJ           5.57521         1.47725        -5.20921
LJ           -3.7142         4.89522       -0.339985
LJ           5.93292         0.20399          -3.094
LJ          0.734587        -1.85961         1.52607
LJ           2.26084        -5.92277       -0.909625
LJ           5.82736      -0.0585868        0.974259
LJ           3.87395        -1.29182        -5.18804
LJ           4.78985         3.42464         1.99047
LJ          0.479194        -1.05539         2.05103
LJ          -2.75841         4.65561        -1.02825
LJ          -3.89593         4.11273        -4.03856
LJ           5.09909        -1.10262        -5.77708
LJ           4.07339         4.93407         -1.9357
LJ           -2.3871        -4.70682         6.38518
LJ         -0.588439         5.55171        0.979395
LJ         -0.355564         1.39474       -0.448714
LJ          -4.58742         5.50639         1.99731
LJ          -1.83762        -6.07015         -4.0049
LJ        -0.0125277         1.73506        -4.40731
LJ          0.810442        -5.54658     -0.00588744
LJ          -5.60227        -6.24819        -4.52495
LJ           3.90407        -4.55908        -3.61263
LJ          -2.65339         3.85514         1.17495
LJ          -5.15431           1.454       -0.949312
LJ         -0.728564       -0.692636         1.37357
LJ           2.38279        -4.46181        -1.29278
LJ          -2.48258         -4.0842         3.36672
LJ           5.64731         2.12252        -2.23706
LJ          -4.24128        -3.08134         4.97797
LJ           -4.9265        -5.37047         5.36832
LJ           1.70179        -2.68581         3.48693
LJ          0.294768       -0.825013         3.57524
LJ           2.54491         1.33129        -6.15073
LJ          -2.68984         1.99955         -2.9055
LJ           6.03651        -1.71594         3.09455
LJ          0.560935         -2.0934          3.6405
LJ            2.1007         5.94108       -0.552907
LJ           3.29265        -5.16105        0.706524
LJ          -5.34714        -4.47933        -3.30515
LJ          -3.15856        -2.13431        -1.67907
LJ          -3.84535         1.77171        -2.00071
LJ          -5.30035         1.27665          2.6885
LJ         -0.470518        0.563526        -4.65642
LJ           2.13612        0.937788        -4.03586
LJ           5.62835          3.9596         0.67877
LJ           1.53218         1.30382         4.00523
LJ          -0.12497        -1.47931      -0.0411327
LJ           6.20594        -3.59859       -0.899852
LJ          -5.77024        -1.15799        -3.50375
LJ           1.50256        -4.98852        -4.47913
LJ           2.11978        -5.04017        -2.02115
LJ          -1.54029       -0.737129         2.46577
LJ          -4.57216         1.24649        -2.55567
LJ          -3.49639        0.470762         1.84788
LJ          -6.33711          2.6993        -5.78582
LJ          -5.40458       0.0648128         -3.4636
