108
#Comment!
LJ           4.70972       -0.667955        -1.03586
LJ           3.18578      -0.0574074        0.685976
LJ          -4.41215         1.56602          1.1698
LJ           -5.8663        -5.06454        -1.14155
LJ         -0.970711        -5.63493         3.33907
LJ           3.61823        -2.84021         4.76337
LJ          -2.53366        -2.75331        -5.67525
LJ          -3.43965         -3.4436        -2.63805
LJ         -0.404693       -0.801668        -1.85899
LJ          -6.33543       -0.048128        -1.76306
LJ          -4.06045        0.637334        -2.97351
LJ          -4.77153         5.45451         2.48336
LJ         -0.761581        -6.28096         4.29237
LJ           6.42616         -4.3166        -2.96988
LJ           3.91691        -5.13618        0.385487
LJ         -0.179284         5.21917         1.43978
LJ          -4.86264        -1.59261         6.30084
LJ          0.880749         3.90043         2.13401
LJ           3.85539       -0.624814         1.72377
LJ          -1.63575       -0.314805        -5.56903
LJ          0.413351        -1.60262         6.09103
LJ          -6.04571        -1.79353        -4.64187
LJ               3.3       -0.952943        -4.77638
LJ          -1.49955        0.191023         4.08592
LJ         -0.397083        -2.98841        -6.41791
LJ          0.500069         2.70341        -5.35837
LJ          -3.58763         5.19661        0.593422
LJ          -0.67383         3.91943         3.62916
LJ          -5.35076         5.00679        0.235264
LJ          -5.57571        -5.01175      -0.0953856
LJ          -2.95729          2.4327         -3.7347
LJ           -6.0993         1.19126         2.99643
LJ         -0.196553        -3.39424        -2.05247
LJ           2.68989        -1.67971        -1.26602
LJ          -3.68691        -3.38706         5.64483
LJ          -5.58362         4.22466        -5.64741
LJ          -2.14847         6.42757        -6.27914
LJ          -4.55741        -5.61322        -2.70373
LJ          -4.89991         6.24181      -0.0462793
LJ          -2.71203         5.46684        -1.69892
LJ           4.05422         4.55766         2.99515
LJ           3.02846         4.96953        0.928626
LJ          -5.19709        -1.47614         5.24514
LJ            4.2687        -1.98859        -1.86722
LJ           3.73776        -2.73406         5.72566
LJ          -3.11554         1.53618        -1.57758
LJ           5.15662        -3.73418        -3.91685
LJ           1.51001         0.16752         1.74268
LJ           3.99703         -3.9448         6.00444
LJ          -4.02085         4.36141          6.2716
LJ           1.77545         0.74424        -2.81997
LJ           5.26575      -0.0731597       -0.543983
LJ          -4.45684        0.534758        -4.75043
LJ          -2.17881         5.17992         1.25126
LJ             4.347        -3.87545       -0.393602
LJ         -0.167464         3.44218         2.59296
LJ           1.02503         5.35959        -1.43485
LJ          -3.50635        -1.31166        -1.18858
LJ           2.87444      -0.0888282        -2.65096
LJ           5.61448         5.83178        -6.12942
LJ          0.741836         2.04729          1.8165
LJ          -1.58283         5.67958       -0.868013
LJ          -5.62791         3.85663        -3.98209
LJ          -4.56918         1.83714        -5.67316
LJ           -6.1383         -6.2038        -2.00318
LJ           4.46216         6.27726        -3.13957
LJ          -2.89217         4.13082        -3.14705
LJ          -1.18597         1.77199         1.50589
LJ           5.27312         1.34206        0.657074
LJ           0.68063        -2.12399        -4.19405
LJ          0.161692         3.87947        -2.76842
LJ           1.55987         5.22887         2.08929
LJ          -3.79922         4.83866         4.60221
LJ         -0.852423        -5.86458        -4.22043
LJ        -0.0695804         4.39819         2.03301
LJ          -3.59809         5.29968       -0.544692
LJ          -2.37992         1.66346       -0.391491
LJ          0.683008        -3.12578        -1.73246
LJ          -2.01103        -3.73891       -0.382933
LJ           4.87503         0.85707       -0.717756
LJ          -4.03433        -2.67225        -4.32253
LJ          -5.62732         6.21025         3.81937
LJ           4.25775         5.61022        0.881953
LJ          -1.11449        -2.35848        -5.87022
LJ          0.258258        -1.19043         -5.9143
LJ          -2.36084        -6.20546        -3.71156
LJ           5.86788       -0.561845         5.57266
LJ           1.26033        -3.27578         5.83012
LJ           1.46394         3.76475        -2.78128
LJ          0.513731         5.36885        -2.73086
LJ          -4.94996         5.97642         -3.4521
LJ          -1.59082        -1.73879         1.01501
LJ          -2.22333        0.460564          -1.626
LJ          -5.09863         3.56101          1.2648
LJ          -2.57549        0.556459         5.76609
LJ           0.81118         2.85318        -3.07803
LJ           5.06375         2.82408        -2.69283
LJ           1.92662         2.19735        -5.87785
LJ        -0.0357743        -3.41642         2.03247
LJ         -0.331232        -5.70333        -2.88564
LJ           -5.0582       -0.156825         -4.2402
LJ           1.45884         3.49996         6.12515
LJ         -0.395442         4.88899        -2.36534
LJ          -4.41551          1.7224       -0.275969
LJ          -2.78131          1.5458         -3.0536
LJ           6.23551         4.68192        0.234508
LJ          -6.23988         6.05069        -3.72082
LJ           -2.8782       -0.221009        -4.64889
