108
#Comment!
LJ           5.22668          -3.726         5.23806
LJ          -5.12857        -2.67755       -0.722776
LJ          -1.75683       -0.600906        -4.70145
LJ         -0.119807        -5.33208       -0.858244
LJ         -0.424472        -2.14124          1.8257
LJ           1.90487        -4.50329         1.28731
LJ          -1.57592        -6.33606         2.60087
LJ          -5.34307        -5.51214        -1.68433
LJ           2.19189        -3.30137         4.66923
LJ           -4.7947         4.44479       -0.650049
LJ          -2.52788         6.08684        -4.50491
LJ          -4.63002        -3.62001         5.19219
LJ          -4.50254        -5.82953          3.4857
LJ          -2.25403          3.3812          1.7865
LJ          0.343381          5.7788        -2.84689
LJ          -1.53263        0.302613         5.64339
LJ           -2.4007        -2.50811        -5.48406
LJ           5.08759         4.94494        -3.39019
LJ           6.39161        -5.65041         5.57891
LJ          -4.03753         5.95554         1.02881
LJ          -2.80302        -2.00888        -2.92217
LJ          -3.48591         2.47308         -3.2247
LJ          -3.37126         2.49974       0.0744561
LJ           2.34583        -3.09631        -3.51309
LJ           -5.3424         1.27648         4.52486
LJ          -3.87339        -5.59938        0.702318
LJ           2.52866        -1.22679        -4.86384
LJ          -4.62244         2.14164        -1.31458
LJ          -2.76661        0.944116        0.799925
LJ           1.26369         -3.6933         4.05131
LJ           3.20911        -2.70493         5.87309
LJ          -2.00443          1.8377         2.69495
LJ           1.87192        -4.38695         -3.3284
LJ           4.79334         5.19452         2.29968
LJ            5.1247        -3.45502         -3.2128
LJ           1.06915         1.05798        -3.48834
LJ          -2.70846         2.78866         4.38538
LJ          -6.29152         5.06503        -4.59292
LJ           5.38276         4.60899        0.802121
LJ       -0.00115843         1.19237        -1.06308
LJ           4.81847        -3.18768         -1.5313
LJ         -0.711636         5.02775        -1.83818
LJ           -6.0247         4.51935         4.46113
LJ           5.95325        -5.36566         2.49118
LJ           1.55442         1.04208         3.87398
LJ          -2.69874         4.33075         3.62061
LJ          -4.54796        -4.08677       -0.776427
LJ           3.22433       -0.302155         1.97373
LJ         -0.711609        0.838179        -2.98615
LJ          -4.89406         1.84172         1.65235
LJ          -3.55556        -2.87826          5.3897
LJ          -4.79538        0.273165        -1.42253
LJ           3.64714        -1.26238        -1.58034
LJ          -1.80841        -3.28564        -2.86402
LJ         -0.881289         4.85371          3.5324
LJ           6.16483        -1.33505         6.19601
LJ          -3.15042        -3.84617        -0.46313
LJ           3.72264         4.78414        -2.75256
LJ           1.88811        -1.41529         4.96674
LJ         -0.192326        -1.29635        -5.59183
LJ          -4.47288        -4.85613         1.06316
LJ          -2.87493        -3.23696         -3.0006
LJ          0.347559        -2.52584       -0.641929
LJ          -5.15005       -0.561614        -5.91245
LJ           1.76024        -1.45535         6.25047
LJ         -0.240812          4.7311         -3.6918
LJ          0.695501        -4.07387        -2.50718
LJ           3.93837         3.55061         6.45896
LJ          -5.52345         -6.1546        -2.56571
LJ            2.6103         4.44732         -1.0686
LJ          -3.94256         1.17556         -1.9599
LJ           6.26226        -2.47937        -4.58908
LJ           1.35469         4.26395        -2.51018
LJ         -0.887156         4.91131          4.8921
LJ          -5.09598         5.04228        0.265018
LJ          -1.22644        -3.42313         4.13319
LJ           2.75228       -0.629386         4.57701
LJ           1.96526        -0.11186        -1.10377
LJ          -4.08067       -0.483003        -5.99743
LJ          -2.28634        -4.92847        -5.70957
LJ           4.91424        -5.40271        -4.26967
LJ          -3.21567       -0.693027         2.20882
LJ          -6.08578        -4.20108        -2.16724
LJ           5.04366         1.00656         5.97756
LJ          -6.18626        -4.24585         2.49979
LJ          -3.29758         5.03597        -3.13557
LJ           5.85134         5.26084       0.0107459
LJ          -3.84941         1.19835        -3.66044
LJ          -5.82785       0.0803827         2.04254
LJ           2.12679         4.16648         5.54928
LJ          0.807469         2.34487        -4.37674
LJ          -4.62839        0.529027         4.01782
LJ           5.63235        -4.88324         -5.1313
LJ          -3.75812         -1.9847        -4.26969
LJ         -0.845869         5.46527         1.95462
LJ           1.88695        -1.04375        -2.79692
LJ          0.588676       -0.147087        -1.26793
LJ          -1.70336         4.04571         4.80169
LJ           3.04881         5.34163        -3.69738
LJ          -5.35834         5.60103        -1.33072
LJ          -1.25773         1.66628         3.99004
LJ           3.05767        -2.37568        -4.60336
LJ           5.65799        -4.98474        -3.45551
LJ          -1.48738       -0.787106        -2.39346
LJ          -4.40044         6.41208         6.32998
LJ          -4.58562        -3.53458         -6.4617
LJ           4.70805         4.91904        -2.05038
LJ           -4.8114         4.69329         4.77416
