108
#Comment!
LJ           5.83592        0.187078       -0.465246
LJ           3.76328       -0.790076         1.93336
LJ          -4.33362         2.15287        0.783635
LJ            6.0914        -3.23933         -0.6684
LJ         -0.784465        -5.78156         3.62085
LJ           4.40276         -3.0405         5.79579
LJ          -2.44085        -3.88835        -6.40791
LJ           -2.2032       -0.422564        -3.47973
LJ          -2.30769         -0.7331        0.066419
LJ           5.47401        -1.47764        -1.32412
LJ          -5.20709        0.682713        -1.25016
LJ          -3.29383         5.10407         1.38189
LJ          -1.05451         -4.8696         5.04756
LJ          -5.88663        -4.78943         -5.1203
LJ           5.87429         6.43601         1.84767
LJ         -0.457125         5.91653       -0.422721
LJ          -4.90181        -2.37504         5.13442
LJ           1.53752          3.4918         2.09824
LJ           2.67438       -0.671364         2.36431
LJ          -1.77199        -1.03769        -6.20685
LJ         -0.612606       -0.379534         -5.4734
LJ           -5.3791        0.159715        -5.29598
LJ           2.34949        -1.85067        -5.58026
LJ          -1.10922         1.01159         3.76546
LJ          -2.34697        -3.14148         5.49383
LJ          0.827777         2.11656         6.11227
LJ            -3.164        -5.97254         0.90094
LJ          -1.07633         4.99491         5.24243
LJ          -6.40897         4.11451        -2.30715
LJ          -3.57122        -3.96484       -0.978215
LJ          -1.72217         3.52756        -2.04441
LJ          -5.87115         1.68643         1.34856
LJ         -0.525818        -3.68469        -3.04052
LJ           3.50744        -2.46554        -3.08581
LJ         -0.790384        -4.06703         4.39972
LJ          -4.62801         4.06776        -4.28128
LJ          -3.01956        -5.27927         4.42565
LJ          -4.94906        -5.51461        -1.77637
LJ          -5.07212         6.25989         1.39413
LJ          -1.07141        -6.43214        -0.93051
LJ           3.64883         6.35918          2.1633
LJ           2.91159         6.09097         1.28186
LJ          -5.84077         -2.5727         4.46389
LJ           4.29271        -4.54079       -0.516634
LJ           4.17076        -3.44358        -4.44253
LJ          -2.47364        0.406322        -1.47031
LJ           6.06376        -4.65619        -3.05962
LJ         0.0239319        -0.56383         1.75816
LJ          -4.36363         -2.3619        -4.66579
LJ          -4.03557         5.38766         5.29104
LJ           1.66849         2.33026        -2.80003
LJ           3.93199        -1.63461        0.136304
LJ          -2.64707        0.320488        -5.00922
LJ          -2.16245         5.39349         1.51308
LJ           3.65717        -5.96266         1.29897
LJ          0.273564         3.21419         1.83054
LJ         -0.330531         4.30348        -2.48832
LJ          -2.22233        -2.00143        -1.92852
LJ           3.96018        -1.40713        -2.83525
LJ           5.84538        -6.16043        -4.09596
LJ           1.06622         1.40216         1.82771
LJ         -0.374557         5.20245        -1.16193
LJ           6.20354         4.20232        -3.27416
LJ          -4.71367         3.52925        -5.22334
LJ          -6.34346        -6.40117        -2.13391
LJ           1.76771         5.23444        -1.45534
LJ          -3.61413         3.48684          -4.347
LJ          -1.14113         1.61968         2.44146
LJ           4.39111        0.436232        0.854974
LJ           2.61804       -0.577444        -2.53558
LJ           1.55627         3.64099        -1.87212
LJ           2.90921         6.27318         3.88757
LJ          -3.01777         3.94707          2.9893
LJ          -3.17006         6.30426        -5.17637
LJ           1.35548         4.91392        0.917575
LJ          -2.29797        -5.67872        -2.44261
LJ            -3.273         3.43287      -0.0368704
LJ           1.64619        -3.13837        -1.54264
LJ          -1.85193        -3.35318         -2.1527
LJ           4.12782         1.09468       -0.751416
LJ          -3.68742        -2.26196         -2.5915
LJ          -6.35735        -6.32773         4.68551
LJ           5.13351         3.37862       -0.467215
LJ          -2.78372        -1.48357        -5.83047
LJ          -1.20107        -2.19963        -4.67197
LJ          -2.59102        -4.33326        -3.64848
LJ            5.2689        -1.44783        -5.74852
LJ           1.78265        -4.72476        -5.14777
LJ           1.39061         3.81402        -3.19259
LJ         -0.272855          5.1066        -4.69389
LJ          -5.74419         5.19902        -4.07973
LJ         -0.849168        -1.59419         2.25515
LJ          -1.54805        -1.08452         -2.3377
LJ          -5.49354         3.01687         1.58491
LJ          -3.63272        0.334243         4.82907
LJ         -0.148585         2.52765        -3.13166
LJ           4.81596         2.21515        -4.24541
LJ           1.66787         2.80093        -4.54192
LJ          -1.39445        -3.99023         1.61226
LJ          -3.28204        -6.30324        -3.15016
LJ          -4.13533        0.087295        -4.60775
LJ           1.31242         1.31754          5.4656
LJ          -2.25987         4.84549        -2.57671
LJ          -6.13892         2.99433       -0.798458
LJ          -1.71486          1.6656        -3.24374
LJ           4.34412         4.63589        -1.70957
LJ          -6.26298        -5.54618        -3.32058
LJ          -1.44459         0.17077        -5.43831
