108
#Comment!
LJ          -6.38971        -1.63935         3.28933
LJ          -6.10347        -3.33247         2.16724
LJ          -2.86086        -2.03466        -4.52967
LJ         -0.577073        -5.24127        -3.77031
LJ          -1.43919        -4.86183         2.86196
LJ           1.26742        -4.85465        -1.64194
LJ          -4.31773         4.87012         2.12607
LJ          -6.40987         5.27244          1.4604
LJ           2.73808        -1.91316          4.4039
LJ           1.31395         4.00081        -3.87892
LJ         -0.555406        -6.29099        -5.29489
LJ          -5.02274        -3.21345        -4.95434
LJ          -5.08058        -6.20211         2.64197
LJ           0.22144         4.66647        -1.51147
LJ          0.683963         6.26311       -0.425837
LJ          -1.75481         2.28497         4.16316
LJ         -0.490728        -2.67775         5.60572
LJ            3.2339          2.6031        -1.48288
LJ          -6.40799        -4.79214         4.62264
LJ          -3.95664         5.43692         0.39881
LJ         -0.833187        -3.03887        -3.29322
LJ            -5.408        -6.31196        -5.32741
LJ          -5.57811         3.07181        0.951655
LJ           4.83261         -5.1168        0.344414
LJ          -5.59085         5.04903         3.84857
LJ          -5.04773        -6.40539        -2.26468
LJ           3.97589        -1.32519        -4.34911
LJ           5.88804        0.769102         0.39648
LJ          -3.70318         2.92105       -0.836883
LJ         -0.424638        -5.29149         2.96095
LJ            1.6662        -1.50273        -5.01848
LJ          -1.05179        0.769556         2.15384
LJ            1.8811         6.06452       -0.828447
LJ           2.26568        -3.45892         2.81696
LJ          -5.71394        -2.68658        -3.19015
LJ           1.10995       0.0483527        -4.11734
LJ           -3.7258         2.54609         3.61923
LJ           4.39041        -4.02629        -2.15812
LJ           5.37769         5.59319       0.0198532
LJ          -1.76181      -0.0909415        -1.03092
LJ           4.56609        -2.18772       -0.454825
LJ          0.506312         5.70315        -1.45649
LJ           3.27186           2.592         3.81374
LJ           5.91669        -3.94087         3.12934
LJ           1.93716         2.83422         4.20688
LJ         -0.409327         4.50415         5.71756
LJ          -4.28052        -4.65037        -1.75447
LJ           1.96236       -0.164413          1.3626
LJ         -0.402605         3.70518        -2.62935
LJ           -2.8761         1.06063         1.60078
LJ          -1.33488         -4.3423        -6.00901
LJ           -3.3989       -0.762055        -4.22928
LJ           3.97146         1.26888        -2.06617
LJ           1.37979        -2.03615        -3.07961
LJ            1.8723         5.09323         3.85683
LJ          -5.26933         1.17728         5.87634
LJ          -6.13476         6.16088        -2.35089
LJ           3.39771         1.72281        -0.47733
LJ             3.495        -1.98643          1.4858
LJ         -0.721821        -4.47326        -4.39096
LJ          -1.84721        -3.05067         1.97686
LJ           -2.8395        -4.72489        -6.25245
LJ           2.35538        -2.96972       -0.408115
LJ          -5.16797         1.71018        -4.39102
LJ           2.97567       -0.824735         -5.3503
LJ          -2.73409         2.55702        -5.73133
LJ           6.34732        -1.75445        -6.22346
LJ           5.72716       0.0177116        -3.93232
LJ          -2.18283        -6.44616        -5.29133
LJ           1.94481         6.13823         3.10536
LJ          -4.08295         1.50161        -1.03568
LJ           6.14395         1.38051        -4.78658
LJ           1.13277         5.49382        -2.46271
LJ         -0.314782         2.13671        -6.24462
LJ           5.35857         0.92812       -0.971959
LJ            -2.086        -6.35045         1.88971
LJ            3.8883        -2.80031         4.98292
LJ          0.628174        -3.21139        -3.29361
LJ           -1.0698        -1.41399        -3.64641
LJ          -3.17694        -6.24811         5.66839
LJ            2.8906         -4.5484        -6.03991
LJ          -4.81918       -0.128527         3.83896
LJ           4.48508        -4.70601        -4.18615
LJ           4.69325         1.31614         4.55439
LJ           6.08525         6.08879         3.25941
LJ          -3.45516        -5.31277        -3.68269
LJ           4.77241         4.49838       -0.787499
LJ          -1.66902         4.90254        -1.42959
LJ           4.15097         1.89504         3.58472
LJ           2.00052         3.24413         6.15874
LJ         -0.701584         1.16858        -4.46063
LJ          -4.51017         2.48671         1.11769
LJ          -4.97887        -5.07173        -3.55718
LJ          -2.35766        -1.59508        -5.56297
LJ           1.91381          5.7535         1.57622
LJ           1.72235        -3.48817        -3.76205
LJ          0.877284        -3.06909        -1.18082
LJ           -3.1714         3.16843         4.78474
LJ           3.71801         4.75913        -2.27987
LJ          -5.40757        -4.14178          2.0509
LJ         -0.259696         4.32999        -6.06079
LJ           4.26832       -0.615606         5.10716
LJ          -6.43968        -6.43864          1.4179
LJ         -0.239863       -0.955201        -2.93904
LJ          -1.66005          4.2499         4.00585
LJ          -5.23892        -3.61972        -3.10492
LJ           3.80087        -6.22268        -1.52903
LJ            4.5879        -5.99717        -6.22755
