108
#Comment!
LJ          -2.20115         1.46028        -2.41998
LJ         -0.438737         1.79893        -1.46652
LJ           6.24448        -5.47162         3.50316
LJ            4.6419         2.12723        0.615426
LJ          -3.99968         4.11217       -0.432532
LJ          -3.24967         6.09857       -0.134117
LJ           2.98599        -3.70707        -1.15405
LJ           -6.0253        0.956844         1.74012
LJ          0.625907        -5.51492         4.66122
LJ           1.21728        -5.91388        -2.97961
LJ           -3.8188        0.657134        -1.98893
LJ           4.41337         3.39921         2.72478
LJ          -2.35774          4.5086        0.702573
LJ          -2.19457        -1.19522         -4.1398
LJ          -1.48963        -1.13845        -5.89571
LJ          -2.77589        -1.45624         6.41037
LJ          -3.31088        0.735526        -6.15454
LJ          -2.45349         3.77524       -0.525626
LJ          -4.29955       -0.766224         3.70537
LJ          -5.30082       -0.129776         2.11988
LJ           4.46681        -4.20573         3.61089
LJ         -0.592115        -4.03886        -3.24368
LJ          -2.21176         5.58121        0.278678
LJ          -6.05594        -2.69685        -4.01772
LJ          -4.99438          2.3212        0.910473
LJ         -0.415366        -2.73012         3.28602
LJ          -2.84811       -0.218695        -5.90059
LJ          -3.48624        -4.95206         4.51776
LJ           6.40772         2.79724         1.95099
LJ          -1.09208         2.12009        -3.01446
LJ         -0.290105        -1.36407        -5.20303
LJ          -4.71704         0.23407         3.24325
LJ          -3.68019       -0.949609        -0.99385
LJ          -4.99074          1.2524        -5.46909
LJ          -2.62141        -4.38847        -5.38724
LJ          -2.55866        0.729387         3.64131
LJ          0.814015        -1.32986       -0.614551
LJ          -1.30795         1.73884         5.26461
LJ          -1.71554         3.00794        0.162861
LJ           2.26258        -5.71863        -5.12888
LJ           3.76692         4.19285         3.92202
LJ           -2.9678         -1.9672          2.7178
LJ           3.62927        -2.25088        -3.26838
LJ            4.8328         3.89738       -0.291636
LJ          -2.97553         4.63127        -3.54794
LJ          -2.17577         5.50426        -1.47597
LJ           2.73866        -1.35213        -4.61758
LJ           2.66137         3.03416          5.8808
LJ          -6.41174          3.4445        -2.38789
LJ         -0.713921         5.18181        -5.20033
LJ           4.71615          -2.878        -5.65355
LJ           2.26537        -5.81048        -0.54334
LJ          -3.80084        -1.42407        -1.84563
LJ           1.54604       -0.686991        -2.10216
LJ          -2.17133        -5.69748         2.45113
LJ          -2.52027          4.0871        -6.19076
LJ         -0.189145         -1.7973         -2.6888
LJ          0.681177        -4.30885          1.4667
LJ          0.201042         2.21039         3.33857
LJ           1.32804        -3.26526        -1.82677
LJ            5.5677         3.08165         5.35145
LJ         -0.601921        0.466072        -5.81146
LJ           2.34729         0.38439          4.9022
LJ            5.9175         4.00788         1.56472
LJ         -0.362944        -2.39457         1.60981
LJ          -4.40729        -3.85407         1.60507
LJ           5.62132         2.31803        -3.74852
LJ          0.660588        -2.69452         4.04586
LJ          0.306921          5.3963        -1.61152
LJ           3.04905        -5.75209         4.38706
LJ          0.321584        -5.17016        -5.18265
LJ           5.89059        0.204988         2.16555
LJ          -2.55436        -3.87161         2.94576
LJ          -3.06116        -2.39868        -6.09188
LJ          -3.32936        0.772341         -3.0316
LJ          0.138592        -2.88694        -4.96397
LJ           5.41369        -2.90085         4.31384
LJ          -1.97929         1.12621         2.85739
LJ           2.51787         -3.4115         4.71617
LJ         0.0215355         4.00348         2.24806
LJ          -3.45191        0.612569        0.531785
LJ          -2.75951         1.90337         -5.3632
LJ          -5.03205        -5.37165         5.76931
LJ          0.412736         1.13199        -2.12944
LJ          -6.17203        -4.66794         6.45823
LJ          -5.91455         4.38564        -6.07148
LJ          -4.79469         6.39285         3.93714
LJ          -3.57997         2.03552         -3.0975
LJ           5.51149        -6.25222         2.80818
LJ          -3.46839          5.2557        0.431606
LJ          -5.37843       -0.716998         4.43932
LJ           5.53628        0.828668         3.78964
LJ          -2.49045         4.79381           2.188
LJ           6.16668        -2.63666        -5.17619
LJ           5.51315         3.23134         2.14416
LJ           6.26236         -4.2927        -4.80969
LJ            4.8398        -1.28041        -2.52273
LJ          0.465159          4.3391        -1.02685
LJ           2.49955        -4.79009         2.80931
LJ           4.92524        -4.55278        -5.72751
LJ          -2.05934         6.26357        -4.34142
LJ          -6.07582        -2.11627         4.48163
LJ          -2.69987         4.09923         5.34701
LJ          -3.99194       -0.476751        -2.48269
LJ          -2.51018         1.82356        -3.74946
LJ          -6.28363        -4.39284         4.87953
LJ           -1.5176         5.36271         1.75376
LJ           1.83654         6.39048          4.6101
