108
#Comment!
LJ          -2.20245         1.46809        -2.43023
LJ         -0.432143         1.79399        -1.45989
LJ           6.24999        -5.46728         3.50327
LJ           4.63496         2.12764        0.612295
LJ          -4.00111         4.11055       -0.429425
LJ          -3.24471         6.09294       -0.132227
LJ           2.98771        -3.71206        -1.15963
LJ          -6.02648        0.959739          1.7472
LJ          0.625997        -5.50736         4.66194
LJ           1.21618        -5.90912        -2.99065
LJ          -3.81613        0.652893        -1.99197
LJ           4.40301         3.39241         2.71197
LJ          -2.35865         4.51332        0.702713
LJ          -2.19147        -1.20167        -4.13819
LJ          -1.48128        -1.14115        -5.90208
LJ          -2.77417         -1.4435         6.40766
LJ          -3.31377        0.737857        -6.14323
LJ          -2.45115         3.77396       -0.526209
LJ          -4.30467       -0.766815         3.69951
LJ          -5.29732       -0.128266         2.12131
LJ           4.46692        -4.20556         3.61571
LJ         -0.588911        -4.03926         -3.2402
LJ          -2.21746         5.58454        0.275824
LJ          -6.06628         -2.6892        -4.01707
LJ          -4.99459         2.32358        0.906981
LJ         -0.418508        -2.71868         3.28767
LJ          -2.85272       -0.219816        -5.90209
LJ          -3.48193        -4.94586         4.51971
LJ           6.40572         2.80513         1.94622
LJ          -1.09801          2.1104        -3.01726
LJ         -0.285481        -1.36044        -5.19737
LJ          -4.71873        0.225464         3.24139
LJ          -3.67136       -0.939294       -0.995548
LJ          -4.99125         1.25254        -5.46218
LJ          -2.60882         -4.3902        -5.39665
LJ          -2.55092        0.719986         3.65313
LJ          0.816712        -1.32517       -0.618731
LJ          -1.30607         1.73668         5.26881
LJ           -1.7091         3.00803        0.165099
LJ           2.26531        -5.71441        -5.12385
LJ            3.7707         4.19034         3.91552
LJ          -2.97453        -1.97127         2.71875
LJ           3.63353        -2.24397        -3.26054
LJ           4.83042         3.88553        -0.28569
LJ          -2.97305         4.63284        -3.55681
LJ           -2.1852         5.50715        -1.46948
LJ           2.73828        -1.35245        -4.62569
LJ           2.66123         3.02823         5.87711
LJ          -6.40576         3.44525        -2.39257
LJ         -0.712181         5.16934        -5.20921
LJ           4.71487        -2.87741        -5.65699
LJ           2.26005        -5.80047       -0.537169
LJ          -3.80289        -1.42296        -1.84026
LJ            1.5466       -0.690131        -2.09351
LJ          -2.17776        -5.69444         2.44356
LJ          -2.53238         4.08944        -6.17889
LJ         -0.194417        -1.79941        -2.69405
LJ          0.677658        -4.31117         1.47791
LJ          0.195846         2.20129         3.33403
LJ           1.32363        -3.26597        -1.82872
LJ           5.57337         3.08232         5.34533
LJ          -0.60538        0.470942        -5.81206
LJ           2.35182         0.37975         4.90837
LJ            5.9215         4.00493         1.56341
LJ         -0.364671        -2.40156         1.58835
LJ          -4.40014        -3.84929         1.60381
LJ           5.62509         2.32902        -3.74585
LJ          0.658975        -2.69264         4.05475
LJ          0.300459         5.40108        -1.60186
LJ           3.04219        -5.75543         4.39432
LJ          0.322094        -5.17573        -5.17438
LJ           5.89292        0.209016         2.17138
LJ          -2.55017        -3.87239         2.94176
LJ          -3.05853        -2.39682        -6.09674
LJ          -3.33281        0.779724        -3.03461
LJ          0.130155        -2.88433        -4.96342
LJ           5.41613        -2.89034         4.31694
LJ          -1.97708         1.12919         2.86536
LJ           2.50156        -3.40367         4.72004
LJ         0.0315446         4.00516         2.24574
LJ          -3.45174        0.608175        0.531611
LJ          -2.76752         1.89824         -5.3591
LJ          -5.03071        -5.36748         5.77244
LJ          0.419134         1.13381        -2.12383
LJ          -6.16702        -4.67607         6.45531
LJ          -5.91055         4.38007        -6.06826
LJ          -4.80042         6.39458          3.9402
LJ           -3.5826         2.03701        -3.10317
LJ           5.50698        -6.25425         2.80731
LJ            -3.446         5.26493        0.426086
LJ          -5.37388       -0.718758         4.44819
LJ           5.54362        0.822873         3.79063
LJ          -2.49109         4.78595         2.17868
LJ            6.1603        -2.64007        -5.17836
LJ            5.5124         3.23457         2.15652
LJ           6.25489        -4.29215        -4.81582
LJ           4.83214        -1.27807        -2.53208
LJ          0.457441         4.33642         -1.0234
LJ           2.50101        -4.79844         2.80446
LJ           4.91957        -4.56194        -5.72968
LJ          -2.04986         6.26502        -4.34674
LJ          -6.08146        -2.12273         4.48572
LJ          -2.68098         4.09902         5.34905
LJ          -3.98846       -0.469799        -2.47165
LJ          -2.50003         1.82178        -3.75244
LJ           -6.2838        -4.39261         4.87767
LJ          -1.52271         5.35165         1.74888
LJ           1.82438         6.38494         4.60347
