108
#Comment!
LJ          -2.09518        -2.67681        -5.72215
LJ          -3.38199         5.85629        -5.01238
LJ          -4.38965         3.96655        -4.16502
LJ           5.80909        0.749514       -0.125167
LJ          0.712566        -3.17995         4.17333
LJ          -4.38586        -1.60085        -3.13314
LJ          -4.14055         5.53986          4.0266
LJ          -1.22707        -2.51047        -5.32456
LJ          -6.01509         4.22193        -1.11645
LJ          -3.42911        0.492443         4.53556
LJ           -4.3358         1.60203       -0.909595
LJ          -1.13757         3.58758         5.58422
LJ           4.84633        -4.94561        -4.06414
LJ          -5.72912         3.81419        0.146055
LJ           4.14272        -6.01271        -5.85785
LJ           2.22483         3.39855        -1.22261
LJ          -3.33891       -0.961482        -4.58944
LJ          -2.44077         3.23725       -0.277186
LJ           2.57574       -0.457217         3.66967
LJ          -2.07143         -5.6788        -5.27893
LJ          -4.86023        -3.36626         3.03595
LJ          -0.88684         6.08699         1.85725
LJ           -0.4383         6.32228         5.60365
LJ         -0.254066         2.89389        -2.34942
LJ          -5.33009        -6.14773         2.08718
LJ           3.13409        -4.11897          1.6167
LJ          -5.03072         4.32665        -1.91201
LJ            6.1732          1.8483         6.21698
LJ           4.03476        -2.36009       -0.447615
LJ           -4.8424         5.59371        0.308746
LJ          -5.55853        -2.49065         -6.2175
LJ          -1.87102         1.29803         -2.7721
LJ          -2.38765       -0.126716          5.6745
LJ           2.83326        -2.96079          1.8245
LJ          -5.25849          3.9255         1.33804
LJ           -1.9232         1.53796         4.46235
LJ          -6.07343      -0.0677916         5.60948
LJ           5.62885       -0.733683        0.147725
LJ          -3.89012         -5.4754        -5.24579
LJ            3.9182       -0.782447        -3.10335
LJ          -1.37644        -5.46327         3.27349
LJ          -5.15428        -2.26672         3.26006
LJ           3.50042         4.51084        -1.66439
LJ          0.513862        -5.71015         3.12207
LJ           1.54708        -4.31291         -5.4369
LJ          0.755361        -1.54506         1.62064
LJ           4.19168        -2.97432         2.11552
LJ           5.90273        -5.67781         1.51505
LJ           -1.6565        -3.46732       -0.793201
LJ          -5.38653       -0.730816        -6.17205
LJ           4.46438        -1.65663         1.33419
LJ          0.494396          2.3988         2.70593
LJ           2.09156         3.64991         2.79588
LJ         -0.862681        -4.29938         1.07161
LJ          -1.48684         4.01415        -2.44539
LJ           3.33094        -2.02459        -1.06902
LJ          -4.76189        -6.21979         5.06604
LJ          -0.83981         4.76717         6.05453
LJ          -3.66457        -3.12439         5.81177
LJ         -0.314084        -5.55778        -5.72286
LJ           3.82249       -0.152511         3.94365
LJ          -3.14562        -1.43908        -3.59833
LJ         -0.771242         -2.8846         1.78744
LJ          0.825224         6.35461        -6.24615
LJ           4.22008        -5.81276        -3.88688
LJ           4.58635         2.37557        -3.07497
LJ          -1.76598        0.243314        -5.70372
LJ           6.43855        -1.03732        -2.00198
LJ           2.21772          4.8146         5.92832
LJ          -5.75354         4.60562        -2.72541
LJ          -4.55259         1.94195        -3.96465
LJ         -0.268203         -1.2021        -2.71917
LJ          -2.80837        0.906994        -3.09799
LJ           2.35632         5.90631         2.14423
LJ          -2.90582        -5.70693        0.448554
LJ          -1.94786       -0.238643           3.401
LJ          -5.16629         0.20036         2.55277
LJ           1.48859         2.75239        -3.09623
LJ           1.82544         3.65811         5.15226
LJ            2.7405        -1.26306       0.0378214
LJ           4.26973        0.592891         4.85051
LJ           3.73179        -4.13798        -4.60114
LJ          -4.23766        -5.43562         4.58809
LJ          -5.62926          4.4505        -5.69109
LJ           2.98531         3.65173        -4.27252
LJ           6.18893          2.8403        -3.97249
LJ         -0.452644        0.880561         4.24556
LJ          -3.78453         1.56697          1.6264
LJ          -2.18744        -6.08494        -4.08981
LJ        -0.0911208         2.44768         3.74403
LJ         -0.587925         4.74552        -2.62205
LJ           1.01821        -3.71624         1.87104
LJ          -1.94052        0.766756         3.09054
LJ           3.16624        -1.53644         3.89993
LJ           6.06638        0.908021          1.2657
LJ          0.738644        -3.42883        -4.59856
LJ           5.40359         -1.3902         4.59913
LJ         -0.192438        -1.09511        -5.90975
LJ          -1.53099          4.2445         2.94585
LJ          -2.00886         2.91582        -6.44967
LJ           1.52616        0.152092        -3.83147
LJ           1.65965        -3.42382         -2.1559
LJ         -0.356632        -3.36026        -2.01515
LJ          -1.08135        -4.07625        -1.57302
LJ          -1.97897         2.55648         5.47251
LJ          -5.33603        -4.34599         5.79569
LJ           4.20706         3.49586          2.6691
LJ         -0.380147        0.911574         6.32288
