108
#Comment!
LJ          -2.53869         -1.1425        0.503413
LJ          -2.67085         2.43861        -3.90174
LJ           5.11834        -4.97669         5.34386
LJ           6.35028      -0.0868878        0.415878
LJ          -5.22962         5.65247        -1.02264
LJ          -4.80248        -5.15982       -0.687811
LJ           1.70567        -2.06278        0.278585
LJ          -5.28275        -1.07188         -0.8907
LJ           0.21202         4.97182         4.36117
LJ           1.83614         4.69501        0.929356
LJ          -4.47906       -0.458843        -1.08633
LJ           6.41167        -5.29973         5.02646
LJ          -1.82778         3.12704        0.458922
LJ          -3.45594         1.91352        -4.10142
LJ          -2.28044        -2.38672        -5.37148
LJ          -2.24656        -3.38843        -5.72077
LJ          -2.55485        -0.59337         3.39878
LJ          -2.46897         4.05653      -0.0309984
LJ          -3.01382        0.161962         5.46654
LJ           6.06245        -0.41946         1.74374
LJ           4.25797        -3.34847         1.78296
LJ          -1.69525        -4.19147        -4.23831
LJ          -1.13717         3.32388         1.19238
LJ           -5.5158        -3.45461        -5.57145
LJ          -6.42094         1.78375         2.12503
LJ          0.914095        -5.91385          2.4217
LJ          -2.09136         1.18198        -6.12522
LJ          -5.05533         5.64191         3.58136
LJ          -4.67156        0.512674         2.37975
LJ           2.28513         4.09248        -2.09895
LJ          -2.79626        -2.33727         5.70416
LJ          -3.98386         2.65026         3.47535
LJ           6.07514        -3.64944        0.459214
LJ          -4.66456         1.15428         4.88975
LJ          -2.83307        -5.91118        -2.40038
LJ          -4.50634         3.81679        0.759907
LJ         -0.270595         -2.7984        0.454974
LJ          -2.02138          2.6041         3.76168
LJ          -3.65718         3.45273        0.333498
LJ           1.23984         5.65115          5.8862
LJ           2.48827         4.91876         6.00249
LJ         -0.547269       -0.507354          2.4252
LJ           4.11966        -4.42332        -5.85252
LJ           5.72577         -4.7891        -2.42057
LJ          -2.83426         3.86607        -1.04411
LJ          0.239927         6.15138        -4.03065
LJ           2.89885        -1.63738        -1.47515
LJ           2.80133         5.25691        -5.51709
LJ            4.3045         3.19115       -0.659928
LJ          -1.51727        -2.85582        -2.25152
LJ           5.11972        -1.99107        -3.80873
LJ           3.36241         3.62007        -2.98218
LJ          -4.47882        -1.96378        -4.34472
LJ           1.14903         0.21774         -5.2086
LJ          0.411834         6.19986            5.91
LJ           1.89271         3.15174         2.16806
LJ           1.97281        -1.04882       -0.704467
LJ           2.27117         -3.1013        -2.63814
LJ           2.23756         5.24005         4.96782
LJ           3.10321        -2.97027       -0.524112
LJ            3.4573         2.91589          -5.398
LJ        -0.0916309        0.369494        -2.98009
LJ          0.704733         2.16665         2.65292
LJ           5.42574         4.44807         1.46115
LJ           1.15305         -2.6973        -5.66696
LJ           5.96372          -5.741         2.40849
LJ           4.30363        -1.76744        -4.67172
LJ          0.668407        -3.93103        0.931215
LJ           2.75285         3.74792        -4.00464
LJ           4.69014         -5.8289         1.76498
LJ          0.231245        -3.05887         4.83744
LJ           5.51753        -1.16046        -1.00042
LJ          -4.09258        -3.62615         4.40905
LJ          -3.88898        -5.54946        -3.07928
LJ          -2.83752       -0.654544       -0.723731
LJ          0.924843        -3.68521        -5.61351
LJ          -4.06346        -6.43281         2.22067
LJ          -2.76341        0.652744       -0.827821
LJ           3.09086        -6.32643         4.84393
LJ          -3.62344         3.45835         3.02988
LJ          -3.33576         2.37442        0.738043
LJ         0.0825883         3.60487         6.06398
LJ          -5.94134         6.43027         4.66268
LJ          -2.74443         1.19581         -3.8227
LJ          -5.99995        -2.97469         4.90239
LJ           5.88477        -6.32478        -5.77493
LJ          -2.39792         5.88334          2.8775
LJ          -2.83192          3.0157       -0.386203
LJ           6.00742         5.89799         1.47624
LJ           5.87624         4.09716         2.48732
LJ          -6.37899        -1.12298         2.52538
LJ           2.91443         2.94108         3.33478
LJ          -1.96692        -4.90607         4.77483
LJ          -5.66963       -0.415148        -3.74711
LJ          0.431675         3.12522       0.0527742
LJ          -5.90359        -4.72053        -2.15027
LJ          -5.22361        -2.37753        0.955671
LJ           3.46064         5.59137        -3.01523
LJ           2.12424        -1.83161         4.74271
LJ           5.91116        -1.45253        -3.15904
LJ          -5.40011         5.61745        -2.31226
LJ           -3.7571         0.27665         3.16881
LJ          -5.99821         1.81688         5.98653
LJ          -3.88062        -2.86881        -6.15594
LJ          -4.77558         1.79794         -3.7849
LJ          -5.32728        -4.20787          5.6068
LJ        -0.0627225        -4.22044         3.15859
LJ           5.58225        -4.29931         6.15573
