108
#Comment!
LJ          -3.20059        -3.19579          2.0404
LJ          -2.11984         3.22184        -5.23452
LJ           6.18794        -4.81999         4.10508
LJ            6.2208         -2.0845        0.695231
LJ           5.61218         -4.8925       -0.353262
LJ           6.10396         -4.0705        -1.37351
LJ           1.63822       -0.441739        0.283545
LJ          -5.47032        -4.52402        -2.93165
LJ          -1.11624         3.94637         4.31993
LJ            2.5675         2.26979         1.79077
LJ          -2.74234        -1.31088       -0.470492
LJ          -4.06409       -0.256497          5.4013
LJ          -1.00424         3.51666         2.32798
LJ           6.39892         3.21712        -4.84962
LJ          -1.21028        -3.47903         5.62869
LJ          -1.90493        -5.32265        -5.91703
LJ          -2.93711       -0.485883         1.78696
LJ          -3.28249         3.75787         1.29779
LJ          -1.48232         1.06394        -6.46106
LJ           5.08064        -1.33908        0.461286
LJ           5.61889         -2.8952         1.65928
LJ          -2.59781        -4.59863        -3.95778
LJ          -1.94065         1.55014          1.9807
LJ           -5.4881        -3.86328         5.17621
LJ           5.34576         3.45011         3.14944
LJ           1.47723         4.67926         1.67303
LJ          -1.84737         2.70072        -6.31494
LJ          -5.78558         4.04605         2.23474
LJ          -3.65923        0.831364        0.963358
LJ          -6.19883          4.0988        -1.66875
LJ          -4.06571        -1.66061         5.01127
LJ          -4.77332          2.0576         5.10106
LJ           3.20929        -4.86795         1.61172
LJ          -4.32701        0.431866         2.50683
LJ          -1.46627         4.97251       -0.393803
LJ          -5.13051        -6.45932       -0.681066
LJ          -2.06166        -2.65718      -0.0276316
LJ          -2.74531         3.39284         2.24669
LJ          -3.53161         4.79276        0.752961
LJ           3.79445         3.65545         3.57567
LJ           2.31398         5.20678        -3.97837
LJ           1.40993        0.724826         2.20145
LJ           5.18894         -5.7766        -5.15407
LJ          -5.79461        -1.26469        -3.96458
LJ          -1.41562          3.7461        -1.87732
LJ           1.07993        -4.20306         6.30725
LJ           2.65217        -1.83195        0.768174
LJ           2.52805        -6.14387        -4.13455
LJ           2.74198         4.13933        -1.91195
LJ          -2.46141         1.61068        -0.35423
LJ          -6.22162        0.595749        -3.82823
LJ            3.4487         1.27754        -4.03366
LJ           6.03246        -2.39192        -4.99306
LJ           0.70527         0.68161         5.16829
LJ           1.12314        -6.29707         -4.0289
LJ           5.25744         1.31256         1.40727
LJ           2.82391        -1.20111         1.60625
LJ           3.94046        -1.97202        -6.07938
LJ           2.97296         5.11007         5.44434
LJ           2.96006        -2.79601       -0.309845
LJ           1.47985        0.953875        -5.44327
LJ         -0.185879         2.83648         2.86669
LJ           2.53718         4.31606         1.54964
LJ           5.99852         4.83429         2.56738
LJ           3.81054        -3.36217        -4.39658
LJ            3.8164         4.75349         2.58738
LJ           3.51596        -5.47634        -4.92537
LJ           1.50494         6.40346       -0.255837
LJ           4.56269          4.7908        -4.11927
LJ          -6.41289         6.25725        0.247818
LJ        -0.0883863       -0.567167         2.68703
LJ           4.75995        -3.28565        -2.23905
LJ          -5.21932        -3.62331         3.50777
LJ          -3.80546          6.4558        -1.54847
LJ          -3.45723        -3.50411        0.633126
LJ         -0.748056         6.25377        -6.18087
LJ          0.341115         3.36594        0.734418
LJ          -3.64783         1.79861        -3.12467
LJ          -2.55679        -5.26897         5.05125
LJ          -5.50326         5.96886         2.11891
LJ          -4.16607         2.18921        0.277485
LJ           2.06552         5.06627         4.66414
LJ          -5.87092         4.76747         3.30822
LJ          -5.61277         2.42577        -5.29465
LJ          -6.22423        -3.18778         2.95713
LJ           5.84435        -4.05905        -2.89072
LJ         -0.738261         5.22323          1.4766
LJ          -4.22736         3.26882         1.09461
LJ           5.86484         4.39733         1.17968
LJ           5.08432         5.45929         2.71998
LJ           5.84514        -3.73266         2.69247
LJ          0.298811         4.71818         5.00728
LJ           1.20644        -2.92354         6.34803
LJ           6.44628         1.67693        -1.75051
LJ          -4.43456        0.431859        -1.81983
LJ           5.40602        -5.57428        0.916767
LJ          -2.91231        -3.68744         4.01495
LJ           6.30512         6.09799        -5.05834
LJ           1.55906        0.741415         6.40103
LJ           5.39894        0.735363        -1.29298
LJ           4.63691         4.72521       -0.914974
LJ         -0.506777         1.33278         3.27707
LJ          -5.97426        -2.09515        -5.53946
LJ          -2.88496        -2.87879         5.96802
LJ           6.15346         2.08318         -4.0196
LJ           -5.0374         -5.2418         6.28568
LJ           2.05895        -2.36906           3.964
LJ           5.17872        -3.66669        -5.83855
