108
#Comment!
LJ            3.0283         3.86335         2.13383
LJ          -1.46339         1.67006         4.09906
LJ          0.780155          1.2154        -2.09956
LJ          0.425714        -1.20648        -5.63472
LJ           -2.4851          4.2529        -1.49024
LJ          -5.18327        -5.65244         1.79771
LJ           -2.3844         6.42544        -3.48209
LJ           2.85727        -5.66107         2.28765
LJ          0.575151         6.35673         6.43753
LJ           3.18875        -4.79716        -6.27789
LJ           4.72423         5.04932        -6.08041
LJ           3.74234         1.66057       -0.380292
LJ          0.584111         2.68796        -3.45154
LJ          0.866959         -1.2091         5.76997
LJ           2.22811        -5.23986        0.322534
LJ          -4.56086        -3.57151        -2.57013
LJ         -0.721014        -3.46198        -2.42775
LJ          -5.77345        0.764129         3.43979
LJ           2.06369         1.93326      -0.0448729
LJ          0.759836         1.70049         2.48963
LJ          -1.84857        -3.82814        0.460107
LJ          -3.89152       -0.882675         3.19884
LJ          -5.00351        -2.01926          2.1791
LJ           1.85646         4.16684       -0.308172
LJ           3.51623        -3.02923       -0.315957
LJ          -3.16969         3.24571         -4.4713
LJ          -5.89395         3.49514          5.2481
LJ          -4.34467         4.06992         4.40611
LJ           1.82491        0.261067        -3.66105
LJ          -4.27925        0.293187        -1.74347
LJ           3.08544        -1.62097         5.80588
LJ          -5.36702         2.64372         1.70521
LJ           4.52534         3.79225         5.08577
LJ          -2.02532        -1.57512        -3.36796
LJ           4.22649         0.63405        -6.36186
LJ           2.64661        -1.32011        -3.75561
LJ           6.43638         5.19712        -2.28475
LJ           5.43534         -4.1106         4.93184
LJ         -0.745128        -4.38918         1.36679
LJ          -4.33902         -3.4196         5.83184
LJ          0.996535         2.51074        -1.06817
LJ         -0.860575        0.304499         4.53254
LJ          -1.51402       -0.816875           3.484
LJ           4.24097         4.59508         3.79795
LJ          -5.40366        -4.18149        -6.02737
LJ           4.66092        -2.59076          4.3849
LJ           1.52723        -5.05378          2.5797
LJ          0.400104         6.26923        -5.40339
LJ           3.40529         1.94937        -1.73346
LJ          -2.28628        0.136911        -5.87514
LJ          -5.49696        -5.79561         4.66399
LJ          0.488761         2.47943         1.09741
LJ          0.846354        -4.72514        -2.23158
LJ           5.39062        -4.59846        -1.86578
LJ          -5.54342         4.07743         3.49928
LJ          -3.14274        -2.31066        -2.00061
LJ          -3.92536          4.6304          1.4601
LJ           5.49264         3.87572        -1.61114
LJ            4.1596        -5.89194         5.72621
LJ          -2.63268         -4.1868          2.8398
LJ           1.68582       -0.774178         1.82535
LJ          -5.42756        -1.95044         3.76931
LJ          -6.31838        -3.99385         4.15949
LJ          -6.28994        0.700936         2.42878
LJ          -1.12029       -0.129505        -2.85164
LJ           3.24273        -6.01978        -5.80507
LJ           5.81811         6.10543        -2.76831
LJ          -6.28106        0.184417         4.95986
LJ           3.98109        -3.87518        -2.92011
LJ          -1.06433         3.97269       -0.282645
LJ           5.92871         5.80868        -1.37021
LJ           5.26569         1.24081       -0.652217
LJ           2.29118        -6.12968         1.40151
LJ          -3.90482        -5.45957        -6.02206
LJ         -0.515817         2.38075          3.2367
LJ          -4.88545       0.0321975         3.62007
LJ           -2.4309         2.70174        -3.70928
LJ          -4.68418         5.25584         1.71599
LJ           5.41448        -2.72253         2.55681
LJ          -5.61245         5.26417         5.73729
LJ          0.476104        -5.67046       -0.437741
LJ          -6.06193        -4.85316        0.849674
LJ          -2.87886         3.57239         -3.0254
LJ          -1.37923         2.66871         3.86989
LJ          0.672579         5.65373         0.94755
LJ           2.32437         2.19818         5.80854
LJ           3.36471        0.723416         2.07267
LJ          0.184047         5.32767        -1.19513
LJ           3.78513         5.20197        -2.62557
LJ          -3.66391         5.73583          4.5956
LJ          -4.88966          3.1678          6.0675
LJ           2.59755        0.158012         1.83968
LJ          -4.51113         4.92429         6.31154
LJ           2.82294       -0.763192         4.12278
LJ           6.39377         2.65625        -1.24814
LJ           5.51188         3.43853         3.43364
LJ          -1.09465         6.26393         5.59877
LJ           6.02663         4.58103        -5.73777
LJ          -3.42736        0.283509         1.92756
LJ          -5.29059         -5.0826         3.79097
LJ           1.80453        0.357025       -0.390414
LJ            6.4113        -6.22958       -0.840079
LJ           3.74124         3.53514         3.44531
LJ          0.235075        0.301446         4.11526
LJ          -3.36162        -2.35508         2.66949
LJ          -6.27565        -1.50768        -5.54646
LJ           4.38253          -5.064         2.31992
LJ          -2.62107        -5.02426        -6.17311
