108
#Comment!
LJ           -1.2719       -0.645868         5.03465
LJ          -3.87193        0.355994         5.76425
LJ           6.07502         -6.4373         6.40725
LJ            4.8132         2.65486         1.58789
LJ          -1.27775        -2.31963        -6.09929
LJ          -3.36121         1.93873        -5.12193
LJ          -4.31694         2.10194       -0.313596
LJ          -3.37756        -6.14867         -2.2474
LJ          0.119812        -5.96181         1.87954
LJ         -0.883961         3.52111          3.5069
LJ         0.0623101          2.7413        -1.43735
LJ          -3.77576         1.17635         2.00875
LJ          -2.60276         5.90468        -2.15814
LJ           -2.6907        0.742742        -5.01252
LJ           5.60459        -2.24231        -1.20478
LJ          0.315193         2.75295        -3.59248
LJ           -1.0922         1.18394         5.22405
LJ          -6.40382         5.08315        -4.76704
LJ          -6.27675         1.44518         4.48874
LJ          -1.75457        0.117299        -3.97487
LJ           3.65095         3.71546        0.574258
LJ          -5.60675        -1.18711        -3.16742
LJ          -4.35836         -6.3394        -3.18431
LJ           5.79407        -4.49367         1.65058
LJ           4.95177         4.73639        -1.40663
LJ          0.793176        -5.69536         3.75946
LJ           3.18657        -5.96033         1.26902
LJ          -2.54908         5.53205          3.5908
LJ          -1.28736        -4.42489        -5.80325
LJ          -6.17709       -0.523382         4.93869
LJ           2.76893         2.36988         1.59737
LJ          -0.11374         1.40116         3.39142
LJ           4.37737         1.65643       -0.274948
LJ           1.11156         3.45068         -4.1835
LJ           4.08973         5.07209         -2.7674
LJ          -1.48316        -2.60319        -2.50466
LJ          -1.12864         4.97782        -2.98402
LJ           3.05848        -5.46168        -1.21513
LJ          -4.32912         5.10471        -5.20244
LJ           3.56287         3.38196        -1.15414
LJ           6.31956        -5.19119          1.1193
LJ           3.33653         3.61618          5.0704
LJ           3.43961         3.62441        -5.95435
LJ            3.6216         2.23939         4.91553
LJ         -0.899928        -2.40623         3.56656
LJ           4.49701        0.549572         4.74807
LJ            5.7044         2.75586          4.8457
LJ           -1.0685         1.96604         1.95222
LJ          -3.98059         4.37556        -3.87384
LJ           3.04458         5.94085        0.896276
LJ           5.32057        -5.25297         5.20337
LJ          -1.09224         5.09329          2.0632
LJ           1.23476      0.00962521        -2.38076
LJ          -2.18553        0.960762        -2.64538
LJ          -5.17802         4.84763        -4.38803
LJ           6.18263         3.64842         5.51141
LJ          -5.95467          4.8955         1.18348
LJ           1.16447        -4.42005         5.61418
LJ         -0.129408         2.86023         5.30947
LJ          -1.35614        -6.24122        -5.07677
LJ          -6.28356        -0.70856         6.12921
LJ          0.187939        -4.97741       -0.664118
LJ          -3.44205       -0.802293        -2.02772
LJ           4.64705         1.97426         3.74641
LJ            3.0183         6.20101         2.00896
LJ           2.90573         2.58819        -3.60834
LJ           2.58406         1.16622         6.04213
LJ          -1.74898         1.70486        -2.19699
LJ          0.833933        0.610993         -3.7494
LJ           4.69463         2.72142         5.29326
LJ           1.20325         1.47851         5.86225
LJ           2.37366         3.61575        0.879117
LJ         -0.437765         1.21488        -2.64008
LJ          0.687433         3.37539        -2.25447
LJ          -4.93895        0.379526            1.53
LJ          0.686329        -5.45916        0.323235
LJ           3.53715         3.61283         2.45487
LJ           2.51056        -3.11173         5.11643
LJ           5.72932        0.255763        -6.41085
LJ           4.49645        0.634576        -3.08705
LJ          -1.14895        0.820875        -5.27642
LJ          -6.04426         2.26943         6.07114
LJ           3.39452         4.15957         4.14039
LJ          -6.21924        -4.83747        -1.13132
LJ          -3.07002        -0.68031       -0.970685
LJ           1.29497        -1.80108        -3.66973
LJ           6.34514        -2.00143         4.77324
LJ           2.43376         1.56611         -3.5766
LJ          -4.82042        -3.74917         1.91553
LJ           -3.9584         2.56747         1.11301
LJ           2.74443         5.72667       -0.932122
LJ          -1.05635         5.89778         1.06967
LJ          -3.61262         5.55348        -3.36453
LJ          -2.40428         1.73691         4.74444
LJ           5.62845         1.23756         0.93722
LJ           6.24491         5.43083         2.31147
LJ           6.18489        -1.01865        -1.28019
LJ           2.42397        -5.05864         1.12191
LJ           1.28105       -0.860874         4.94783
LJ          -4.06606         4.34295        -2.16688
LJ           4.35365        -1.62012        -2.35257
LJ           5.22264          -5.417         2.30347
LJ           -3.9333        -3.18722         1.71379
LJ          -3.34623        -2.22428        -2.37715
LJ           0.64839         5.29283        -4.91685
LJ           5.53922         2.60933         3.71174
LJ         0.0653975        -1.53136         6.27119
LJ         -0.955149        -3.61208         -3.6744
