108
#Comment!
LJ            -4.262        -2.54357         6.24642
LJ          -2.37578         5.19255        -6.07827
LJ          -5.63688        -5.91425          5.8393
LJ          0.591927        -5.89117        -3.34919
LJ           1.26021         3.49342          5.4278
LJ          -6.01005        -3.95928         4.00966
LJ          -6.36302        -5.19073        -2.36768
LJ            1.2468        -3.56609         -2.8109
LJ          -3.70498         4.78787         5.66622
LJ          -1.05721        -3.99235        -2.20076
LJ           2.40169        0.827376          4.5833
LJ           1.08943         5.03077        -4.90672
LJ           2.96337        -4.42054        -6.11699
LJ          -1.52347         2.11646         6.41388
LJ          -4.99204         5.35518       -0.758379
LJ          -5.75026        -4.61612        -1.53498
LJ           -1.6724        0.566111        -4.09219
LJ           2.41539        -5.33563         4.24018
LJ          -0.95437         3.27132        -5.00047
LJ           2.96619        -1.88166        -3.23948
LJ           4.00593         -2.4475        -4.84719
LJ           1.19249         4.72652        -3.35173
LJ           4.50211        -5.19905       -0.521245
LJ           -2.7524        -2.29853        -1.92366
LJ           5.53532         3.06367        -4.18274
LJ           4.01337         5.45648         5.25257
LJ          -6.05244        0.155903        -5.37353
LJ          -5.70565         4.09302        -5.17373
LJ          -2.52319       -0.153445        -2.86903
LJ           -6.1694         3.98056         4.52204
LJ          -4.33871         5.16273        -5.94287
LJ          -4.92571         1.74065        -4.91663
LJ           2.06982         2.45794       -0.183341
LJ         -0.317548        0.819868        -5.39515
LJ           1.07785         3.08708        -5.41818
LJ          0.877317         6.29071        -1.75396
LJ          -3.98064         2.87974        0.232007
LJ          -4.35364         5.14319        -2.26636
LJ          -4.32201          1.8882       -0.604653
LJ          -5.60962        -2.83164         1.09414
LJ          0.618455        -4.85747         1.19635
LJ          0.748294        -1.43067        -5.59071
LJ          -4.92647         3.02991        -2.42459
LJ          -1.35382        -6.25802       -0.139222
LJ          -3.64617        -3.94104        -2.77971
LJ         -0.686948        -1.27399       0.0774743
LJ           2.69851         -3.4229        -3.81477
LJ           2.09252        -4.92557        0.603197
LJ           2.87663         6.27769        -1.88589
LJ          -4.32377         1.80229        -6.06514
LJ           4.96472        -2.93769       -0.225462
LJ            5.6129        0.158379        -6.04405
LJ         -0.947989        -1.87201         2.58918
LJ         -0.388116         3.29422         -1.3724
LJ          0.607647        -2.24793       -0.718184
LJ           1.73717        -5.92534         2.20577
LJ            2.1813        -4.26123        -4.79419
LJ           5.15472         1.22381        -2.81596
LJ          -1.78723        -2.28877        -2.20999
LJ            1.2217       -0.827357       -0.678499
LJ          -5.77464         6.07535        -2.72193
LJ          -4.81492         4.50016        -2.86167
LJ          0.309259         5.03143       -0.288742
LJ          -4.89701        -1.82085        0.153629
LJ          -3.10077       -0.892267         3.11037
LJ          0.632929         1.99565        -3.89943
LJ         -0.591342       -0.837311        -2.35782
LJ           2.24682        -6.14377        -3.31792
LJ         -0.815203         4.32683          -3.439
LJ         -0.385995          4.5779         -1.4077
LJ         -0.770103         2.48863         1.66043
LJ           2.64506        -6.33337         1.64113
LJ          -5.30537        -5.81929         1.80818
LJ          -5.27403         -3.1772         6.23425
LJ          -5.48405      -0.0628555         3.33895
LJ          -5.71755         4.01244         1.19708
LJ           2.41793         2.86195         5.59208
LJ         -0.800201         -3.4691         4.92208
LJ           4.69564         0.74851         5.40768
LJ           1.96933        -4.23339         2.99193
LJ          -1.68762         4.28503        0.465287
LJ            5.5007        -5.47599        0.712781
LJ           4.70622        -5.88292         3.07496
LJ           3.51012         4.74068         6.09878
LJ           5.56188        -3.42255         2.84675
LJ           5.50579        0.580187         1.23669
LJ          -4.46301         1.39931         4.27397
LJ           4.93575         1.58462         0.62517
LJ          -6.42623         1.99545        0.822883
LJ          -3.26208        -6.13371          4.5116
LJ           2.66906        -3.48646         3.95442
LJ          0.885383        -2.51008        -3.82564
LJ           4.10723         -4.0205        0.978726
LJ           4.71582         1.40613         1.94721
LJ          -4.46033         3.94545         2.26939
LJ           3.88734        -2.81799        0.936183
LJ           5.15667         2.72073       -0.129139
LJ          -4.54443        -6.37051         3.36037
LJ          -2.54684         3.21895         5.57373
LJ          0.451265         1.93585        0.455212
LJ          -1.73417         2.22112         1.89753
LJ         -0.884819         4.15351         1.26495
LJ          0.219513         3.53262        -4.67848
LJ          -1.61026          1.4648         -5.6178
LJ           3.55343         5.32159         3.60665
LJ            6.1797        0.720622         2.49617
LJ          -0.87828         1.75756         2.82206
LJ            5.6767        -1.35502         5.86867
