108
#Comment!
LJ          0.154257        -3.26295         5.38185
LJ          0.651708        -4.03814           4.362
LJ           2.93203        -6.41628         5.09375
LJ           4.28671         4.31183           1.768
LJ          0.402592       -0.767812        -2.69225
LJ            5.6772         2.47217        -2.41204
LJ          -3.82612          2.2987        -4.60668
LJ          -6.14118        -5.75384       -0.376988
LJ          -2.89075        -4.62452         4.34271
LJ         -0.230223         4.72632         2.76296
LJ           3.00404         3.72962         -1.7839
LJ          -2.08268        -0.47261        -6.08486
LJ          -4.84705         4.61604        -2.41223
LJ          -3.92788       0.0733561         5.08338
LJ           4.20857        -3.18283        -2.40697
LJ          -2.03288      -0.0938425        -2.03999
LJ          -2.43022        0.509244         6.01001
LJ          -5.13582         6.03513        -6.34072
LJ           6.35849         3.31379         6.14798
LJ           -2.1999        -5.05495        -5.64381
LJ           5.95299        -5.33279        -1.64126
LJ           3.67044        -1.13395        -5.43212
LJ          -4.84456         4.68917        -1.14515
LJ          -6.05416        -4.26295         3.81402
LJ           5.82104        -5.92652         -3.3751
LJ         -0.564804        -6.11203         3.25335
LJ           6.41316        -5.09061         2.57303
LJ           5.90525         4.90747         2.88066
LJ          -3.70072         4.16002        -2.82529
LJ          -3.42038       -0.777049         3.62124
LJ           5.50544          3.2544        -1.39989
LJ          -1.98585         1.82852         3.48507
LJ            4.0976        0.350464        -1.45161
LJ           2.17979         2.86384        -3.39743
LJ           1.78284         4.65219        -3.45274
LJ         -0.526295        -4.98625        0.078876
LJ           3.78734         5.15919        -5.15232
LJ           1.27821        -3.30426        -2.40737
LJ          -4.29008         3.33585        -5.35284
LJ           2.01987       -0.306819         -1.0496
LJ           6.02678        -5.36131       0.0909699
LJ         -0.706431         4.68605         4.30878
LJ          -2.24128         3.54143          5.5019
LJ           3.84559         2.77212         3.91987
LJ          -1.76516        -1.91829         2.33678
LJ           5.37454         1.91315        -5.77827
LJ           3.47186       -0.123768        -4.79031
LJ          -4.31071       -0.208666         3.01625
LJ            6.0813         6.12479        -1.15069
LJ          0.305032        -4.19994         1.88431
LJ           6.29784        -3.45559        -4.70962
LJ          -2.06992         4.83232         3.37654
LJ           1.79845        -2.81269        -5.12927
LJ          -2.14731         2.49945        -6.07837
LJ          -6.29625        -6.41026        -5.93581
LJ          -2.71826         5.12126         5.61042
LJ           5.97151         6.19437         1.35496
LJ           1.81148        -1.93895        -5.82407
LJ          0.936383         3.93899        -3.74649
LJ           1.45444        -5.37507        -4.69828
LJ          -5.18848        -1.38574        -3.00962
LJ           1.78983        -3.24902        -3.76902
LJ          -3.70597       -0.679137         -2.2978
LJ           6.09069         -1.5262         1.90639
LJ          -6.13741        -5.57059         3.49255
LJ            2.6411          3.1414        0.650323
LJ            3.2894         2.02502           4.771
LJ         -0.682223         3.66031        0.560246
LJ           3.85172         1.60093        -6.25713
LJ           2.87828         1.97839         2.65387
LJ           2.86179        0.755849         5.64899
LJ           3.49963          4.4753         4.41733
LJ           1.36723          2.0026        -3.04794
LJ          -1.17306        -5.61779        -4.59772
LJ         -0.413468         6.08237         1.54357
LJ           1.17557        -3.96335        -4.72258
LJ           2.40922         2.54493         4.41432
LJ           2.60225        -5.58138         3.28454
LJ           6.33953       -0.123156        -3.61946
LJ           -6.0423         3.48094        -4.08821
LJ           3.01598        -0.79878        -1.76295
LJ          -4.96964         1.60356         4.48466
LJ          0.475783         3.95865          3.0051
LJ          -5.86326        -2.41312        -1.61883
LJ          -4.16265         2.25533        0.377197
LJ           -1.0473        0.179841        -3.44427
LJ           6.43598        -5.00378         4.49492
LJ           2.56767        -3.90027         -4.3505
LJ           5.20413        -5.01039        0.905738
LJ         -0.509309        0.192848     -0.00337754
LJ          0.658511         6.29139        -1.24034
LJ         -0.248837        -6.28308        -1.34939
LJ          -4.47311        -6.34816       -0.914147
LJ           5.33824         2.38425         3.71844
LJ            4.0999         1.31699         2.50704
LJ          -5.96174         4.19891       -0.955083
LJ           -6.3311        0.713354        -2.05229
LJ           4.70064         -5.7944         1.17239
LJ           5.41811        -1.46417          4.3588
LJ          -5.60265         3.43489         1.28169
LJ           2.45596        -2.63743         -0.6141
LJ           4.62473         3.43049          4.4576
LJ          -1.41531        -3.11937         3.15703
LJ          -3.37703        -1.62643        -2.71855
LJ           2.21928         5.53503         6.16816
LJ          -5.56191         3.25275        -1.59019
LJ            1.7971     -0.00798228         -6.1268
LJ          -1.31302        -4.59833        -4.47013
