108
#Comment!
LJ           2.03783         5.96265         2.36304
LJ          0.680299         1.55358         4.25737
LJ           5.10672         1.31893        -2.37954
LJ           2.15282        -2.54141         5.82684
LJ          -3.32749         4.50545        0.390064
LJ           5.77324        -3.66698         2.38658
LJ            -5.208         2.24333        -3.87636
LJ           3.69055        -4.26518         5.73968
LJ           3.86891         -4.6078         -3.1422
LJ            2.4938         3.15534         6.12753
LJ          -4.70672         3.35271        -2.22637
LJ          0.215709        -0.77261         1.93079
LJ           0.75542        -5.58222        -1.66479
LJ          -1.13304        -1.86679        -4.03406
LJ            2.1736        -3.87822         3.26678
LJ          -3.93842        -3.69388        -3.91586
LJ         -0.650484        -5.77081        -5.69192
LJ           4.22811         2.31025        0.623461
LJ           2.75986          5.1031         5.38345
LJ          0.241555         1.07146         1.50167
LJ          -0.53848        -4.39479        -3.43801
LJ         -0.906326         -0.7555         -1.6757
LJ           -5.5206        -3.46237         3.49478
LJ           4.76442         2.98499        -2.10417
LJ           4.46934       -0.792426         1.54165
LJ         -0.739872         1.95682        -4.46939
LJ          -5.19973        0.721853        -1.27435
LJ           -5.1247         4.11083         6.37137
LJ          -3.13324         -2.2773        -6.13061
LJ          -3.13599         1.68968        -1.94939
LJ         -0.444518        0.263729         6.28244
LJ          -2.70282        -3.57935        -3.30802
LJ           4.38514         1.82438        -3.15765
LJ           6.44121        -1.26292        -2.99876
LJ           3.36924         2.24205         5.17195
LJ           5.07658        -0.57134        -2.86862
LJ          -5.23334        -4.16156          6.4308
LJ           3.86749        -3.26957        -4.31964
LJ          -1.62106        -2.55949        -1.40048
LJ           0.44391        -4.81258        -4.18846
LJ            3.0765         5.77672        -3.74068
LJ          -1.79749        0.607809         3.38301
LJ           -1.8421        -0.78833        0.286281
LJ          -5.50844        -3.75303        0.489025
LJ          -1.32514        -3.03433        -2.93185
LJ           5.28491       -0.904491        -5.56853
LJ           2.07006          2.0406         4.40112
LJ           6.03285          2.7417        -3.82692
LJ         -0.182235         6.04015        -5.01347
LJ          -6.13698        -5.22625        -4.90595
LJ           5.06503        -3.25681         6.11929
LJ          -4.48048       -0.914147         2.12417
LJ          0.793131        -5.63022        -3.34036
LJ           6.29173         6.10021        -4.30149
LJ          -6.23649         4.24174         6.19587
LJ          -4.63505        -3.11356        -1.78988
LJ          -4.58153         5.20253        0.866601
LJ           3.50441         2.47543        -5.12297
LJ          -6.08118          5.8006        -5.39371
LJ          0.851817         5.94113         2.96983
LJ         -0.225398        0.687388        -1.98675
LJ           -3.8007        0.398935         -4.8339
LJ           -6.0875        -4.80295         1.42255
LJ           3.03567        -2.84045         3.49646
LJ          -4.06609        -1.32092       -0.224391
LJ           3.86034         4.37477        0.596845
LJ          -5.88181        -5.65551        -3.33381
LJ           6.36618        -3.34302         1.24974
LJ           2.65372         2.98845        -5.40881
LJ          -1.44836          2.6015        -2.39838
LJ           4.26596         3.14118        -3.09553
LJ           3.20324        -2.89354      -0.0983243
LJ           3.90623        -5.56272        -6.14597
LJ          -3.46845        -4.62655        -4.26677
LJ          -1.62543        -6.27502         2.28401
LJ           2.86263        0.226292         1.60231
LJ          -1.83606         5.03905        -2.45457
LJ          -5.93496         5.73983         0.80454
LJ           -4.7003        -2.38951        -4.06464
LJ          -6.10136         4.20717        -4.41949
LJ          -3.29103        -4.22782        -1.99977
LJ          -6.33106        -2.46381        -3.11776
LJ         -0.313895         3.07751        -4.56883
LJ         -0.794461         1.50479       -0.360811
LJ          -5.25489         5.23269         2.75704
LJ          -4.11221          1.6786        -3.94855
LJ           5.28219        -1.98933         2.71265
LJ           3.25093         2.37736       -0.245358
LJ           3.35927         2.38469        -2.31623
LJ            -4.598        -3.85895         1.19237
LJ          -4.64946         1.71101        -5.83194
LJ          -2.20304       -0.115206        -1.61311
LJ          -5.79377         4.17871         -5.6117
LJ           5.78277        -1.77705         6.39736
LJ          -4.42911        -6.23603        -2.05911
LJ            4.2516        -6.04736         4.18286
LJ           0.74531         5.76849         4.37069
LJ          -4.72289         3.22541        -5.36756
LJ          -3.81359         3.01739        0.621654
LJ         0.0492337         -5.4519         2.39497
LJ          -1.81131         5.32946        -1.03044
LJ           2.57294        -5.44415          3.9536
LJ           3.91807        -6.41657         1.94483
LJ         -0.505422         1.00863         5.37666
LJ          -4.21915       -0.177418        0.284145
LJ           3.82216         0.90163         5.05417
LJ           4.46406        -2.76944         3.16756
LJ            2.6197         4.78418          6.3804
