108
#Comment!
LJ           4.78693        -4.44369         5.91051
LJ          -5.02189        -1.35962        -2.11201
LJ          -1.91174        0.214126        -5.26387
LJ          0.186808        -5.70424        0.078769
LJ        -0.0844155        -1.28912         1.49828
LJ           2.10425        -4.62146         2.25846
LJ          -1.56599        -5.18443         3.22473
LJ          -4.47084        -5.49332       -0.575991
LJ           2.65926        -3.38935         5.22712
LJ          -2.62277           5.402       0.0348133
LJ          -3.23527         5.88424        -4.19854
LJ          -3.88045        -3.12604         4.59531
LJ          -4.51677         6.37001         4.45749
LJ          -3.09008         2.94211         2.99099
LJ          0.851933         6.43834        -2.74929
LJ          -1.45721       -0.290812         6.12972
LJ          -2.54094        -2.27794        -5.46449
LJ           5.26665         5.44584        -4.37287
LJ           6.37194         -5.9273         5.91383
LJ           -3.1321         6.43662         2.04707
LJ          -3.47618        -1.12987        -2.99178
LJ          -2.92747        0.777227        -2.44255
LJ          -2.80172         2.55489        0.314856
LJ          0.894733        -2.54597        -4.83238
LJ          -5.64574         0.31564         4.92536
LJ          -3.48614        -5.62902         1.35842
LJ           2.02943        -1.38406         -5.0982
LJ          -3.45147         2.34048        -2.09813
LJ          -2.54271        0.221876         1.35495
LJ             1.276        -3.23071         4.02411
LJ            3.6873        -2.97628         5.20664
LJ          -2.27221         2.25671         3.01538
LJ           1.87502        -3.37536        -4.06613
LJ           5.69839         3.75354         1.96174
LJ           4.51344        -3.89177        -3.12971
LJ          0.882408          1.5841        -2.74195
LJ          -2.27787         2.87061         4.49728
LJ          -5.52574          3.8915        -5.42408
LJ           5.53188          4.5032        0.865255
LJ          0.152395         2.41177        -1.04554
LJ           4.90261        -3.56819        -2.06454
LJ         -0.858986         5.22549       -0.923745
LJ          -4.52094           5.178           4.729
LJ           6.39441        -5.38948         2.23191
LJ           1.45948         0.38982         3.79069
LJ          -3.48215         3.90785         3.14171
LJ          -3.88854        -4.22145       -0.742836
LJ            3.6479       -0.365041         2.20122
LJ          -0.80369        -0.19039        -3.06094
LJ          -5.61642         2.12001         1.70733
LJ          -3.68625        -2.12144         3.96141
LJ          -5.05336        0.899883       -0.571938
LJ           4.57745        -2.18071       -0.465387
LJ          -1.88839        -4.19054        -2.05502
LJ          -1.99245         4.61732         3.61208
LJ           5.87274        -2.04097         5.94062
LJ          -2.46664        -2.72666        0.421392
LJ           4.26412         5.42245        -2.87966
LJ           1.62371       -0.963922         4.72884
LJ         -0.138887       -0.178235        -5.92438
LJ          -5.28049        -4.76818        0.357598
LJ          -4.01308        -3.23907        -1.77857
LJ         -0.334303        -2.11131       -0.749794
LJ          -5.89948        -1.57289        -6.40439
LJ           1.66792         -2.2785        -5.93138
LJ        -0.0974625         4.07072        -4.97204
LJ         -0.879866        -5.28249       -0.972765
LJ           3.32818         4.74171         5.53102
LJ           -6.4614         5.83556        -2.70232
LJ           2.74924         3.95847        -2.64936
LJ          -4.14147        0.883078        -2.57415
LJ           6.18528        -3.79871        -3.96337
LJ             1.344         4.02563         -2.4462
LJ          -1.33086         5.80503         4.02969
LJ           -4.3578         5.99701        0.555007
LJ         -0.904348        -2.38598         4.87318
LJ            2.1394     0.000556523         4.37617
LJ           2.25865        0.773126       -0.530954
LJ          -4.46201       -0.301871         6.10747
LJ          -2.03523        -4.73041        -5.14587
LJ           4.74618        -6.14753        -3.26475
LJ          -2.68283       -0.786872         1.63128
LJ          -6.14902        -2.82364        -2.21347
LJ           5.18602        0.881813        -6.42239
LJ            6.4178        -4.24806         2.62662
LJ          -3.33154         4.25989        -3.13589
LJ           6.02389         5.74567        0.740857
LJ           -4.5561        0.199945        -4.24147
LJ          -4.82437        -0.46538         1.49539
LJ           2.74811         4.99554         4.63774
LJ          0.705568         2.44772         -3.8634
LJ          -4.18238       -0.467092         4.66767
LJ           5.40761        -4.77715        -5.86011
LJ          -4.23779        -1.84495        -3.39315
LJ         -0.811974         4.69851         1.79397
LJ          0.731302       -0.764775        -3.11106
LJ           1.26624      -0.0143035        -1.43554
LJ          -1.07517         4.53743         4.57728
LJ           2.49027         6.07427         -4.7674
LJ          -5.61514         4.79726        -2.65184
LJ          -1.32699        0.750092         3.10938
LJ           2.69313        -2.41629        -3.94964
LJ           5.85735        -4.30384        -4.92694
LJ          -1.86654       -0.796852        -2.34908
LJ          -5.54638        -5.49427        -6.05713
LJ          -5.42729        -3.81783         5.74185
LJ           4.83538         4.16727        -2.44353
LJ          -3.83342         3.95029         4.06786
