108
#Comment!
LJ          -1.87992        0.384907         4.86171
LJ           -5.3477         2.08206         6.40779
LJ          -5.68456        -6.35092        -6.06682
LJ           5.03615         1.95275         1.41934
LJ            -1.675        -2.72715         5.67567
LJ          -2.95589         1.57012        -5.17911
LJ          -5.08205         2.24697        0.976541
LJ          -3.26098        -5.30796        -2.96678
LJ           1.03763         5.65955         1.72054
LJ          -1.15705         3.17802         3.70941
LJ         -0.824942         2.50694        -1.81039
LJ          -3.18256         2.18019         1.59634
LJ          -1.55074         6.03153        -2.34165
LJ          -2.05432         1.10961        -4.02407
LJ           6.17991        -2.43612       -0.931532
LJ          0.824245         2.90822        -3.28315
LJ         -0.756371         1.53794         4.74306
LJ          -6.05859           4.719        -3.65436
LJ          -6.16388        0.807231         4.36036
LJ          -1.54624         2.04986        -3.51765
LJ            2.6269         2.09535         1.53167
LJ          -4.17907        -1.49306        -3.28397
LJ          -3.27947        -6.31909        -3.98551
LJ           5.89029        -3.00118        0.256714
LJ           5.40322         4.24831       -0.617421
LJ           1.20434        -5.49666         3.90117
LJ           2.30812        -5.99227        0.850693
LJ         -0.776029         5.66176         4.09565
LJ         -0.279289        -2.96324         6.09658
LJ           5.60918        0.155319         4.09607
LJ           1.26236         1.68537         1.39852
LJ           2.09662         1.03008         2.75094
LJ            4.4735         2.24959        0.308082
LJ           1.23378         4.36932        -5.03081
LJ           4.98924         5.09789        -2.23867
LJ          -1.78677        -1.87684        -3.58903
LJ          -3.03487         4.49097         -2.0113
LJ           3.50929        -6.40112       -0.780328
LJ          -4.07532         6.24732        -5.38118
LJ           3.56773         4.22493        -1.35115
LJ           6.39991        -5.59157         1.81179
LJ           3.45532         4.26522         5.11078
LJ           5.50063         3.65147        -5.40524
LJ            4.2444          3.1398         5.98328
LJ          -0.62511        -2.64729         4.08996
LJ           4.63951        0.114159         4.21542
LJ           5.85781         3.83195         5.31577
LJ          0.127508         2.81853         1.75284
LJ           -3.1796         4.98041        -5.58378
LJ           4.02585         4.88571       -0.354794
LJ           4.97621        -6.04336         4.11134
LJ         -0.679271         4.54528         2.20746
LJ           1.00626         0.51567       -0.670262
LJ          -2.62241       -0.817813         -2.3025
LJ            -5.212         4.19944        -4.15945
LJ           5.57447         4.74915         6.31325
LJ          -5.87661         5.08929         1.72736
LJ          0.972791        -5.32892         4.96291
LJ          -0.49134         2.17196         3.99282
LJ          -2.56069         -6.4166        -5.21744
LJ           6.40659         -1.0158          6.0977
LJ         -0.147269        -6.20938        0.791184
LJ          -3.73544       -0.931438        -2.66416
LJ           3.88707          2.7767         3.97741
LJ           1.98845         5.57624         2.28089
LJ           2.58235          3.1602        -6.23769
LJ           1.85924        0.686737         5.66309
LJ          -1.49749          2.6726        -2.58106
LJ          -0.46459         1.16835        -3.62462
LJ           5.36835         1.46255        -5.92211
LJ          0.407578         1.64831        -6.36355
LJ           2.16582         2.93789       0.0724411
LJ         -0.893401        0.950656        -2.73599
LJ           1.16332         1.74958        -1.59569
LJ           5.89658         -1.0303         1.47535
LJ            0.5337        -4.83213         1.25667
LJ           4.22209         4.74133         2.73275
LJ           2.39914         -2.2212         5.85085
LJ           5.78919       -0.045336         5.56022
LJ           3.69016        -0.49415        -2.64144
LJ          -1.86568        0.408839         5.84236
LJ          -6.15146         2.58637         6.41479
LJ            4.5187         3.66868         3.66601
LJ          -6.24729        -5.37954        -1.93088
LJ          -2.38369        -2.52896        -1.54147
LJ           2.45618        -2.36755        -3.77699
LJ           6.40944       -0.877852         5.04375
LJ           1.08239         2.10308        -2.65862
LJ          -4.52115        -4.01009         3.19624
LJ          -5.64087         2.85214         1.72955
LJ           2.94125         5.29965        -1.42011
LJ          -1.36274         6.33956         1.43662
LJ          -3.83898         4.87692        -4.33784
LJ          -1.75023         1.47349         5.65713
LJ           5.94923         1.52507        0.248872
LJ          -5.69755         6.02366         3.34922
LJ           6.10806        -0.92636       0.0660037
LJ           1.68517        -4.43814         1.84773
LJ         -0.325419       -0.645062           5.233
LJ          -3.37921         4.61899        -3.11838
LJ           4.88762        -1.10141        -2.97001
LJ           4.68005        -5.23233         1.98666
LJ          -4.13559        -2.61151        0.834447
LJ          -3.28528         -2.1651        -2.19877
LJ       -0.00753482         5.33195        -3.36022
LJ           5.58311        0.901932         1.77133
LJ         -0.873809        -2.07323         6.00059
LJ          -0.94426        -3.07291        -3.31031
