108
#Comment!
LJ          -3.05496        -2.51682         1.65313
LJ          -2.24582         3.07703        -4.87577
LJ           5.82424        -4.87278         4.61189
LJ           6.26342         -1.5278        0.536828
LJ           6.18329        -5.58169       -0.656531
LJ           -6.2373        -4.25751        -1.20872
LJ           1.44598       -0.841028        0.269623
LJ          -5.37553        -3.68271        -2.44961
LJ          -0.83796         4.19506          4.3263
LJ           2.47888         2.77077         1.96139
LJ          -3.20612        -1.08488       -0.644296
LJ          -4.76293        -1.42833         5.38254
LJ          -1.27105         3.24499         1.78571
LJ          -5.81813         2.76702        -4.60492
LJ          -1.45187        -3.08466           6.201
LJ          -1.99057        -4.90801        -5.75052
LJ           -2.8522       -0.774654         1.96082
LJ          -2.97314          3.7505        0.939811
LJ          -1.83656        0.947832         6.27408
LJ           5.20088         -1.5856        0.925658
LJ           5.12738        -2.64425         1.40295
LJ          -2.39803        -4.47882         -4.0913
LJ          -1.42337          1.7286         2.18039
LJ          -5.57585        -3.71711         5.79115
LJ           5.61503         2.98404          2.9241
LJ           1.32184         5.30718          1.8612
LJ          -1.91217         2.20723        -6.35655
LJ          -5.82812         4.48509         2.71963
LJ          -3.92876        0.729559         1.29279
LJ           5.65974         4.00069        -1.82703
LJ          -4.02772         -2.1006         4.95095
LJ          -4.60904         2.11045         4.72684
LJ           3.90965        -4.61747         1.34147
LJ          -4.40585        0.695396          3.1018
LJ          -1.73128         5.55145       -0.823145
LJ          -5.02484          5.8666       -0.364667
LJ          -1.58584        -2.70006       0.0756588
LJ          -2.60793         3.21017         2.69125
LJ          -3.66721          4.6973        0.770146
LJ           3.07766         3.97354         4.15016
LJ           2.07904          5.4002        -4.67978
LJ          0.944136        0.430149         2.25756
LJ           5.13312        -5.54324        -5.41281
LJ          -6.13669        -2.11789        -3.53195
LJ          -2.17236         4.33292        -1.78362
LJ          0.972283        -4.87407        -5.96689
LJ           2.70515        -1.86624         0.21506
LJ           2.63759         6.41156        -4.43417
LJ            3.0562         3.72752         -1.1648
LJ          -2.17992        0.530699       -0.820806
LJ           6.25314       -0.187351        -3.58076
LJ           3.42251         1.81256        -3.77695
LJ          -6.33133        -2.32851        -4.89282
LJ          0.688344        0.634301         5.76005
LJ           1.18159         6.27765        -4.71522
LJ           4.51608         1.91036         1.13545
LJ           2.77629        -1.00882         1.15928
LJ           3.56998         -2.1339        -5.22585
LJ           2.86362         5.35017         5.29274
LJ           3.34537        -2.89144      -0.0924744
LJ            1.9544         1.54926        -5.31309
LJ         -0.192644         2.30342         1.38359
LJ           1.69314         3.79569         1.67816
LJ           6.04407          4.5016         2.27398
LJ           3.06347        -3.22155        -4.70634
LJ           4.15438          5.4315         2.55997
LJ           3.73133        -4.63018        -4.87177
LJ            1.3032        -5.89442       0.0274002
LJ           4.13711          4.4284         -4.2041
LJ           6.10092         6.34467        0.612295
LJ         0.0115735        -1.26276         3.16015
LJ            4.9734        -2.68012        -2.23897
LJ          -4.88827        -3.41316         3.95502
LJ          -3.27486         5.72474        -1.76486
LJ          -3.27532        -2.79546        0.561605
LJ         -0.422184        -5.95649        -6.08728
LJ         -0.701153         4.17111        0.933272
LJ          -3.43728          1.5127        -2.69895
LJ          -1.18928        -5.58224         4.98007
LJ          -4.88165         5.43998         2.27146
LJ          -3.64153         2.13342        0.414876
LJ           1.70955         4.76657         5.10998
LJ           -5.8658         5.11435         3.62439
LJ          -4.95802         2.14247         -4.9298
LJ          -5.90974        -3.13275         3.46038
LJ            5.7487        -4.59137        -3.74071
LJ          -1.10204         5.47198         1.92763
LJ          -4.02765         3.27716        0.650227
LJ           5.87287         4.91371         1.03663
LJ           5.31128         5.14857         2.89717
LJ            5.9004        -3.01197          2.4604
LJ          0.915825         4.26567         4.18316
LJ         -0.046192        -3.29342         5.99762
LJ          -6.21683          1.3526        -2.34653
LJ          -3.51041         1.41949        -1.37324
LJ           5.61351        -5.24123        0.284512
LJ          -3.43393        -3.39209          3.2543
LJ           5.64236         5.95097        -4.54707
LJ           1.82306       0.0426232         6.00571
LJ           5.49581        0.264008        -1.65768
LJ           5.32256         5.02693        -1.18616
LJ          -1.32783         1.21724         3.03378
LJ          -5.96234        -1.10344        -5.91548
LJ            -2.853        -3.17932         5.87817
LJ          -6.26871         1.98413        -3.93596
LJ          -4.71942        -4.89224          6.1092
LJ           1.52097        -2.73477         3.81883
LJ           5.27023        -3.74191        -6.07017
