108
#Comment!
LJ          -5.53855       -0.418948         1.98832
LJ           5.70613         -1.7433         2.80597
LJ          -3.72622        -2.46323        -6.05292
LJ         0.0612302         4.69083        -5.45381
LJ           -2.7906         6.26354         3.52013
LJ          0.826405        -5.50243         -3.6827
LJ             6.411         4.81751         2.16961
LJ          -5.82266         4.13092         4.10194
LJ           3.31174       -0.982526         4.24924
LJ          -3.34708        -5.60069         -5.8435
LJ          0.304853        -5.76121        -5.10086
LJ          -4.34552        -1.52367        -4.31164
LJ          -3.74897         5.03074         2.79588
LJ           1.53422          4.7616        -3.65475
LJ          0.613316         5.98752        0.180482
LJ          -2.00566         4.04492         3.04747
LJ           1.31492        -2.63127         3.67739
LJ           1.52769        -0.22873        -1.19114
LJ          -6.37275         -4.1599         3.72343
LJ          -3.62335         4.85314        0.368099
LJ          0.353954        -3.39955        -4.47496
LJ           6.31234        -3.54003         6.25879
LJ           6.17972         3.03726         2.43148
LJ           6.45505         6.38859         2.85912
LJ          -5.87483        -5.35275         4.45686
LJ           5.95505         6.26022        -4.49574
LJ           4.62554        -1.03349        -4.29842
LJ           4.28149      -0.0197605         1.09917
LJ          -4.70335         3.18981        -2.11117
LJ          -1.11269         6.42505         2.15469
LJ           1.32441        0.253695        -3.61891
LJ         -0.692099        0.134047         1.76042
LJ           1.76895         4.74629        0.325491
LJ          0.601939         -0.6205         3.17989
LJ          -4.47656         -2.3494        -2.80481
LJ           1.00625          2.1058        -4.62098
LJ          -4.23984         2.39783          3.1465
LJ           3.12811       -0.990048       -0.939313
LJ           4.70017         6.09693       -0.615401
LJ          -3.04882       -0.721261        -1.06607
LJ           4.98207        -1.23019         -1.1268
LJ           2.05349        -6.45015      -0.0761147
LJ          0.144405          1.4636         3.57194
LJ          -6.44206        -2.99034          3.4556
LJ           1.96771         3.54682         4.14204
LJ          0.825253         4.06958        -4.60862
LJ          -3.13526        -4.51257       -0.964327
LJ           1.15935       -0.143697         1.01557
LJ         -0.262292         5.80594        -2.24443
LJ          -1.57278        0.669389         1.76202
LJ          0.226862        -4.74803        -5.16701
LJ          -2.83776       -0.378562        -5.88213
LJ           4.52717        0.580004        -0.93702
LJ           2.65518         -4.6517        -1.59876
LJ           3.40849         4.62436         5.67753
LJ          -4.37041         2.76373         5.64985
LJ            5.8498         4.70507        -3.12374
LJ           1.36494         0.40404         0.17275
LJ           3.70863        -2.79178        0.764497
LJ          -1.25957         -5.1287        -4.57249
LJ          0.404793        -1.60333         2.19468
LJ          -2.83863        -6.40744         4.85257
LJ           3.42724        -2.64688       -0.477008
LJ          -5.66861          3.0586        -3.53824
LJ           4.61755        -1.63673        -5.68249
LJ          -4.64726        0.970766         5.01833
LJ          -2.76038        -1.01911         5.09974
LJ          -5.60249        -2.28161        -2.56647
LJ          0.354199         6.18314         6.30297
LJ           1.66419        -4.46443         4.01064
LJ          -3.91314         2.06023       -0.847466
LJ           5.99265         3.71637        -3.77425
LJ           0.70298        -5.82136        -1.93313
LJ         -0.272464        0.448667        -5.21988
LJ           6.15682        -2.32361        -1.29575
LJ           -2.6074         4.84969        0.406421
LJ           4.38275        -4.11176         5.15591
LJ         -0.370654        -5.50703        -3.86663
LJ          0.214561         -1.1071        -2.04755
LJ          -3.65765          5.5499          4.8986
LJ           1.60067        -4.11752          5.9119
LJ          -5.90819        0.287677         4.90497
LJ           2.62877        -4.39801        -3.99713
LJ           4.60695        0.862569         4.54765
LJ            5.8021         3.73077         4.07864
LJ          -4.06982        -3.54537        -4.33375
LJ           4.68766         4.67071        -0.17687
LJ          0.125722        -5.64672        0.117151
LJ            2.5798         3.23266         3.37107
LJ           2.84806          3.5233         5.20837
LJ          -2.62421       -0.543215        -3.32711
LJ          -4.74426         4.20332        -1.07249
LJ          -4.64462         5.97967        -2.87437
LJ          -1.47498        -1.86976         -5.0685
LJ           4.31349         5.75502         1.74154
LJ           1.02675         -5.1367        -4.63567
LJ           1.87066        -5.11411        -1.30233
LJ          -3.43734         2.59639         4.00444
LJ           3.77566           4.524        -1.84416
LJ          -5.83256        -1.94242         4.38732
LJ           1.98659         5.07049        -4.65834
LJ           4.77707         1.34469         2.37325
LJ           5.41985         4.73171         3.84411
LJ          0.826182        -1.28044        -2.93514
LJ         -0.843207         3.76269         1.99102
LJ           -5.9502        -4.63838        -1.24556
LJ           3.13131        -5.33469        -1.22804
LJ           1.96806         -4.9425         -6.3466
