108
#Comment!
LJ            1.6477         5.76393         2.29853
LJ           1.05917         1.35903         3.28005
LJ           6.18304        0.477122        -2.95567
LJ           3.21949        -2.20045         3.76698
LJ          -2.62421         5.55324         0.42899
LJ           5.93899        -3.26667         4.19517
LJ          -5.08168        0.817576          -3.975
LJ           4.27133        -4.10449         -5.4735
LJ           4.52299        -6.02072        0.206094
LJ           3.14689        0.314069         5.17864
LJ          -3.21128         2.87565       -0.717585
LJ         -0.953686        -1.78334         3.56889
LJ          0.948709        -3.31025        -1.25238
LJ          -1.34564        -2.21861        -3.93731
LJ          0.209431        -2.53932         4.26555
LJ          -4.49591         -2.9261        -5.82659
LJ          -1.46841        -5.43317         4.72575
LJ           5.30527         2.21815         1.44432
LJ            3.0353        -5.89477        -6.39441
LJ          -0.25108         1.34131       -0.246469
LJ          -1.52661        -4.19592        -4.02281
LJ             1.064        0.735952        -1.99968
LJ          -5.91694         -4.0555         3.78929
LJ            5.8504         2.18834        -2.67716
LJ           4.76872         1.06953         1.86009
LJ         -0.398905         2.39599        -2.38402
LJ          -4.85293       -0.504051        -4.13502
LJ          -5.32633         3.86656        -5.47476
LJ          -4.15285        -3.47666         6.26658
LJ          -2.51183         2.34358        -2.07807
LJ          -1.27695        0.778031        -4.60335
LJ           -1.9032        -5.74273        -5.08074
LJ           2.84591       -0.565493       -0.755729
LJ           5.58835       -0.274553        -2.63525
LJ           4.12112         2.44442         6.39135
LJ           5.05057        0.702051       -0.212558
LJ          -5.63461         -2.1905         4.71145
LJ           3.58495        -1.92518        -3.48706
LJ          -1.95677        -1.87377        -1.32285
LJ            3.1547        -6.43192        -3.44595
LJ           3.94951        -5.85165        -5.07594
LJ          -3.43881          1.2389         2.07494
LJ          -1.85234       -0.433235        -1.11317
LJ           -3.5984       -0.629514        0.932169
LJ         -0.455093        -2.44723        -1.41428
LJ           5.94712       -0.229634        -5.49807
LJ           3.19847         4.15439         4.07066
LJ          -5.97591         2.67719        -2.92934
LJ          0.134188         6.08635        -5.05209
LJ           3.96997         5.17091         6.43324
LJ           4.27356        -2.53246        -6.22969
LJ           6.29512        -2.54883         2.16591
LJ           1.44122         5.90569          -3.469
LJ           6.18177         5.44204        -5.45787
LJ          -6.35823         4.42147         -5.7484
LJ           6.27746         -2.6959        -2.13857
LJ          -6.19743        -6.32851          1.0638
LJ           3.63215         1.25207         6.03787
LJ          -3.90741         4.32105        -5.44026
LJ           2.62465         4.59459         3.21517
LJ          -1.22092         1.05554        -2.88464
LJ          -2.59756         1.97382        -2.98495
LJ          -5.41658        -5.69164     -0.00559754
LJ           2.90479        -3.33183         4.35927
LJ          -2.75083        0.459876       -0.323262
LJ           2.96385         2.22202         1.73118
LJ           6.15994        -5.43266        -4.67037
LJ           5.70267        -3.88767       -0.528738
LJ           1.20449        0.706347         6.26749
LJ          -1.83833         2.62391        -3.23633
LJ           3.40902         3.40482        -3.88473
LJ           2.32127        -4.35104       -0.203383
LJ           4.63294        -4.77911        -4.18049
LJ           -3.9447        -4.22474        -3.53008
LJ          -2.20339        -4.18675         1.97095
LJ          0.390191        0.284035        0.898223
LJ          -1.55786         6.09169        -1.16709
LJ           6.13191          6.0244       0.0166298
LJ          -3.03973        -2.39882        -3.86846
LJ          -5.40861         3.77933        -3.79319
LJ          -3.48644        -4.25613       -0.938922
LJ          -5.86792        -3.96246        -4.26571
LJ           0.15964         2.17229        -5.77013
LJ         -0.254026        0.661695        -2.26157
LJ           5.97177         4.81501         3.87321
LJ          -2.15157         3.40228        -3.77551
LJ           5.17276        -3.52775         1.66414
LJ            2.2012         1.49902        -2.39036
LJ            3.5509        0.768519        -1.58395
LJ          -5.09296        -3.57755          2.8101
LJ          -4.27639        0.735797        -4.70535
LJ          -4.08897       -0.634604        -3.11799
LJ            6.3999         3.93811        -4.08102
LJ          -5.80269        -1.86185         6.14998
LJ          -3.14707        -4.75309        -1.88488
LJ           4.41859        -4.05773         4.88367
LJ           1.65098         5.75814          3.5714
LJ          -3.06383         3.15397         6.10445
LJ          -4.17009         2.44252        0.510894
LJ            1.2395        -4.60573         1.58441
LJ          -3.13409        -6.03574        -2.05308
LJ          0.151803         5.16456         -5.6246
LJ           3.75206        -5.63107         1.60407
LJ         -0.646599       -0.162111         4.90733
LJ          -4.80964        0.468399       -0.736837
LJ           1.90451         3.12933         4.44786
LJ           5.19992        -2.60064         4.27034
LJ           4.38722         3.48407         -5.5183
