108
#Comment!
LJ           2.15818         5.84015         2.41049
LJ          0.648657         1.57673         4.37389
LJ           4.91939         1.30103        -2.30866
LJ           2.04015        -2.60596         6.03308
LJ          -3.42152         4.38786        0.388997
LJ            5.7678        -3.72401         2.21589
LJ          -5.19118          2.4314        -3.88846
LJ           3.64975         -4.2796         5.57046
LJ           3.79725        -4.44922        -3.51202
LJ           2.48791         3.46694         6.15077
LJ          -4.86253         3.39244        -2.39591
LJ           0.34451       -0.657983         1.75091
LJ          0.733667        -5.83099        -1.72123
LJ          -1.00237        -1.83437        -4.20144
LJ           2.30372        -4.07369         3.14875
LJ          -3.88311        -3.71634        -3.66919
LJ         -0.625005        -5.66306        -5.57102
LJ           4.10465         2.32367        0.536109
LJ           2.73351          4.9583         5.11341
LJ          0.296633          1.0353         1.69021
LJ          -0.43592        -4.42349        -3.38575
LJ          -1.15761       -0.867809        -1.64263
LJ            -5.471        -3.40368         3.44672
LJ           4.61766         3.08091        -2.03778
LJ           4.43541       -0.994541         1.50822
LJ           -0.7848         1.94255        -4.69605
LJ           -5.2544        0.836485        -0.97933
LJ          -5.01994         4.11664         6.20593
LJ          -2.93532        -2.14167          -6.008
LJ          -3.19072         1.62851        -1.94414
LJ          -0.35247        0.224333         6.02849
LJ          -2.83407        -3.22629         -3.0576
LJ            4.5676         2.16994         -3.3767
LJ          -6.31143        -1.34646        -3.10048
LJ           3.36547          2.1177         5.19269
LJ           4.99615       -0.643509        -3.10883
LJ          -5.28453        -4.37979        -6.35423
LJ           3.89969        -3.42117        -4.40854
LJ          -1.57137        -2.65481        -1.24545
LJ          0.119942        -4.66376        -4.23864
LJ           2.98345         5.64592        -3.59657
LJ          -1.61648        0.538593         3.52603
LJ          -1.85665       -0.823615        0.432685
LJ          -5.79612        -4.08165         0.41675
LJ          -1.46221        -3.07441        -3.10938
LJ           5.22569        -1.00129        -5.59817
LJ           1.79347         1.79022         4.34127
LJ           5.97937         2.83711         -3.9542
LJ        -0.0285192         5.80629        -4.87772
LJ          -5.84439        -4.93904        -4.73541
LJ           5.14288        -3.34747          6.0571
LJ          -4.24427       -0.741598         2.11364
LJ          0.729543        -5.44092        -3.34414
LJ           6.22975         6.20324        -4.05362
LJ          -6.23072         4.21252         6.06405
LJ          -4.56582         -3.2473        -1.50657
LJ          -4.45063          5.0551        0.817487
LJ           3.60135         2.57457        -4.90316
LJ          -6.23015         5.88141        -5.49124
LJ          0.663509         6.10019         2.95068
LJ        -0.0962785        0.574455        -1.87351
LJ          -3.94126        0.271053        -5.03312
LJ          -6.07093        -4.83101          1.6036
LJ           3.16222        -2.71632         3.42831
LJ          -4.20515        -1.50692       -0.215039
LJ           3.96522         4.59983          0.4716
LJ           -5.8117        -5.76331        -3.21921
LJ           6.38176        -3.14982         1.43473
LJ           2.69471         3.30751        -5.28454
LJ          -1.43933         2.65152        -2.33159
LJ           4.35516         3.07219        -3.00659
LJ           3.29931        -2.73466      -0.0872664
LJ           3.81987        -5.64118        -6.38166
LJ          -3.47345        -4.71359        -4.37736
LJ          -1.55754         6.42438         2.31834
LJ           3.13277        0.221152         1.67755
LJ          -1.89968         4.95868        -2.54089
LJ          -5.77993         5.70321        0.915639
LJ          -4.81146        -2.35527        -4.35715
LJ          -6.20053         4.25137        -4.58586
LJ          -3.27761        -4.22594          -2.129
LJ            -6.345        -2.29042        -2.96845
LJ         -0.386917         3.12537        -4.40924
LJ         -0.831477         1.57563       -0.156343
LJ          -5.06816         5.27937         2.62935
LJ          -4.36508         1.45947        -3.97218
LJ           5.22877        -1.80472         2.83396
LJ           3.39787         2.46243      -0.0450609
LJ           3.37565         2.52864        -2.40193
LJ          -4.52223         -3.9122         1.06562
LJ           -4.6898         1.83393        -5.91953
LJ          -1.95082       -0.074905        -1.42226
LJ          -5.71877         4.22557        -5.57497
LJ           5.61744        -1.76348         6.44235
LJ          -4.56746        -6.36429        -2.08225
LJ           4.22639        -6.25995         4.10665
LJ          0.656425         5.78311         4.43827
LJ          -4.95635         3.25639        -5.22451
LJ          -3.76976         3.09365        0.627127
LJ         -0.162889        -5.41816         2.46892
LJ          -1.63217         5.10214       -0.971875
LJ            2.8437        -5.19933         3.58092
LJ           3.93216         6.42339         1.98413
LJ         -0.483226         1.12607         5.45223
LJ          -4.14289       -0.261041        0.390144
LJ           4.02918        0.761021         5.13129
LJ           4.42461        -2.78352         2.99569
LJ           2.41336         4.84855         6.40606
