108
#Comment!
LJ           2.90129         4.45526          2.5779
LJ         -0.562838          1.6863         4.64419
LJ           2.78627         1.44655        -1.73099
LJ          0.846354        -3.21083        -4.76503
LJ          -3.02388         4.09707       -0.836861
LJ          -5.91556         -4.2305       0.0403954
LJ          -3.71534         3.91632        -4.19781
LJ           3.27019        -4.68946         3.86962
LJ           2.09588        -5.36926        -5.26697
LJ           3.00594         5.95969         6.31085
LJ           6.08335           4.006        -4.13106
LJ           1.80161         0.85998       -0.197945
LJ           0.52992         4.42455        -2.46673
LJ           0.16294         -1.5321        -5.94023
LJ            2.3063        -4.76596         1.61743
LJ          -3.74275        -2.73673        -2.15952
LJ         -0.280851        -4.30867        -3.96119
LJ           5.89752         1.80517         2.13235
LJ           2.44478         3.49652         2.41607
LJ          0.622641         1.08476         2.88785
LJ         -0.941474        -3.91632        -1.48923
LJ          -3.41265        -1.74267       -0.525168
LJ          -5.12494        -2.73893         2.78158
LJ           3.06935         3.72052       -0.692288
LJ           3.93881         -2.3509        0.596489
LJ          -1.99861         2.96254        -5.19483
LJ          -5.83092         2.06358         2.22112
LJ          -4.51129         4.16464         4.98304
LJ         -0.595665        -0.74746        -4.66151
LJ          -3.76048        0.964129         -1.8842
LJ           1.64423       -0.270599         5.10613
LJ          -4.27444      -0.0054669       -0.483919
LJ           4.81883         3.01372        -5.93713
LJ          -4.17076        -0.76603        -3.57786
LJ           3.38437        0.581165         5.40982
LJ           3.89333        -1.14561        -4.17907
LJ          -5.87254         6.16177        -4.67494
LJ           5.17796        -3.59724         5.93268
LJ          -1.07882        -3.58283        0.313787
LJ          -2.47378        -3.73611        -5.66646
LJ           1.99768         4.13796        -2.11374
LJ         -0.911415        0.167173          4.2798
LJ          -2.18216         -1.0714         1.94865
LJ           4.94376         6.02858         1.19116
LJ          -3.46327        -3.55338        -4.78813
LJ           4.68574        -1.73766         6.39722
LJ            1.1071        -1.44017         3.31234
LJ           3.69596         4.69988        -4.88339
LJ           1.63894         3.36005        -3.38839
LJ          -3.48189        -2.25548        -4.72084
LJ           5.87082        -4.16191         5.47302
LJ          -1.74851        0.931841         1.53686
LJ          0.695488        -3.91924         -4.0295
LJ             6.383        -5.52582        -1.36051
LJ          -5.59913          3.8467         5.27655
LJ          -3.70172        -3.48998       -0.965503
LJ          -4.05339         4.57078         1.00579
LJ           4.76482         3.32712        -2.84627
LJ           5.14797        -6.33166        -6.35599
LJ          -1.10256        -5.29992         2.85054
LJ          0.938549       -0.537146       -0.294619
LJ          -5.57729        -1.08246         5.84264
LJ            -6.136        -4.62087         3.19229
LJ           4.84195        -1.20359         2.67606
LJ           -4.6511        -2.45885       -0.531659
LJ           4.27158          6.3277        -1.90704
LJ          -6.20723         -6.4108        -2.82618
LJ          -6.40819        -1.54994         3.48319
LJ           3.32121        -6.36048         -4.0668
LJ          -1.27987         3.29444         -1.6802
LJ            5.2041         5.03023         -2.2706
LJ           4.38439       -0.779853       -0.128069
LJ           2.89556         -6.2218         3.83945
LJ          -3.70606        -5.29144        -5.29095
LJ         -0.658113          4.1424         2.74028
LJ              6.11       0.0208661         2.51647
LJ          -2.47873          3.9896        -3.32623
LJ          -5.09393         5.53227         1.60352
LJ          -5.97435        -1.93953         5.47792
LJ          -6.29431         4.42502        -6.25282
LJ          -1.57732        -5.16446        -1.50276
LJ          -6.43754         -3.7113        -1.06815
LJ          -1.38832         3.31779         -2.6916
LJ           -1.2354         2.26628         2.01423
LJ          -2.19323          5.5796         1.62327
LJ           5.34904         1.15919        -5.26485
LJ           4.13587       -0.512688         3.75827
LJ           1.85318         4.08659       -0.530739
LJ           3.48532          3.9602        -2.72898
LJ          -4.07587        -5.51883         2.10337
LJ          -5.24795         3.48594         6.17716
LJ          0.779041        0.376239        0.560049
LJ          -4.88557         4.23389        -6.13966
LJ           4.11622        -1.20971         5.25949
LJ          -5.66506          4.5778        -1.74774
LJ           4.48148         4.53205         3.49876
LJ          -0.27777         6.00116         4.96672
LJ          -5.88467         4.53119        -4.82762
LJ          -3.54636         1.81606          1.2914
LJ          -2.75917        -5.12973         3.31122
LJ          0.197955         2.57998        -0.56083
LJ           5.51472        -4.89057        0.731942
LJ           3.86792         5.35418         2.73751
LJ         -0.223941         1.27617         5.54891
LJ          -3.13146        -1.35545         1.75895
LJ           6.11632        -0.59801         5.98205
LJ           4.36454        -3.61717         2.15145
LJ         -0.242226         6.41102        -6.24847
