108
#Comment!
LJ          -3.49741        -4.95804         4.96039
LJ         -0.621263        -4.50881        -6.16736
LJ          -4.49831         2.85589         -2.0586
LJ           5.30314        0.361049        0.570741
LJ          0.659426        -4.56227         5.39271
LJ           -6.2416        -3.32066        -2.99163
LJ          -1.66651         -6.1801         4.30572
LJ          0.126343        -5.92954         5.12966
LJ           5.70078         1.96317        -3.85651
LJ          -5.54766        0.882606         3.53462
LJ           -5.7322         1.71577        0.344768
LJ          -1.97919          2.6311        -3.87696
LJ          -5.40186        -4.69275        -5.49607
LJ          -6.16607         6.29675         2.13004
LJ          0.575273         4.85748         5.92576
LJ           2.43927         3.82936        -1.14482
LJ           -5.5993        -2.60538         -1.1888
LJ        -0.0318103         2.95331        0.651328
LJ           2.09237        -1.34211         3.79819
LJ          -2.69418        -4.04039        -6.05159
LJ           4.88748        -3.08071         1.92705
LJ          -2.84515         4.82557        -2.94179
LJ         -0.590408        -4.82223         4.67919
LJ          -3.20003         4.26496        -5.50377
LJ          -5.23765         -4.7281          2.8894
LJ           3.18587         -3.0987        0.374207
LJ          -5.37438         5.25902       -0.359576
LJ           -4.3739        -1.18665        -5.86146
LJ           6.18793        -2.29461        -2.44273
LJ          -3.20755        -5.18359       -0.762906
LJ           4.37037        -5.15507         2.92403
LJ          -2.58762         3.09552        -2.58094
LJ           5.86327        -1.57789        -5.86111
LJ           2.70839        -1.26606        -2.40282
LJ          -6.40931         5.45056         1.46786
LJ          -2.53167         2.52078         1.66439
LJ          -5.62369        -2.17291        -3.27024
LJ          -5.72612        -2.99692        0.317585
LJ          -3.71804         5.07468        -5.75627
LJ            3.6758        -2.34285        -3.22466
LJ         -0.742765        -6.01516         3.94813
LJ          -2.28607        0.537021         2.70888
LJ           5.66909        -6.43083         1.60307
LJ           2.57747        -1.84476         2.86013
LJ           2.97741        -0.78328         -3.7643
LJ          0.152605        -1.26939       -0.538165
LJ           4.31316        -3.46165        0.227123
LJ          -4.13801        -3.82081         1.69247
LJ          -1.26307       -0.854389        -2.22046
LJ            -4.819        -3.51252         4.68643
LJ           3.92139         1.91267        -0.88053
LJ          0.994403         4.71588         2.22383
LJ          0.950602         2.48193         4.74572
LJ          -0.73663         -5.6732         2.38323
LJ          -4.07279        0.484861         -1.0442
LJ           1.56597         1.62685        0.131828
LJ          -2.84754         5.59019         5.99427
LJ          -1.71401         2.23032        -5.81731
LJ          -6.20743         -3.0692        -5.78931
LJ           1.83394        -5.97575        -4.35087
LJ           2.28554       -0.509246         2.60154
LJ          -1.93359        -4.74949        -3.00381
LJ           1.40314        -4.65333         4.48971
LJ           1.81006         6.45037        0.903198
LJ            3.5913        -3.57379       -0.563026
LJ          -5.42719          1.5379          4.4788
LJ          -2.27264         1.13551        -4.54907
LJ            2.3235         2.32495        -2.16893
LJ           3.61699         2.71319         3.32174
LJ          -6.44839        -6.15888        -2.75077
LJ           6.09229         2.66731        -2.84797
LJ          -3.49802        -2.75245        -3.90616
LJ          -2.06133         1.46273        -2.17372
LJ           4.19007         5.03774         4.02596
LJ          -5.66944         6.45918        0.182187
LJ          -1.86595        -2.05218         5.46645
LJ          -5.15163        -2.88942         1.72461
LJ          0.989934          5.3524        -1.36209
LJ          0.391518        -6.38904          6.4011
LJ           3.60077        0.298502         2.47524
LJ          0.955363       -0.167143         2.97948
LJ           4.06153        -3.77064        -4.85349
LJ          -4.81789        -2.62108         -5.9449
LJ          -4.31358         2.98299        -5.96687
LJ           6.17245         1.12783        -4.52762
LJ             4.835        -1.88034        -3.31206
LJ           2.22229       -0.801465        0.649629
LJ          -6.39669         2.13785         1.01099
LJ         -0.713092         6.03688        -3.51509
LJ         -0.705745         2.95356         4.15881
LJ           1.96619         5.02992        -3.54134
LJ           1.54819        -1.51883          2.5754
LJ           1.05005         2.58705        0.761037
LJ           4.90803      -0.0374072         2.05311
LJ          -5.96934        0.214561         1.82873
LJ           1.55376        -1.50605        -2.49858
LJ            4.0177        0.234838         3.46022
LJ         -0.953337        0.634334        -3.43741
LJ           -1.6421        0.487083         1.82681
LJ          -1.28356         3.29478        -3.35806
LJ          0.281231         1.04856        -4.80199
LJ          0.884204        -2.39764        -5.04177
LJ            3.7131        -4.87298         -2.4747
LJ           1.45792        -5.62805        -2.20098
LJ          -1.47179        0.584904        -5.45768
LJ          -2.15678         -6.3391        -5.92751
LJ          0.942498         5.30066        0.297148
LJ         -0.620504         2.73313         5.74688
