108
#Comment!
LJ          -3.94076         2.85219        -3.97721
LJ           1.46159        0.511251        0.231823
LJ          -5.16559        -4.45382         3.71718
LJ           1.85779      -0.0108114       -0.701831
LJ          -4.13638         3.81118        0.302862
LJ          -1.59602        -3.60636        -1.28131
LJ           3.38758         -5.0804        -2.77153
LJ          -5.62464         1.53625         3.56704
LJ          0.634894          -3.586         4.76246
LJ           1.77589        -4.21459        -4.87062
LJ          -2.54382         2.22718        -2.41424
LJ           1.86623         2.45045       -0.077484
LJ          -1.50552         3.77362         1.19413
LJ          -3.05813        -2.96993         -4.0257
LJ           1.03161        -2.07087          5.2122
LJ          -2.11986         0.97117         5.44348
LJ          -4.75713      -0.0635066         -3.7588
LJ           -1.7455         3.15531        -2.27229
LJ          -5.43078        -2.25713         3.41848
LJ          -5.41753         0.73327        0.793932
LJ           4.59665        -4.14552         5.03032
LJ          0.797228        -5.30234        -3.31585
LJ           0.18488        -4.86185        -1.70177
LJ           3.66425        -0.63916        -4.38136
LJ          -5.15196         3.12203        0.250954
LJ          -1.05143         0.32232           4.119
LJ          -4.09522       -0.439583        -5.91832
LJ          -2.34287         -3.2274         5.07836
LJ          -5.48353         2.33338        0.988634
LJ         -0.952487       -0.660904        -3.50511
LJ          0.584915       -0.703235        -3.78173
LJ          -4.68532       -0.301137         3.23025
LJ          -1.96392         1.73056        -1.03518
LJ          -4.95353         1.94054        -3.30776
LJ          0.999747        -4.85277         4.89362
LJ         -0.309939        -1.72537         6.40283
LJ         -0.136042       -0.397426        0.182935
LJ         -0.528583        0.585484         5.24424
LJ        -0.0397036         3.30584     -0.00101756
LJ           3.75185        -4.56169        -3.68986
LJ           4.32534         3.52266         1.77612
LJ          -4.69263        -3.41199         2.76118
LJ           3.63732        -1.91904       -0.729132
LJ           5.16266         2.01094         1.20933
LJ          -2.61566         4.89677        -6.25665
LJ          -4.41855         4.80343        0.141505
LJ           2.51719        -1.58394         6.05961
LJ           2.62713          1.3768         4.84691
LJ          -5.10932         3.55596         -3.6957
LJ         -0.294517         1.90322         5.53469
LJ           4.50492        -3.11925         6.40453
LJ          0.793253        -3.00113         1.14727
LJ          -4.56478        -2.66437       -0.952722
LJ           3.33823       -0.978774        -1.80212
LJ          -3.91858         -4.6907        0.393406
LJ          -5.30346         4.49532        -2.81103
LJ         -0.275099        -2.47849           -3.57
LJ          -0.26449        -4.86871         4.72418
LJ          -1.41251       -0.338993         2.21246
LJ          0.258891        -2.91576        -1.97507
LJ          -5.99455         3.35005         3.53527
LJ          -1.90159         1.40289         6.43561
LJ            3.7411       -0.786918        -6.27625
LJ           5.99565         5.43973         0.66425
LJ          -1.43329        -3.63976        -3.76876
LJ          -2.33512        -2.51316         1.47274
LJ            -6.177         5.57234        -2.76984
LJ          -2.09423       -0.705658         4.41183
LJ          -1.48982         5.86601         1.25568
LJ            1.0834         6.13987         6.26526
LJ         -0.911476          6.0941        -3.50259
LJ           6.29218         1.17554         3.65681
LJ          -1.55717        -4.13837         1.73232
LJ          -2.82156        -1.49988         6.21196
LJ          -3.59278         1.52278        -2.44155
LJ          -1.69628        -1.75491        -5.17176
LJ           5.20666        0.157385         4.93463
LJ          -1.30321          1.7627          5.2653
LJ          0.697759        -2.22233        -5.91843
LJ            2.7717         4.48341         1.59725
LJ          -3.52236       -0.697984         1.11767
LJ          -3.71724         1.82285        -4.44205
LJ          -3.52169        -4.20356          6.0467
LJ           2.08533         1.50826       -0.403229
LJ          -6.04825         6.19489         5.79959
LJ           -4.6943         2.90182        -4.94576
LJ           6.42617        -5.70604         4.85024
LJ          -5.24439         4.67249        -5.01515
LJ           4.41815         6.28058         2.70535
LJ          -4.77648          4.3546         1.63447
LJ          -3.77344        -1.27234         6.39311
LJ           -5.9199        -1.07307         4.79183
LJ          -3.77917         2.12965       -0.593139
LJ           4.59934        -3.40071         -5.1763
LJ           5.31089         4.09401         5.72808
LJ           3.87416        -3.96626         5.97469
LJ           3.99083        0.671156        -5.40693
LJ          -1.94911         4.00886       0.0896121
LJ           2.90488         5.79278         1.50699
LJ            3.5898           6.084         -6.2072
LJ          0.171015        -6.44041        -6.27456
LJ           6.28205        -4.33377         5.76577
LJ            2.6058         4.15205         5.86586
LJ          -2.73085       0.0721131       -0.618109
LJ         -0.956947         1.65422        -4.49088
LJ          -6.37964        -4.37646         4.50852
LJ        -0.0220406          4.3677         2.42291
LJ          -1.41688         5.03179          2.7207
