108
#Comment!
LJ          -2.10427        -3.35707        -4.98358
LJ          -3.89124         5.70488        -4.81907
LJ          -4.42599         4.10761        -4.47764
LJ            5.9428         0.78241       -0.133256
LJ          0.687376        -2.99799         3.94938
LJ          -4.12075        -1.03346        -3.13247
LJ          -4.46291         5.38112         3.90552
LJ         -0.977576        -1.84799        -4.79191
LJ          -5.26765         4.34121       -0.931823
LJ          -3.34048          1.0393         4.49619
LJ          -4.12067          1.5823        -1.09834
LJ         -0.883802         3.90622         5.33309
LJ           4.38377        -4.91107        -3.85339
LJ          -5.59789          3.3524      -0.0960298
LJ           4.64183        -5.68712        -5.66917
LJ           2.17536          3.3568        -1.28646
LJ          -2.95734       -0.810591        -5.01393
LJ          -2.80113         3.27172       -0.416397
LJ           2.94696       -0.356763         3.67654
LJ          -1.65514        -5.95884        -5.12991
LJ          -4.34562        -3.25193         3.10286
LJ         -0.590344         6.28677          2.5995
LJ         -0.438282         6.04506         5.80988
LJ          0.370075         2.58994        -1.97524
LJ          -5.39119        -6.35059         1.93663
LJ           3.19464        -4.28875         1.69103
LJ          -4.44124         4.74884        -1.50008
LJ           5.80744         2.22157         6.08783
LJ           3.89064        -2.42893       0.0721801
LJ          -5.10491         5.31371        0.587282
LJ          -5.11074        -2.13113        -5.52747
LJ          -1.82153         1.04151         -2.6583
LJ          -1.68724        0.118299         5.36872
LJ           2.64079        -3.26036         2.37597
LJ          -5.15717         3.84292         1.14023
LJ          -2.03262         1.27534          4.8389
LJ          -6.07565        0.215142         4.98889
LJ            5.3449       -0.305871        0.134135
LJ          -4.09939        -5.32195        -5.17886
LJ           3.92786       -0.434946        -2.98415
LJ          -2.00083        -5.52233         3.29126
LJ          -5.62365        -2.73417         3.33374
LJ           2.81154         4.51244         -1.9789
LJ          0.645544        -6.10785          3.0885
LJ           1.30475        -4.84139        -5.48289
LJ          0.856151        -1.60811         1.95562
LJ            4.5223        -2.90119         2.57663
LJ           5.51566        -5.97312         1.51022
LJ          -1.70838        -3.85943       -0.348482
LJ          -5.49426         -0.2795        -5.83563
LJ           4.40384        -2.32068          1.7617
LJ          0.466189         2.53722          2.5764
LJ           2.10868         3.43555         2.66612
LJ         -0.866704        -4.01217        0.850501
LJ          -1.70907         4.13434        -2.58268
LJ           3.41814        -2.53208        -1.53235
LJ          -5.06286         6.35144         4.81013
LJ         -0.802271         5.00296         5.68628
LJ          -3.31896        -2.74785         5.59617
LJ          -0.59065        -5.56137        -5.91858
LJ           3.88967       -0.237767          4.1246
LJ          -3.28451       -0.792721        -3.82345
LJ          -1.00108        -2.71539         1.35783
LJ          0.570624         6.22734         5.56778
LJ           4.32055        -6.17634        -4.47598
LJ            3.6484         1.95954        -3.00868
LJ          -1.71325        0.146573        -5.95216
LJ          -6.01157        -1.62155        -2.05928
LJ           1.85999         5.07138         6.26079
LJ          -5.68648         3.94648        -2.67824
LJ          -4.17597         1.84562        -4.09193
LJ           0.17381       -0.997858        -2.66666
LJ          -2.91984        0.867564         -3.3264
LJ           2.27071        -6.45693         1.82005
LJ          -2.49663        -5.66698        0.398951
LJ          -1.77837       -0.466272          3.1671
LJ          -5.13292        0.651913         2.69716
LJ           1.57329         2.39202        -3.35427
LJ           2.20107         3.29769         5.00858
LJ            2.6381        -1.52608       -0.205638
LJ           4.80799        0.582209         5.06224
LJ           3.96752        -4.48584        -4.75027
LJ          -4.14444        -5.81127         4.39291
LJ          -5.82795         4.66093        -5.62982
LJ           2.50538         4.03348        -4.21364
LJ           6.40751         3.63656        -4.00596
LJ         -0.847684        0.718352         4.06412
LJ          -3.49057         1.62407         1.46146
LJ           -2.4525        -5.94466        -4.31659
LJ          0.276952         2.51591         3.81493
LJ         -0.449307         5.04383        -2.48869
LJ          0.725624        -3.94781         1.90062
LJ          -2.54487         1.05201         3.24798
LJ           2.80757        -1.46644         4.24163
LJ            5.9756        0.993885         1.11413
LJ          0.239833        -3.65148        -4.90143
LJ           5.56371        -1.64288         4.71692
LJ        -0.0515913        -1.36417        -6.25183
LJ          -1.48743          4.7704         3.24196
LJ          -2.20636         2.86751         6.16014
LJ           1.69442      0.00719873        -3.68365
LJ           1.84732        -3.62537        -1.75998
LJ         -0.876959        -2.83766        -2.01045
LJ          -1.41213        -3.91578        -1.57937
LJ          -1.92942         2.82392         4.85956
LJ          -5.80036        -3.92444         5.69401
LJ           4.68829         3.16438         2.96631
LJ         -0.565014         0.68585        -5.64182
