108
#Comment!
LJ          -4.26189        -2.57552         6.25496
LJ          -2.37221         5.21534        -6.05541
LJ          -5.64135        -5.90638         5.84756
LJ          0.575837        -5.89284        -3.35821
LJ           1.25564         3.51041          5.4454
LJ          -6.03937        -3.95865         4.02258
LJ           -6.3482        -5.21209        -2.37745
LJ           1.23746        -3.60295        -2.80938
LJ          -3.73888         4.80007         5.66784
LJ          -1.03231        -3.98788        -2.22539
LJ           2.40339        0.855139           4.604
LJ            1.1086         5.03734        -4.89663
LJ           2.97809        -4.39535        -6.09057
LJ          -1.53619         2.10215         6.41775
LJ          -5.00195         5.33343       -0.772479
LJ          -5.74158        -4.60095        -1.54528
LJ          -1.67014        0.565314        -4.10735
LJ           2.40488        -5.31677         4.25763
LJ         -0.961492         3.26685        -5.00069
LJ           2.95114        -1.88427        -3.24513
LJ            3.9999        -2.44263        -4.85945
LJ           1.21252         4.71763        -3.35968
LJ           4.49165        -5.16994       -0.521315
LJ          -2.74884        -2.29655        -1.93928
LJ           5.53204         3.04474        -4.18676
LJ           4.03448         5.44555         5.26094
LJ          -6.03552         0.18473        -5.36298
LJ          -5.68479         4.08833        -5.15383
LJ          -2.52728       -0.149856        -2.88492
LJ          -6.14389         3.97619         4.54264
LJ          -4.33642         5.17183        -5.93482
LJ          -4.91141         1.74373        -4.91829
LJ           2.07923         2.43997       -0.203224
LJ         -0.292951        0.830627         -5.4038
LJ           1.06953         3.08408        -5.39979
LJ          0.881944         6.29783         -1.7671
LJ          -3.97641         2.89738        0.224833
LJ          -4.35899         5.15321        -2.27476
LJ          -4.33863         1.91523       -0.602853
LJ          -5.60324        -2.85049         1.09201
LJ          0.601606        -4.86389         1.18353
LJ          0.743541        -1.44084        -5.57694
LJ          -4.91607         2.99687        -2.41472
LJ          -1.35148        -6.25212       -0.167109
LJ          -3.62257        -3.96168        -2.78318
LJ         -0.715623        -1.28854       0.0581191
LJ           2.69947        -3.43251         -3.7889
LJ           2.10507        -4.93316        0.597162
LJ           2.89432         6.24241        -1.88672
LJ          -4.30538           1.802        -6.04306
LJ           4.95583        -2.92068       -0.255715
LJ           5.62306         0.14947        -6.01898
LJ         -0.936872        -1.89672         2.59872
LJ         -0.397027         3.30778        -1.38532
LJ          0.595043        -2.23906       -0.713459
LJ           1.75401        -5.92652          2.1883
LJ           2.18077         -4.2665        -4.78215
LJ           5.15469         1.23449        -2.83517
LJ          -1.81311        -2.28361        -2.19032
LJ           1.23705       -0.829032       -0.676172
LJ          -5.78492         6.08397         -2.7146
LJ          -4.79421          4.4936        -2.86704
LJ          0.317295         5.01979       -0.267391
LJ          -4.89484        -1.80326        0.154937
LJ          -3.09601       -0.876801         3.08737
LJ           0.61992         2.00861        -3.91605
LJ         -0.597842       -0.814184        -2.34455
LJ            2.2389        -6.17866        -3.31995
LJ         -0.798161         4.32007        -3.44342
LJ         -0.369183         4.55673        -1.40731
LJ         -0.758112         2.48945         1.68598
LJ            2.6093        -6.33496         1.66444
LJ           -5.3104        -5.82258         1.80909
LJ          -5.27118        -3.18281         6.21228
LJ          -5.48943      -0.0850985         3.34412
LJ           -5.7107         4.02162         1.21103
LJ           2.39669         2.88078         5.57675
LJ         -0.794348        -3.49045         4.90871
LJ           4.64635        0.758066         5.39776
LJ           1.95999          -4.243          3.0002
LJ          -1.66993         4.29434        0.470679
LJ            5.4957        -5.47239        0.720303
LJ           4.69629        -5.87583         3.08105
LJ           3.51547         4.75148         6.08777
LJ           5.56555        -3.41927         2.83788
LJ           5.50563        0.555324         1.24092
LJ          -4.47025         1.40166         4.27643
LJ           4.94944         1.57708        0.631318
LJ          -6.42591         1.99116        0.826591
LJ           -3.2483        -6.11267         4.49929
LJ           2.64829        -3.46132         3.94772
LJ           0.89331         -2.5127        -3.83505
LJ           4.10317        -4.02129         0.96125
LJ           4.70069         1.40527         1.95469
LJ          -4.48756         3.92549         2.28791
LJ           3.89662        -2.80183        0.949358
LJ           5.17506          2.7005       -0.109004
LJ          -4.54764        -6.37556         3.35169
LJ           -2.5703         3.21135           5.566
LJ          0.433598         1.93718         0.46606
LJ          -1.73637         2.20758         1.89906
LJ         -0.859453         4.16519         1.25364
LJ          0.194719         3.53747        -4.70255
LJ          -1.60171         1.47882        -5.61507
LJ           3.54792         5.30111         3.59474
LJ           6.18075        0.738133         2.48864
LJ         -0.856841         1.77373         2.81347
LJ           5.67445        -1.33309         5.86702
