108
#Comment!
LJ          -4.37524        -1.20523         5.88764
LJ          -1.97776         4.30246        -6.35734
LJ          -5.42688        -6.26924         5.46413
LJ           1.41071        -5.81841        -2.91304
LJ            1.5432         2.69606         4.68242
LJ          -4.71403        -3.98778          3.4256
LJ           5.91208        -4.26882        -1.92639
LJ            1.7358        -1.89157        -2.87559
LJ          -2.73688         4.02999         4.87811
LJ          -2.17407        -4.15682        -1.10951
LJ           2.32716       -0.407286         3.66215
LJ          0.219823         4.65648        -5.29721
LJ           2.28737        -5.53063          5.6734
LJ          -1.03245         2.74581         6.30333
LJ           -4.5372         6.30979       -0.175492
LJ          -6.14577        -5.27815        -1.07561
LJ          -1.77484        0.579874        -3.42711
LJ           2.90114         -6.1552         3.43936
LJ         -0.513827         3.48719        -4.95799
LJ           3.62838        -1.81229         -3.0272
LJ            4.2138        -2.67801        -4.26846
LJ          0.271188         5.11686         -3.0423
LJ           5.05332         6.46107       -0.394009
LJ           -2.9853        -2.40004        -1.22552
LJ           5.69502         3.91205        -4.00936
LJ           2.99712         5.85339         4.91726
LJ           6.03056        -1.09645        -5.91344
LJ           6.30256         4.30445        -6.05723
LJ          -2.29934       -0.293103        -2.20873
LJ           5.62007         4.17628         3.60332
LJ          -4.40767         4.73392        -6.34663
LJ          -5.52463         1.60787        -4.95078
LJ           1.55737         3.18283        0.702153
LJ          -1.45461        0.334049        -4.91872
LJ           1.36141         3.27564        -6.13003
LJ          0.871854         6.14366        -1.26715
LJ          -4.18576         1.99251        0.465288
LJ          -4.03463         4.92068         -1.6822
LJ          -3.57249        0.794816       -0.591558
LJ          -5.79253        -1.94632         1.05348
LJ           1.26176        -4.59611          2.0252
LJ          0.958912       -0.978494        -6.19751
LJ          -5.24705         3.81295         -2.6634
LJ          -1.45138         6.39476         1.09979
LJ           -4.6903        -3.01172        -2.61462
LJ          0.635968       -0.631964        0.886721
LJ            2.6426        -2.98527        -5.01597
LJ           1.68735        -4.61032        0.686609
LJ             2.044         -5.0449        -1.96301
LJ          -5.18874         1.80683         5.97704
LJ           5.20505        -3.73556         1.22174
LJ           5.14254        0.268209         -6.3353
LJ          -1.44594       -0.766819         2.16121
LJ        0.00989139          2.7666       -0.782355
LJ           1.17112        -2.55045       -0.927853
LJ           1.04567        -5.82361         2.92963
LJ           2.25847        -3.99391        -5.29052
LJ           5.15703        0.750573        -1.95911
LJ          -0.66078        -2.77752        -3.12658
LJ          0.484335       -0.842399       -0.744721
LJ          -5.17481         6.09937        -3.03433
LJ          -6.12626         4.87242        -2.99644
LJ         -0.144735         5.38361        -1.16343
LJ          -5.10152        -2.65444        0.230842
LJ          -3.31132        -1.58074         4.13537
LJ           1.20097         1.45636        -3.18376
LJ         -0.163939        -1.64515        -2.93003
LJ           2.52055         -4.6358         -3.1206
LJ          -1.53752         4.61593        -3.25281
LJ          -1.22886         5.44616        -1.44874
LJ         -0.924029          2.6065        0.443872
LJ           4.19588        -6.22107         0.62308
LJ          -5.07579        -5.67912         1.78732
LJ          -5.29845        -2.83782        -5.73957
LJ          -5.29732        0.958493         3.09297
LJ          -6.00731         3.57606        0.581948
LJ           3.28255         2.07089         6.25737
LJ          -1.06097        -2.51572         5.51792
LJ          -5.91795        0.557169         5.07822
LJ           2.45325         -3.8207         2.71306
LJ          -2.35598         3.82998        0.402196
LJ           5.62449        -5.64662        0.270882
LJ           5.13101        -6.20562         2.80634
LJ           3.30076         4.33362        -6.43569
LJ           5.40389        -3.57756         3.23867
LJ           5.77009         1.42341        0.494259
LJ          -4.16407         1.27437         4.14747
LJ           4.54653         1.82431        0.610353
LJ          -6.44037         2.26471        0.683676
LJ          -3.92975         5.85414          5.0116
LJ           3.51451         -4.6808         4.14986
LJ          0.462479         -2.4082        -3.40787
LJ           4.30163        -3.87131         1.65815
LJ           4.99377         1.79749         1.91566
LJ          -3.25765         4.82831         1.42199
LJ           3.62504        -3.64505        0.356782
LJ            4.3389         3.54475       -0.967677
LJ          -4.36659        -6.14784         3.78928
LJ          -1.50502         3.59299         5.99018
LJ            1.2989         1.96911      -0.0234741
LJ          -1.94612         2.68287         2.01704
LJ          -2.12082         3.55884         1.59074
LJ           1.29506         3.30148        -3.73686
LJ          -1.94684        0.941801        -5.84882
LJ           3.82068         6.29022         4.17367
LJ           6.14441      -0.0334718         2.77897
LJ          -1.89826         1.13927         3.05983
LJ           5.78238        -2.30764         5.95792
