108
#Comment!
LJ           1.60298         6.39125         2.22009
LJ          0.813747         1.48372         3.89284
LJ           5.63303         1.45174        -2.66505
LJ           2.53088        -2.33422         5.13693
LJ          -3.06456          4.8846         0.40877
LJ           5.82148        -3.42532         2.90793
LJ          -5.16941         1.60429        -3.85623
LJ           3.85384        -4.22302         6.32409
LJ           4.10579        -5.12112        -1.93097
LJ           2.61271         2.10943         5.98375
LJ           -4.1882         3.21053        -1.67302
LJ         -0.210821        -1.13994         2.52262
LJ          0.826588        -4.76092        -1.50798
LJ          -1.56664        -2.01552         -3.4347
LJ           1.56818        -3.31924         3.64372
LJ          -4.16347        -3.41972         -4.6505
LJ         -0.875209        -5.81116        -6.43858
LJ           4.64545          2.2697        0.920548
LJ           2.87489         5.78879         5.83512
LJ         0.0568864         1.18042        0.875277
LJ         -0.844683        -4.30016        -3.62923
LJ          -0.11709       -0.313406        -1.79159
LJ          -5.70198        -3.65666         3.63756
LJ           5.22217         2.58337        -2.30352
LJ           4.57718       -0.128192         1.66055
LJ         -0.548043         2.12304        -3.74845
LJ          -5.01196        0.340151        -2.24645
LJ          -5.14306         4.02544         -6.1698
LJ            -3.793        -2.73014          6.3942
LJ          -2.94592         1.89345        -1.97601
LJ         -0.748732         0.43492        -5.87901
LJ          -2.17158        -4.73082        -4.11075
LJ           3.80433        0.792775        -2.31529
LJ           5.94387       -0.804548        -2.75846
LJ           3.55731          2.5305         5.34494
LJ           5.26676       -0.254777        -1.99907
LJ          -5.06352        -3.43807         5.96842
LJ           3.76265        -2.78089        -4.01671
LJ          -1.75874         -2.2624        -1.98476
LJ           1.48407        -5.33355        -3.94568
LJ           3.38432         6.21131          -4.219
LJ            -2.393         0.83677         2.91081
LJ          -1.79936       -0.668704       -0.213735
LJ          -4.76702        -2.61392        0.646004
LJ         -0.922308        -2.87907        -2.34155
LJ           5.51108       -0.637621        -5.52455
LJ           2.73916         2.87783         4.43618
LJ           6.21672         2.42661        -3.39091
LJ         -0.543085        -6.42024        -5.10404
LJ           5.82992        -6.24259        -5.42594
LJ           4.79895        -2.95051         6.32491
LJ            -5.261        -1.48541         2.14827
LJ          0.967226        -6.20083        -3.35422
LJ           6.26786         5.91607        -4.89598
LJ          -6.38976         4.38765        -6.43708
LJ          -4.98686        -2.75308        -2.51923
LJ          -5.05981         5.69361         1.01036
LJ           3.56338          1.9446        -5.73978
LJ          -5.34389         5.36789         -5.3083
LJ           1.49062         5.41439         3.12592
LJ         -0.681297         1.02474        -2.31695
LJ          -3.35774         0.88654        -4.15844
LJ          -6.01977        -4.80575        0.836701
LJ           2.85703        -3.17459         3.73878
LJ          -3.58649       -0.668796       -0.237015
LJ           3.51634         3.61604         1.00981
LJ          -6.12449        -5.31301        -3.75689
LJ           6.27346        -3.85933        0.644628
LJ           2.10513         2.15541          -5.953
LJ          -1.48273         2.41794        -2.62216
LJ             3.935         3.26829        -3.41493
LJ           2.88609        -3.41911       -0.134144
LJ           4.18825        -5.27601        -5.39058
LJ          -3.51044        -4.48023        -3.93627
LJ          -1.83749        -5.51906         2.17103
LJ           1.97662        0.239407         1.35279
LJ          -1.64423         5.33849        -2.06816
LJ          -6.36308         5.83542        0.453709
LJ          -4.18001        -2.50583        -3.32635
LJ          -5.76148          4.0557        -4.00794
LJ          -3.34001        -4.21055        -1.61033
LJ           -6.2601        -3.27541        -3.59275
LJ         -0.121577         2.80012        -5.05396
LJ         -0.666489          1.2527         -1.0698
LJ          -5.87118         5.08003         3.16586
LJ          -3.38259         2.39457        -3.89669
LJ           5.36799         -2.6981         2.36579
LJ           2.76016         2.10423       -0.941244
LJ           3.46598         1.89866        -2.10476
LJ          -4.76597        -3.76371         1.76046
LJ          -4.50509         1.34162        -5.49919
LJ          -2.99141       -0.265005        -2.23839
LJ          -6.17269          4.0172        -5.20933
LJ           6.28207        -1.80069         6.30016
LJ           -3.9718        -5.80259        -1.98728
LJ           4.31754        -5.33799         4.43428
LJ            1.0661         5.73436         4.04215
LJ          -4.04311         3.16054        -5.88712
LJ          -3.94814         2.80146        0.596433
LJ          0.757387        -5.59079         2.15727
LJ          -2.39051         6.04417        -1.32171
LJ           1.68143        -6.25571         5.17671
LJ           3.86277        -6.13194         1.82049
LJ          -0.56249        0.589302         5.18423
LJ          -4.48605        0.063317      -0.0882109
LJ           3.10005         1.50208         4.81427
LJ           4.65353        -2.67168         3.65872
LJ           3.26766         4.33128        -6.19405
