108
#Comment!
LJ           2.13827         2.54257         1.90638
LJ           2.16423        0.901421         1.46178
LJ          -4.08331       -0.479772        -3.67059
LJ            5.2414        -3.34892        0.128187
LJ          -2.00013        -6.19989         1.14187
LJ          -5.63869        -3.65386        -6.28038
LJ          -4.70396        0.261931         -3.8794
LJ           5.35048        -4.25488        -2.81177
LJ           5.23527         4.79815          6.3954
LJ           4.29481        -5.12276         2.37916
LJ            -1.693         2.13934         1.92835
LJ          -4.64562        -3.56645         5.76274
LJ          0.615762         1.01556       -0.303934
LJ           2.63593        -2.46976         5.55995
LJ          -1.43323        -1.76108        -5.15988
LJ          -2.71364        -4.52722         5.31168
LJ          -3.18543        -4.28231       -0.511399
LJ          -4.85322         2.82734         2.13648
LJ           4.69512        -2.15064        -3.96469
LJ          -1.39321        0.711101        -2.69257
LJ          -3.79041         -3.9014        -5.05672
LJ           3.17331         4.10291        -2.66616
LJ            6.2598        -6.08509         5.58135
LJ          -4.28486          2.7917         -2.6894
LJ           3.39584         4.52598         5.61879
LJ          0.187717         4.90386       -0.336674
LJ          -5.74674       -0.792302         5.18136
LJ          -3.90364         3.22415        -5.20452
LJ          -4.72686        -4.85108         5.89748
LJ         -0.127643         3.71594         1.87499
LJ          -2.66649         1.30675        -4.59502
LJ           -4.1233         6.16679        -6.43941
LJ         0.0866474        -2.85587         4.21206
LJ           4.08786        0.166871        -1.00338
LJ           5.41678         1.43789        -3.12724
LJ           5.30824         2.76393         2.46243
LJ           4.14225         1.18157         1.04664
LJ           2.28235        0.384729        -2.32454
LJ          -2.08378       -0.240434         2.20295
LJ           -5.5585         3.46744        -2.65434
LJ           5.16093        -2.34112         5.81803
LJ           6.36116         1.52355         0.89181
LJ          -2.24096        0.197317        -3.50816
LJ         -0.831031         5.27049         3.17331
LJ          0.858962       -0.880941         1.12783
LJ           -5.5755         1.22563        -5.14836
LJ            4.2071        -5.25964         5.62818
LJ          -5.40304         1.80017        -1.33593
LJ           6.07739         4.00247        -6.04581
LJ          -1.41898        0.756959         3.34185
LJ           4.85119        -1.58653        -4.87779
LJ           2.08228        -6.21001         1.51931
LJ           3.38463         3.45285        -4.65695
LJ           6.12868          4.9638        -5.42428
LJ           5.79078         2.77441        -4.81328
LJ           1.99847        -3.31164       -0.886666
LJ           2.76214        -5.26935       -0.573031
LJ            4.6553        0.555404         3.41173
LJ         0.0902244         1.22808        -5.63878
LJ              3.79         4.31652         1.76979
LJ          0.604582        -1.32571        -1.32584
LJ          -3.21466         2.83834        -1.83693
LJ           -4.2689          4.2095        -2.04797
LJ           3.81803        -2.66007           6.061
LJ          0.685015          2.8915        -1.25534
LJ           1.16117        -1.82173         3.91449
LJ           2.47389         6.08583         4.76197
LJ           2.89703        -1.32609         -1.7549
LJ          -1.82611        -3.61262         3.88917
LJ          -2.29152         4.32085        -3.50775
LJ           1.57846         2.92399        -4.53292
LJ          0.554548         5.91644        -0.27184
LJ           6.20112        -5.36429        -3.10826
LJ          -5.07736         -3.7978        -2.69207
LJ          -3.02592       -0.104288           1.254
LJ          -4.59081            1.21        -1.10126
LJ          -1.05474        -3.57449        0.837334
LJ           4.92478        -5.21323      -0.0664428
LJ          -4.00639        -3.17255         6.42935
LJ          -6.23127         2.52317        -3.34189
LJ          -4.10311        -3.50376         2.13303
LJ           -4.4553        -4.09107        -6.32131
LJ           1.01291        0.174294         5.05449
LJ          0.350429       -0.152894        -5.74022
LJ           4.08868         3.02573         5.95697
LJ          -3.78728         -3.3336         -2.5579
LJ           5.57119        -3.95999         1.49167
LJ          0.797562       -0.652147         6.32457
LJ           3.16149        -3.07113      -0.0809834
LJ           5.85144        -4.18255         3.54024
LJ          -4.63321        -2.38801        -2.73614
LJ          -4.23078        -1.88117        -3.76812
LJ          -5.77958         2.86978         -1.3979
LJ          -5.16885        -0.35685          3.8596
LJ          -1.28608        -1.89896        -3.17229
LJ           3.52332       -0.853037        -6.11487
LJ           4.31971         4.68128         2.67433
LJ         -0.297631         3.20687         3.53128
LJ          -3.24677          1.7185        -1.06364
LJ            2.3837        -2.07284         -1.1968
LJ          -4.38033        -3.88531        -3.75638
LJ           1.25699        -1.10121        -2.38967
LJ           3.73713        -4.88132       0.0701003
LJ          -0.72228        -1.02346         3.58139
LJ          -5.36283          2.0605        -2.62681
LJ         -0.992201        -4.50017         3.10545
LJ           6.36946       -0.313899         5.59881
LJ          -6.44823         1.56382        -3.82025
