108
#Comment!
LJ            3.1399         3.74453         2.13552
LJ          -1.59355         1.60947         3.98432
LJ          0.515229        0.697016        -1.86932
LJ          0.347505       -0.769931        -5.87731
LJ          -2.40142         4.37313        -1.41752
LJ          -5.03574        -5.80065         2.28199
LJ          -2.18802        -5.82792        -3.23494
LJ            2.7853        -5.81935         1.98492
LJ          0.258806         6.07185         6.21775
LJ           3.10885        -4.39008        -6.14083
LJ           4.51063         5.24342         6.44801
LJ           4.12658         1.79911       -0.340557
LJ          0.409041         2.80185        -3.94481
LJ           1.01097        -1.15018         5.57657
LJ           2.20866        -5.37833        0.104855
LJ          -4.69933         -3.7138         -2.6375
LJ         -0.763619        -3.30112        -2.10176
LJ          -5.81699        0.740233         3.66162
LJ           1.97827         1.60188       -0.600218
LJ            1.0217         1.55732          2.2648
LJ          -1.98744         -3.8495        0.934324
LJ          -3.45457        -1.17678         3.66633
LJ          -4.94456        -1.84355         2.10085
LJ           1.55165         4.24024       -0.251557
LJ           3.42755        -3.17424       -0.506695
LJ          -3.26263         3.11715        -4.27324
LJ          -5.81023         3.83018          5.9078
LJ          -4.43099          4.0553         4.27142
LJ           2.33949        0.458803        -3.45058
LJ          -4.38586        0.148509        -1.71231
LJ           3.27357        -1.98238         5.87252
LJ          -5.58635         3.19837         2.18045
LJ           4.58439         3.78124         4.89581
LJ          -1.55748        -1.72597        -3.28799
LJ           4.51084        0.854245        -5.99544
LJ           2.37481        -1.34239        -3.66704
LJ           6.33698         5.00815        -1.99397
LJ           5.55475         -4.1978         4.66448
LJ         -0.726455        -4.53939         1.52167
LJ          -4.77937        -3.38139         5.57815
LJ          0.811348         2.11552       -0.878751
LJ         -0.833558        0.243653         4.57102
LJ          -1.38292       -0.748499         3.82085
LJ            3.9988         4.44688         4.13026
LJ          -5.74888        -4.31886        -6.33789
LJ           4.67491        -2.79301         3.95253
LJ           1.67166        -5.84451         2.39845
LJ         -0.299022        -6.29287        -5.55868
LJ           3.83737         1.74125        -1.34478
LJ          -2.03676        0.636835        -6.10575
LJ          -5.15673        -6.14314         4.54635
LJ          0.978886         2.80097         1.06084
LJ            0.8257        -4.87626         -1.8532
LJ           5.12223        -4.00367        -2.11638
LJ          -5.46727         4.10001         3.20976
LJ          -3.04761        -2.06085        -2.23956
LJ          -3.76145         4.52953         1.51606
LJ           5.68904         3.99398        -1.34464
LJ           4.05562        -5.82531         5.54346
LJ          -2.96011        -3.94372         2.83244
LJ           1.90066       -0.743495         2.29016
LJ          -5.33868        -2.15239         3.27731
LJ          -6.38639        -3.83222         4.28816
LJ          -5.90927         1.09443         2.35454
LJ         -0.396114         0.31137        -3.37224
LJ           3.03278        -5.78977         6.23997
LJ           5.74048         5.88222        -2.69083
LJ          -6.24748        0.592389         5.18166
LJ           4.14107        -3.40288        -2.66595
LJ          -1.04345         4.12581      -0.0259403
LJ           5.82709         5.60549        -1.05051
LJ           5.41965         1.69006       -0.762798
LJ           2.12959        -6.07738         0.81515
LJ          -3.90799        -5.45033        -6.18575
LJ         -0.648893         2.18933         3.36791
LJ          -4.72327        0.220663         4.29666
LJ          -2.45055         2.46509        -3.85493
LJ          -4.73869         5.31813         1.78732
LJ           5.10437        -2.90789         1.99586
LJ          -5.47157         5.44988         5.59221
LJ          0.916978         -5.7604       -0.206962
LJ          -5.86343        -5.07957         1.29213
LJ          -3.16434         3.54134         -3.3499
LJ          -1.50664         2.94019          4.3383
LJ           1.28349         5.67639        0.795568
LJ           1.69708         2.40601         5.41094
LJ            3.4745         1.21425         1.68036
LJ         -0.142016         5.55414         -1.3407
LJ           3.86681         5.45538         -2.5977
LJ          -3.59186         5.41117         5.13842
LJ          -4.78959         3.14681         5.97987
LJ           2.66095       -0.138901         2.00036
LJ          -4.51288         5.02239         6.13978
LJ           2.54715       -0.836427         3.95739
LJ           6.15247         2.27898        -1.15771
LJ           5.64178         3.27277         3.41385
LJ          -1.25846         6.32674         5.74895
LJ           5.75699         4.54866         -6.0238
LJ          -3.42514      -0.0619653         2.07473
LJ          -5.88433        -5.12792         3.94295
LJ           2.16966      -0.0689036       -0.352246
LJ           -6.3017         6.37496        -1.11991
LJ           3.70376         3.09198         3.51557
LJ          0.264612        0.116256         3.77107
LJ          -3.46052        -2.48901         2.84175
LJ          -6.21023        -1.68425        -5.24129
LJ           4.33908        -5.38881         2.36277
LJ          -3.17286        -4.72931        -6.15922
