108
#Comment!
LJ          -5.89173        -0.91206         2.54025
LJ           6.07739        -2.43501         2.50881
LJ          -3.43048        -2.23965        -5.38105
LJ         -0.154755         5.91148        -4.51774
LJ          -2.23559        -5.88826         3.25966
LJ           1.03108        -5.35914        -2.70395
LJ          -5.63326         4.37874         1.97752
LJ          -6.17403         4.56024         3.09239
LJ           3.06293        -1.37743         4.31961
LJ          -1.41949         5.78504         -5.0579
LJ        -0.0503676        -6.03269        -5.39192
LJ           -4.7269        -2.29488        -4.26212
LJ          -4.66567         5.74178         2.77599
LJ            1.0002         4.77185        -2.79451
LJ          0.534138           6.099        0.125695
LJ          -1.93936         3.21928         3.59005
LJ          0.532597        -2.66275         4.52178
LJ           2.24433        0.966598        -1.32858
LJ          -6.39117        -4.42718         4.14749
LJ          -3.78981         5.10361        0.359001
LJ         -0.138721        -3.05378        -3.90452
LJ          -6.09666        -4.73188        -6.09109
LJ          -6.10898         3.42535         1.80747
LJ           5.75295        -5.90563         1.76592
LJ          -5.78506        -6.42142         3.86077
LJ          -6.11648         6.41334        -3.59613
LJ           4.30096        -1.15734        -4.41491
LJ           4.97399        0.325736        0.816006
LJ           -4.2967         3.22115        -1.46516
LJ         -0.783534        -5.97238         2.47434
LJ           1.34823       -0.651394        -4.06455
LJ         -0.784553        0.392933         1.94548
LJ           1.90768         5.20038       -0.134234
LJ           1.33069        -1.82267         3.02084
LJ          -4.91132        -2.43514        -3.29096
LJ           1.06513         1.25118        -4.39523
LJ          -3.99467         2.49759         3.43182
LJ           3.59704        -2.39754        -1.39208
LJ           5.02627         5.96045       -0.319668
LJ           -2.4958       -0.452427        -1.04934
LJ           4.66897        -1.75145        -0.42992
LJ           1.52673         6.20694       -0.738944
LJ            1.4613         1.91677         3.67381
LJ           6.32343        -3.35404           3.284
LJ           2.17061         3.61378         4.43366
LJ           0.16152         4.20624        -5.87161
LJ          -3.77919        -4.76491        -1.62469
LJ           1.50409       -0.147899          1.1504
LJ           -0.3071         4.90963        -2.39139
LJ           -2.1996        0.853339         1.67649
LJ         -0.501728         -4.5445        -5.28892
LJ          -2.89757       -0.740581         -5.2672
LJ           4.30913        0.877169        -1.44275
LJ           2.13259        -3.48933        -2.25375
LJ           2.57577         4.46127         4.74806
LJ          -4.53913         2.25945          5.3707
LJ           6.18704          5.2571        -2.74251
LJ           2.22573         1.00513      -0.0712566
LJ           3.87862        -2.32638        0.597564
LJ          -1.17024        -4.86492        -4.50033
LJ         -0.579796        -2.23835         2.08514
LJ          -2.80801        -5.60699         5.65985
LJ           3.00791        -2.71822       -0.461702
LJ          -5.38128         2.46643        -3.89175
LJ           3.96208        -1.28793         -5.4497
LJ          -3.74803         1.55073         6.03636
LJ          -4.40316        -1.33691         5.78075
LJ          -6.32804        -1.26967        -3.15047
LJ         -0.686016         6.36291        -6.11293
LJ           1.78453        -5.45751         3.62149
LJ          -3.97097         1.73019       -0.915987
LJ           5.98409         2.71914        -4.23032
LJ          0.975537        -6.31211        -2.15387
LJ         -0.303422         1.17262         -5.6775
LJ           5.74323       -0.909058        -1.13538
LJ          -2.35379         5.60282           1.059
LJ           4.17479        -3.55286         5.08345
LJ        -0.0182565        -4.29329         -3.8308
LJ         -0.407885        -1.56042        -2.69129
LJ          -3.49179         5.95968         5.21341
LJ           2.11446        -4.26137         6.28987
LJ           -5.4444        0.109811         4.44731
LJ           3.38499        -4.78434        -4.64465
LJ            4.6699         1.13272          4.6523
LJ           5.88237          4.6303         3.82155
LJ          -3.77579        -4.30796        -4.08087
LJ             4.512         4.53859       -0.761942
LJ         -0.749642         6.30399       -0.583057
LJ           3.28089         2.66646          3.4135
LJ           2.43332         3.42436         5.54353
LJ          -1.80006        0.203932        -3.80315
LJ          -4.61717          3.3879       -0.262766
LJ           -4.5877        -5.95435        -2.80702
LJ          -1.92643         -1.5934        -5.23871
LJ           3.28399         5.75309         1.67458
LJ           1.45789        -4.42519        -4.31565
LJ            1.2491        -4.43774        -1.32005
LJ           -3.6644         2.73286          4.5687
LJ           3.93495         4.58726        -1.73653
LJ          -5.63505        -2.94639           3.396
LJ           1.14111         4.81505        -5.09501
LJ           4.54627        0.422325         3.46116
LJ            6.2954         5.72237         3.06838
LJ          0.595638       -0.945454         -3.1725
LJ          -1.11869         4.04276         2.78587
LJ          -5.68056        -4.19949        -2.02671
LJ           3.43304        -5.70412        -1.36436
LJ           3.20476        -5.18642        -5.69744
