108
#Comment!
LJ           4.37859       -0.370429       -0.955256
LJ           2.80424       0.0139124        0.343116
LJ          -4.27447         1.08345        0.995356
LJ          -5.06765        -5.84019        -1.09375
LJ          -1.06086        -5.59277          3.2411
LJ            3.0637        -2.84699         3.17068
LJ          -2.63807        -2.28482        -5.29719
LJ           -4.1194        -4.74117        -2.65049
LJ          0.803646       -0.461498        -2.69708
LJ          -5.90418        0.779403         -1.8795
LJ          -3.30992        0.681771        -3.98954
LJ          -5.41956         5.34911         2.53284
LJ         -0.648395         5.91632         3.83654
LJ           5.92651        -4.06389        -1.76977
LJ           2.94152        -4.52029       -0.326466
LJ         -0.270804         5.77864         1.69725
LJ          -4.88373        -1.19476        -5.99958
LJ         0.0131373         3.32648         2.13609
LJ           4.42423       -0.463727         1.11183
LJ           -1.6938      -0.0651465        -5.15697
LJ           1.70608        -2.62978         6.32375
LJ          -6.43639        -2.81877        -4.32769
LJ            3.8035       -0.471581         -4.3174
LJ          -2.33039        0.470907         3.02001
LJ          0.668022        -3.28368         -5.8796
LJ          0.614114         2.98407        -4.66061
LJ          -3.81632         4.12698         1.31524
LJ         -0.931255         3.85572         3.68425
LJ          -4.96717         5.01438         1.04535
LJ           6.27907        -5.63567        0.343265
LJ          -3.72331          1.8359        -4.66305
LJ          -6.19408        0.950753         3.86487
LJ           -1.4502        -3.68396        -2.01987
LJ            3.1169        -1.06549        -0.39958
LJ          -5.21764         -2.9563         6.42114
LJ          -5.95992         4.09435         -6.3611
LJ          -1.65669         5.77729        -5.06883
LJ           -3.9569        -6.02916        -2.83663
LJ           -4.1375         -5.4465       -0.685243
LJ          -3.53117         4.77879        -1.81705
LJ           4.21221         3.59952         3.37736
LJ           3.20508         4.32222         0.81306
LJ           -4.8176       -0.867976         5.70662
LJ           3.87001        -2.30548        -2.93748
LJ           3.29839        -1.89369         5.21405
LJ          -3.35149         2.13214        -1.74125
LJ            4.8747        -3.31733        -4.36755
LJ           2.34342        0.592055         1.70146
LJ           1.84372        -5.12703         4.85037
LJ           -4.0485          3.8263        -6.17183
LJ          0.493913        0.636295         -2.8532
LJ          -5.87248        0.760039       -0.355663
LJ            -5.394         0.89775        -4.74384
LJ          -2.37532         5.08497         1.00396
LJ           4.71705        -2.52935        -1.40464
LJ        0.00995655         1.94409         2.77546
LJ           1.70476         5.59091         -1.2615
LJ          -4.40316         -1.0427       -0.634874
LJ            2.8543       -0.051552        -3.27858
LJ           5.38825         5.24484         5.57844
LJ          0.552838         2.01899         1.76463
LJ          -2.65044         6.02335       -0.806989
LJ          -4.97391         3.75396        -4.47936
LJ           -4.6918        0.788373        -5.91052
LJ          -6.08888         -6.3229        -2.25117
LJ           5.94898        -6.10122         -4.0523
LJ          -2.33119         4.45716        -2.23823
LJ          -1.15368         1.87919         1.00652
LJ           5.98756         2.39423        0.975431
LJ          -0.36858         -2.8593         -4.8576
LJ         -0.149444          3.0896        -3.14215
LJ           1.40989         5.80758         1.27491
LJ          -4.24283         5.31297         5.53179
LJ          0.329078        -5.56113        -4.08485
LJ         -0.660086         4.24222         2.44937
LJ          -4.03608         4.34649       -0.492087
LJ          -1.89433        0.844559       -0.209389
LJ          0.941055        -3.13219        -1.13207
LJ          -2.08641        -3.91956        0.551887
LJ           5.03141         1.23917        -1.12598
LJ          -4.11999        -2.85558        -5.20818
LJ          -5.32523         6.30048         3.81204
LJ           3.64167        -6.14696         1.55003
LJ         -0.468948        -2.16779        -6.12217
LJ          0.839746       -0.519953        -5.97403
LJ          -2.19929         5.72255        -3.68399
LJ           6.22312       -0.100294         4.70343
LJ           1.08229        -2.87868         4.32552
LJ           1.47391         4.41363        -2.24267
LJ           1.25154        -6.45609        -1.98618
LJ          -5.08387        -6.24857        -2.95181
LJ          -1.98044        -1.83125        0.336832
LJ          -2.77051         1.03311        -1.76701
LJ            -5.023         3.33907         1.49653
LJ          -1.96923         0.64854         6.29971
LJ           1.14945         2.38117        -3.17369
LJ           5.20492         3.15341        -1.84824
LJ            1.8388         1.97322         6.26539
LJ           0.69095        -3.09615         2.25933
LJ           1.30473        -5.38824        -2.33624
LJ          -5.49157       -0.432766        -3.89919
LJ           1.46742         4.61796         -6.2437
LJ          0.107956          5.4081        -1.92637
LJ          -3.43235         1.01346        0.252769
LJ          -3.46555         1.28762        -2.62203
LJ          -5.99648         4.63526         1.42302
LJ          -6.30587         5.18626        -4.25034
LJ          -3.50027       -0.360913        -4.32107
