108
#Comment!
LJ          -3.48741         2.98899        -1.80457
LJ           3.78165       -0.493969         1.95442
LJ          -4.11634        -3.19402         3.88031
LJ          0.838085       -0.744679       -0.342646
LJ          -5.32394         1.68027        0.880702
LJ           -1.2649         1.01443        -1.86561
LJ           3.96828        -6.46151        -5.05154
LJ          -5.08216          2.1056         5.53324
LJ          0.913451        -1.41449         4.32961
LJ           2.42317        -2.14224        -6.14711
LJ          -2.31812         2.91169        -3.54663
LJ          -1.29964         2.40189        -2.62043
LJ          -1.27069         3.91464         3.08586
LJ          -6.11421        -4.97639        -4.01854
LJ           3.11612        -3.71382         1.87125
LJ          -3.84672          2.0655          3.6676
LJ          -6.23507        -2.49306        -1.43202
LJ         -0.184333         6.17774        -6.34155
LJ           5.84342        -3.65146         3.67828
LJ          -5.41654         2.45062       -0.369306
LJ           4.68347        -4.67446         6.43725
LJ           3.37514          3.8332        -5.43666
LJ           2.33842        -1.35786        -4.52103
LJ         -0.334401         2.19302        -5.27782
LJ          -6.45928         2.30391         1.26266
LJ          0.291493         3.06664         5.30778
LJ          -5.70614       -0.637732        -5.20166
LJ         -0.773384         -1.8945         4.49974
LJ          -4.36813         2.38055        -1.41619
LJ         0.0178358        -3.50118         -4.1188
LJ          0.843628        -0.17902        -2.64461
LJ           -3.2362       -0.518562          2.5141
LJ         -0.722976         2.33309        0.126254
LJ          -3.78619         3.62389       -0.616751
LJ           5.91269        -5.16834         2.35144
LJ          0.400492        -4.24838        -5.07796
LJ          -1.65328        0.785944         1.76214
LJ          0.358556        -4.33728         2.67086
LJ           1.52051         4.49719       -0.332202
LJ           6.13068        -3.38588        -2.46444
LJ           4.83568         2.26219         -1.2932
LJ          -6.41127        -5.67405         3.20283
LJ           4.36936        -1.70744         2.06291
LJ           5.94146        0.648301         2.96845
LJ          -1.70285         4.54035         4.37384
LJ           5.63132         4.43168         0.22929
LJ           1.21314        -2.77309         3.49804
LJ           2.59406       -0.614305         3.64903
LJ           -3.8249          4.4061        -3.85794
LJ           0.13763         1.14873         4.12708
LJ           4.01169        -4.13414         5.47565
LJ          -1.35078        0.121422         2.82193
LJ          -5.96779        -2.24961        0.116063
LJ           5.44186       -0.545125        -2.33179
LJ          -5.44478        -5.46662        -1.94637
LJ          -5.49587         3.14856        -1.96731
LJ           1.57559        -4.19547        -3.06658
LJ         -0.811806        -3.57864        -4.76617
LJ           -4.5071        -2.39722         2.05585
LJ         -0.593401        -5.48312         -3.9478
LJ          -5.18527         2.18292         3.31246
LJ          -2.55415         2.65039         5.44581
LJ           5.75742         -1.4788        -4.21442
LJ           5.94415        -5.49993       -0.458375
LJ          -3.72026        -3.12088        -5.96214
LJ           1.13045        -1.73272         1.37782
LJ           5.86383         -2.0514       -0.431246
LJ          -3.07579         4.02457         1.57368
LJ          -4.47676         5.55611         3.81516
LJ           1.87255          3.3145         4.66302
LJ          -2.81347         4.11533        -1.50671
LJ          -6.37381         2.27043         5.51352
LJ          -0.60599        -4.21255        0.169316
LJ           -1.3938        -1.73526        -5.57613
LJ          -2.27671         3.52564        -2.37708
LJ          -2.10807       0.0549285        -3.62782
LJ           5.06919         3.77375         5.34711
LJ         -0.939082         3.07281        -4.99978
LJ          0.614856        -1.69153        -2.72943
LJ           6.42266           3.358         1.60768
LJ          -3.33335        -2.64944         3.63689
LJ          -5.62316          2.1075        -4.81104
LJ          -1.46823        -2.90139         2.85276
LJ           3.61015        0.561973         1.90694
LJ          -6.43652         4.26151         4.77871
LJ          -5.22476         1.28181        -5.51065
LJ           5.14111        -4.86252         3.81629
LJ           4.82345        -4.41562         5.03402
LJ           3.02995         5.77649          2.4845
LJ           6.36594         3.97767         3.05049
LJ          -6.17695        -1.13681        -4.29587
LJ          -5.62866        -3.54722        -5.86348
LJ          -5.90199       -0.035824         -2.3721
LJ           1.76282        -3.57892        -4.52953
LJ           5.52067         4.86628         -3.3948
LJ           2.87508        -3.68358          5.1052
LJ           3.60488         2.70013         4.02614
LJ          -3.76826         2.61377        0.430731
LJ           3.09071         5.23633       -0.327634
LJ           4.28436         3.33272        -5.61538
LJ          -3.38328        -6.13137        -6.04547
LJ           5.99447        -6.19741        -4.52405
LJ           -3.7578         4.62042        -6.27771
LJ          -1.04817        -0.20462       -0.761501
LJ          0.086719         2.14066        -2.70213
LJ          -6.35976        -5.03699         4.11171
LJ            1.8013         3.99544         3.75147
LJ          -3.21077         5.10429         1.60724
