108
#Comment!
LJ          -4.27264         4.04619         5.25203
LJ           1.29665        -2.64135         5.30162
LJ          -4.45178         2.09959       -0.624253
LJ           4.91282       0.0847761        0.646404
LJ         -0.504103        -5.45585         5.08091
LJ           5.98658         -3.4545        -4.80784
LJ          -1.66502        -5.60452         4.98509
LJ          0.596267         4.65736         5.78988
LJ          -5.10756         1.13339          5.5864
LJ           4.62564        -1.67318        0.972442
LJ           -5.8023         1.13829       -0.032476
LJ          -2.17738         3.52264        -1.63261
LJ           -3.3401        -4.05295          6.4558
LJ          -5.39164        -6.06333         3.75352
LJ          -2.47206         4.71368         4.58938
LJ           2.01227         4.36443       -0.973099
LJ           6.28335        -3.96379         1.68425
LJ           1.82247         2.30816         1.26526
LJ            2.5234        -1.44109         3.41828
LJ          -2.65967        -3.03069         6.28599
LJ           2.68925        -2.27195       -0.461677
LJ          -4.18803          3.7039         6.39781
LJ          0.424206         -3.7227         5.71877
LJ          -2.65978         2.70553         5.65433
LJ          -4.77088        -3.70295         3.52756
LJ           2.26612       -0.772938         2.46616
LJ          -4.50922         -6.0252         2.11563
LJ          -2.87802        -4.28138        -5.43603
LJ          -6.43778        0.416804        -2.45242
LJ          -2.19466        -3.43904        -1.07487
LJ           1.79071         5.24036         1.22788
LJ          -4.27974         3.30821        -1.51133
LJ           2.78889        -2.65071        -4.85551
LJ           3.09714        -1.61904        -3.10887
LJ           5.13465        -4.66052         1.80195
LJ          -3.03169         2.74894       -0.868874
LJ          -4.51621        -2.99127       -0.350505
LJ          -4.91522         -4.3125        0.260471
LJ          -4.86507          5.8853         5.15724
LJ           1.07199        -3.34805        -2.25706
LJ          0.925427        -6.19323         3.13694
LJ         -0.373345         2.77675         2.39235
LJ           6.12849        -4.81188          3.3009
LJ            3.6489         2.01763         2.26458
LJ           4.92088         2.91065        -3.51805
LJ         -0.794678        -1.53138         -1.3746
LJ           5.10086         -3.6916       -0.727363
LJ          -3.01796        -2.31607         1.91039
LJ          -1.00078       -0.240297        -2.80348
LJ          -4.45331        -5.60243         3.20648
LJ           2.73643         3.11256        -1.34339
LJ           1.59672        -5.59254        0.924497
LJ         -0.299887         1.09134        -6.23372
LJ           -1.1288        -6.41364         2.34078
LJ          -6.06351        -1.91101      -0.0185964
LJ           0.86587          2.1329        0.408702
LJ          -1.81982         3.95258        -5.79642
LJ          -2.45382       -0.292392        -4.43688
LJ           5.62935        -1.87078        -4.81387
LJ           3.42457         6.42651        -3.76148
LJ           1.60308         0.43925         1.97109
LJ          -1.00557         6.01863        -2.57496
LJ           3.15313        -6.25035         6.34847
LJ           3.37733         5.38786         4.78116
LJ           4.67161        -4.10162        -1.71845
LJ          -2.96478         2.89877         2.27607
LJ          -2.62835         2.30896        -3.95303
LJ         -0.470181           2.745        -1.51491
LJ           4.37851          1.0203         1.32755
LJ           5.41024         4.07667        -2.45275
LJ            4.3704         2.99164        -2.13961
LJ          -6.13675        -3.87888        -5.55712
LJ          -1.57734         2.17664       -0.703808
LJ           5.81301         5.19477         5.37942
LJ           4.90775         5.84183        0.161069
LJ          -1.56866        -3.23753        -6.19569
LJ          -4.52184          -5.603        0.995827
LJ           1.26469        -5.40438       -0.752799
LJ         -0.398761        -4.75231        -5.10031
LJ           2.59234         1.40212         1.10677
LJ         -0.737853        -1.38685        0.743237
LJ           4.99599         -5.0765        -6.29265
LJ          -6.09728       -0.730183        -3.84623
LJ          -3.73391         1.44342        -5.93479
LJ           -4.5998         -0.5062        -4.47533
LJ          -5.93341        -3.67626        -2.92653
LJ           4.00464        -2.63249         -1.9728
LJ           2.92126         5.19254        -1.11201
LJ          0.263097         5.48431        -3.21901
LJ         -0.744658         3.89707         5.19222
LJ           3.78759          5.4057         -3.8635
LJ          0.639512         -1.1988         3.66476
LJ           2.56519         6.18047       -0.707335
LJ           5.93917         1.46238         1.83994
LJ          -5.26468       0.0754073         2.89091
LJ         0.0261509        0.719693        -2.40141
LJ           4.33703        0.997421         5.50295
LJ         -0.334411         2.14657        -2.44995
LJ          -1.69192        -2.12577         1.61964
LJ          -2.62062          4.5009        -2.95505
LJ          -1.37326         1.17626        -5.30766
LJ          0.807409        -1.66247          5.7421
LJ          -6.14663        -4.76878        -2.78698
LJ           3.71906           5.908        -2.20452
LJ         -0.964843        0.446097        -4.25231
LJ          0.124881         5.19541        -4.79871
LJ          -1.69418         6.42787        -1.01889
LJ          -1.19347         2.97865        -6.35946
