108
#Comment!
LJ          -1.01311        -1.00795          5.1205
LJ          -3.28629       -0.319276          5.5133
LJ           5.61516         6.46171         6.22375
LJ           4.71014         2.89749         1.63626
LJ          -1.01686        -2.15479        -5.65021
LJ          -3.86282         2.27414        -4.80987
LJ           -4.2546          2.1494       -0.973388
LJ          -3.65028        -6.24729        -1.97829
LJ         -0.353506        -5.75312         2.22046
LJ          -0.80753         3.69412         3.40636
LJ          0.488988         2.86132        -1.42927
LJ          -3.69503        0.785315         2.50211
LJ          -2.85286         5.68663        -2.12088
LJ          -2.83503        0.681546        -5.40887
LJ           5.31274        -2.36517        -1.37416
LJ         -0.092634          2.4001        -3.37887
LJ          -1.32126         1.09661         5.39429
LJ          -6.35273         5.17996        -5.17654
LJ          -6.37888         1.71055         4.57314
LJ          -1.88223       -0.638132        -4.21437
LJ           3.97774         4.31217        0.222946
LJ          -6.15675        -1.07359        -3.11027
LJ          -4.67906          6.4096        -2.90532
LJ           5.82693        -4.65378         2.13113
LJ           5.09736         5.07201        -1.70365
LJ          0.629907        -5.76328         3.71766
LJ           3.59984        -5.69998         1.34941
LJ          -3.23476         5.47629         3.38358
LJ          -1.68408        -5.01329        -5.40133
LJ          -5.78486       -0.561317           4.726
LJ           3.39383         2.69368         1.56567
LJ         -0.994664         1.56178         3.63156
LJ           4.37052         1.43374       -0.451111
LJ           1.30345         3.36346          -4.093
LJ           3.74785         5.03927        -2.91551
LJ          -1.35665        -2.93907         -2.1099
LJ         -0.384668         5.07963        -3.36064
LJ           2.87319        -5.13762        -1.37079
LJ          -4.38639         4.56107        -5.04518
LJ           3.27952         2.83353        -1.09854
LJ           6.33783        -5.15672        0.787563
LJ           3.18265          3.4389         5.02518
LJ           2.63668         3.60513        -6.19825
LJ           3.42773         1.94674         4.90079
LJ          -1.00699        -2.30741         3.37003
LJ           4.45448        0.758547         4.95869
LJ           5.90198         2.29403          5.6902
LJ          -1.52552         1.63225         2.05502
LJ           -4.4029         4.35124        -3.13746
LJ             2.552         6.26702         1.18072
LJ             5.462        -4.95661          5.6387
LJ          -1.21437         5.04232         2.25715
LJ           1.31262       -0.204863        -3.04241
LJ          -2.18628         1.21723        -3.13542
LJ          -5.23167         5.17617        -4.47271
LJ          -6.25587         3.71588         5.44235
LJ          -6.03041         4.85679         1.04856
LJ           1.24615        -4.06696         5.83853
LJ         0.0255103         3.02397         5.84892
LJ         -0.892554         -6.1632        -5.02112
LJ          -6.28227       -0.630454        -6.28013
LJ          0.360086        -4.55506        -1.13723
LJ          -3.48578       -0.830271         -2.0941
LJ            4.8285         1.48021         3.40559
LJ           3.52488         6.31565         2.20751
LJ           3.33417         2.94673         -2.7852
LJ           2.78369         1.39005         6.16849
LJ          -1.70501         1.93661        -1.64764
LJ           1.32114        0.457281        -3.77696
LJ           4.07448         3.00518         4.91141
LJ           1.59795         1.39177         5.58566
LJ           2.55087         3.81804         1.23709
LJ         -0.118884          1.1854        -2.70278
LJ          0.385742         3.92405        -2.51446
LJ          -4.22081        0.919208         1.41925
LJ          0.768551        -5.34489       -0.435236
LJ           3.27082         3.18692         2.44847
LJ           2.54298        -3.46632          4.8327
LJ           5.82212        0.252786        -6.11742
LJ           4.82147         1.04989        -3.25875
LJ         -0.552644        0.692444        -4.74811
LJ          -6.06239         2.17737          5.8768
LJ           2.96151         4.36371         4.27874
LJ          -6.20931        -4.62576       -0.812915
LJ           -3.2111     -0.00874677       -0.495814
LJ          0.839718         -1.5704        -3.62441
LJ           6.35326         -2.4396         4.75978
LJ           2.58847        0.794768         -3.7157
LJ          -5.23435        -3.86823         1.54538
LJ          -3.28156         2.36567        0.821899
LJ           2.63193         6.03097       -0.707007
LJ         -0.949963         6.00841        0.694487
LJ          -3.62028         5.87172        -3.10154
LJ           -2.5368         1.78238         4.40244
LJ           5.44933         1.16833         1.21428
LJ           5.89907         5.16709         1.82573
LJ           6.26589       -0.850437        -1.76253
LJ           2.67593        -5.37755        0.785106
LJ           1.88876       -0.954502         4.85528
LJ          -4.31577          4.2316        -1.79631
LJ           4.15185        -1.80124         -2.0954
LJ           5.31642         -5.7971         2.54662
LJ          -3.56412         -3.1942         1.92449
LJ          -3.35851        -2.10337        -2.41811
LJ          0.908942         5.25686        -5.52329
LJ           5.59304         2.93767         2.80842
LJ          0.343822        -1.29866         6.35804
LJ         -0.995318        -3.76368        -3.78262
