108
#Comment!
LJ          -4.57303         3.27525         4.22911
LJ         -0.703835         3.28665        -4.05998
LJ          -3.71131         5.24114         4.27774
LJ           4.20586        -4.83705       -0.969887
LJ           2.66925       0.0492341          2.2856
LJ         -0.543761        -4.19234         1.50934
LJ           4.05418        -1.54183        -0.25347
LJ           3.96316         2.29533        -4.08624
LJ           -1.9012         2.91933         3.60215
LJ          -5.85427        -2.39258         1.77727
LJ           1.05019        -2.90008        0.857564
LJ          -1.13819         4.63204         4.49459
LJ          -1.04351         5.93196         4.83633
LJ           1.40719         3.89528        -6.07224
LJ          -2.55485        -5.39456         1.91127
LJ          -3.45947          6.0463         -4.3843
LJ          -2.40023      -0.0281931        -1.48609
LJ           5.46859         4.36146          2.0414
LJ          0.545801         2.96577        -4.78026
LJ           5.94088        -1.70237        -2.52723
LJ           4.42611        -3.21489        -1.97185
LJ          -2.70075        -6.02617        -3.19712
LJ          -5.69412         3.74695        0.903062
LJ          -3.76593        -3.02334         1.10392
LJ           5.56929         5.26239        -6.20688
LJ           2.72374         4.00042         2.53194
LJ           2.88312        -5.30306         5.27972
LJ           5.00048         4.31054          4.0815
LJ          -1.88251        0.289968       -0.510225
LJ            1.8055         4.61706        0.476029
LJ          -4.26937         2.47912         5.91354
LJ           6.41901         1.43388        -5.50583
LJ         -0.491632         4.87834         3.26506
LJ          -4.55513        -1.05567        -2.56065
LJ           1.55577         3.79144         4.47344
LJ           3.16289        -5.09748        -1.00753
LJ          -5.02921        -1.13334        0.920323
LJ          -3.19455         4.19223       0.0457654
LJ          -2.24703        -2.98339       -0.278621
LJ          -5.51595        0.557311        0.252404
LJ           3.07859        -3.66298         5.98584
LJ           1.64816         0.46898         4.76316
LJ           6.36377         5.62052        -3.43959
LJ          -2.13231         5.11734         5.00844
LJ           4.66384       -0.253493        -2.19614
LJ           4.17283         1.10345         2.97733
LJ            2.5681        -2.09325         4.41381
LJ           1.41684        -4.07661       -0.355797
LJ           1.18871        0.185805        -2.31619
LJ           5.68892         1.87802         3.32134
LJ           6.30638        -5.56372         5.89886
LJ             3.913        -1.62334        -5.84859
LJ          -4.71771        0.304009       -0.270594
LJ          0.698174         1.17234         1.61285
LJ           2.58795        -3.80797        -1.34594
LJ          -1.79829        -3.55057         3.33461
LJ           2.70454        -2.62396          5.6417
LJ           5.23631       -0.500157        0.997901
LJ           1.53698         6.09995        -6.13188
LJ         -0.298187        -1.27785       -0.774423
LJ          -2.56205        -3.78064        -3.97496
LJ           2.68554         5.33528        -1.16944
LJ          -4.50148         5.53251        -1.06571
LJ          -6.10662        -4.91482         1.32007
LJ           -4.0278        -3.75743        -5.38267
LJ           2.34113        0.949979        0.235521
LJ             1.245        0.990445        -3.29353
LJ           2.20378      -0.0500081        -1.89155
LJ          -3.73702         5.60531        -2.80074
LJ          -3.21599        -6.20378        -2.27003
LJ         -0.769556         2.77982        -2.07015
LJ           5.37407         6.45318        -0.72613
LJ          -4.96588         -5.2254         1.94611
LJ          -5.58625         -1.7279        -2.72524
LJ          -4.39777         4.27533         2.40022
LJ          -5.35397         4.01774        -3.02086
LJ            4.7911        0.809464        -3.94187
LJ          -2.35177        0.733056        -5.61323
LJ         0.0636402        -1.86192         4.92807
LJ           3.79812        -3.92583         2.05594
LJ          -4.32614         2.55022         0.35345
LJ           4.57149        -6.13959         1.41826
LJ           6.14294         5.64514         1.95513
LJ           2.28545         3.01744        -5.49954
LJ          -6.34973        -2.78633         2.55072
LJ           5.07838         1.49226        -1.43298
LJ           -1.4752         2.85362        0.913382
LJ           5.44404         2.28542        0.920383
LJ          -6.30946         1.57142          1.2706
LJ           6.00718         4.95504          5.1409
LJ           4.49625        -5.07421         4.35256
LJ         0.0184168        -4.65369        -4.67278
LJ           4.80027        -3.30044         4.19029
LJ           5.35902         3.45604         1.31735
LJ          0.942664        -5.62495        -1.41925
LJ           3.46061         6.32773       -0.297705
LJ           1.79808         6.09268         -3.6142
LJ          -4.38906         6.36263          5.7846
LJ           1.39496         4.77069         6.07604
LJ           3.29566          2.4913       -0.501683
LJ         -0.453204         2.49205         1.09532
LJ           6.34518         3.31646         2.14139
LJ           4.55891          3.7633        -2.17533
LJ          -2.96774       -0.582826         6.32855
LJ           2.95471         4.27897         6.13269
LJ           6.23376        -2.46723         3.59874
LJ          -5.57018       -0.151499          3.8175
LJ           5.91182        -4.89254        -6.39173
