108
#Comment!
LJ          -2.14049        -4.13558        -4.15654
LJ          -4.47743         5.51043        -4.59589
LJ          -4.47754         4.30891        -4.83975
LJ           6.06628        0.733213      -0.0877121
LJ          0.661987         -2.7896         3.68487
LJ           -4.1339        -0.44997         -2.9412
LJ          -4.85818         5.27368         3.81926
LJ         -0.656976        -1.08116         -4.1841
LJ          -4.65269         4.32964       -0.489483
LJ          -3.10623          1.6707         4.46931
LJ          -3.87309         1.56583        -1.31236
LJ         -0.619692         4.04173         4.99967
LJ           3.87367        -4.92798        -3.60155
LJ          -5.38603         2.94682       -0.357696
LJ           5.15209         -5.3298        -5.33697
LJ           2.13279         3.35515         -1.4017
LJ          -2.54048       -0.619511        -5.38059
LJ          -3.22083         3.31019        -0.57843
LJ           3.18584       -0.375005         3.65029
LJ          -1.15145        -6.23747        -5.00844
LJ          -3.82166        -3.08848         3.19408
LJ         -0.240347        -6.39908         3.48332
LJ         -0.644869         5.97048         6.16689
LJ           1.10084         2.25121        -1.55906
LJ          -5.46406         6.33091         1.75349
LJ             3.223        -4.39046         1.83239
LJ          -3.57848         5.28933          -1.196
LJ           5.38929         2.64131          5.9373
LJ           3.69649        -2.48532        0.666547
LJ          -5.40442         4.92971         0.91041
LJ          -4.59814        -1.70734        -4.74294
LJ           -1.8589        0.734595        -2.58795
LJ          -0.91644        0.495944         4.97565
LJ           2.47907        -3.68014          2.9501
LJ          -5.07311         3.77768        0.799352
LJ          -2.17036        0.919354         5.22278
LJ          -6.08683        0.535947         4.28719
LJ           5.07598        0.289148        0.118357
LJ          -4.32204        -5.16391        -5.09567
LJ           3.93439      -0.0359294        -2.84734
LJ          -2.70674         -5.5989         3.30819
LJ          -6.09895        -3.30065          3.4081
LJ           1.99921         4.45738        -2.30947
LJ          0.771708         6.34441         3.02956
LJ            1.0008        -5.42618        -5.52543
LJ          0.969648        -1.69001         2.34063
LJ           4.91123        -3.18828         3.52879
LJ           5.08123        -6.31114         1.50653
LJ           -1.7693        -4.26478        0.275555
LJ          -5.61553        0.224554        -5.45636
LJ           4.28014        -2.71824         1.78602
LJ           0.42852         2.69968         2.56933
LJ           2.11162           3.182         2.52326
LJ         -0.913703         -3.5956        0.587285
LJ          -2.21733         4.06977        -2.71164
LJ           3.50153        -3.10226        -2.02025
LJ          -5.29122         5.95912         4.43601
LJ         -0.851953         5.19688         5.19045
LJ          -2.92661        -2.31814           5.352
LJ         -0.960238        -5.61707        -6.09365
LJ           4.15661       -0.313399         4.46611
LJ          -3.08026       0.0441392        -4.38413
LJ          -1.24587        -2.61801        0.831108
LJ          0.554104         6.11098         4.30247
LJ           4.45735         6.44994        -5.20824
LJ            2.5611         1.48809        -2.93857
LJ           -1.5823       0.0607207        -6.23799
LJ          -5.46501        -2.28581        -2.12622
LJ           1.43944         5.36538        -6.29604
LJ          -5.60046         3.19963        -2.61661
LJ          -3.72451          1.7184         -4.2224
LJ          0.681964       -0.764296        -2.61302
LJ          -2.98615        0.811619         -3.5626
LJ           2.16896        -5.80846         1.45525
LJ          -2.02281        -5.60571        0.340072
LJ          -1.55879       -0.859928         2.95786
LJ          -5.09208         1.16913         2.86242
LJ           1.67905         1.98204        -3.63057
LJ           2.62602         2.89375         4.84467
LJ           2.56784        -1.86612       -0.487612
LJ           5.39818        0.534708         5.26308
LJ           4.25391        -4.92712        -4.98868
LJ          -4.12308        -6.32211          4.1962
LJ          -6.04313          4.8928        -5.53815
LJ            1.9551         4.46371         -4.1381
LJ          -6.24178         4.55363        -4.02694
LJ          -1.38169        0.533055         3.91828
LJ          -3.15632         1.68758         1.27949
LJ          -2.73459        -5.79221        -4.60359
LJ          0.711862         2.59406         3.76262
LJ        -0.0353126         5.58054        -2.36228
LJ          0.385317        -4.20436          1.9316
LJ          -3.26024         1.53723         3.43853
LJ           2.43442        -1.24744         4.56771
LJ           5.84726         1.06919        0.888583
LJ         -0.318075        -3.92692        -5.26075
LJ           5.74468        -1.92502         4.84818
LJ         0.0927845         -1.6702         6.29985
LJ          -1.42528         5.38262         3.58364
LJ          -2.41291         2.84533         5.84662
LJ           1.88173       -0.158837        -3.50808
LJ           2.07252        -3.84531        -1.30719
LJ          -1.52502        -2.35142        -1.95699
LJ          -1.69063         -3.6711        -1.69138
LJ          -1.84142          3.0812         4.09605
LJ          -6.32748        -3.44146         5.57606
LJ           5.23564         2.78555         3.30557
LJ         -0.864791        0.379118        -4.57408
