108
#Comment!
LJ           1.78548         5.06251         2.28015
LJ           1.23049         1.28568         2.89234
LJ          -6.16069      -0.0408739        -3.23884
LJ           3.64285        -2.35808         2.92977
LJ          -2.32596         5.99363        0.409833
LJ           6.27312        -3.45829         4.90531
LJ          -5.36455         1.05077        -4.18642
LJ           4.58771        -4.10531        -4.63088
LJ           4.78551         6.37064         1.62714
LJ            3.3687       -0.831316         4.53007
LJ          -2.55341         2.58271        -0.16814
LJ          -1.56592        -2.19665         4.17222
LJ          0.953009        -2.34236        -1.08039
LJ        -0.0795499        -2.20428        -4.55485
LJ          -0.50183        -2.01227         4.74359
LJ          -4.72587        -2.56995         6.45625
LJ          -1.84632        -5.19191          3.6024
LJ           5.87777         2.30619         1.70939
LJ           3.22826        -5.10436        -5.85769
LJ         -0.427938         1.40771       -0.971084
LJ          -1.99525        -4.15049        -4.29807
LJ           1.57711         1.50814        -2.11042
LJ          -5.94573        -4.32954         3.89972
LJ           6.45737         2.07264        -2.95135
LJ           4.71024          1.7045         2.01088
LJ         -0.500168         2.38412        -1.49538
LJ          -4.99558        -1.45134        -5.48288
LJ          -5.20976         3.61726        -4.79658
LJ          -4.12983        -3.99314         6.24928
LJ           -2.0549         3.08525        -1.21849
LJ          -1.68078         1.05917        -3.89864
LJ          -2.52224        -5.75463        -5.48161
LJ           2.27164        -1.30121        0.201756
LJ           5.08475       -0.205189        -2.39499
LJ           4.37696         2.24115        -5.77288
LJ           4.89569         1.33395        0.936667
LJ          -6.29872        -1.42724         3.88178
LJ           3.47677        -1.37638        -3.14789
LJ          -1.96838        -1.56588       -0.532405
LJ           4.17254         5.74083        -3.14966
LJ           4.30042        -5.15107        -5.63241
LJ          -4.10654         1.48984         1.49747
LJ            -1.996       -0.321593        -1.63681
LJ          -2.84643        0.690742         1.09708
LJ         -0.222412        -2.14054       -0.830973
LJ           6.23946       0.0229503         -5.4788
LJ           3.71157         4.77567         4.33455
LJ          -5.60369         3.02016        -2.81587
LJ           1.41211         5.30671        -5.16012
LJ           2.79702         4.19945         5.77728
LJ           3.92911        -2.34521        -5.97636
LJ           5.35432        -3.34317         2.14927
LJ           1.82081         5.43585        -3.58508
LJ           5.92941         5.70074        -5.54638
LJ          -6.40716         3.94429        -5.58494
LJ            5.2097        -2.68224        -1.88759
LJ           5.87963        -5.79352        0.780873
LJ           3.85025         1.09439           5.464
LJ           -3.0363         3.66241        -5.49828
LJ           2.91872         4.34126         2.85263
LJ          -1.10948        0.703621        -2.93541
LJ          -2.56819         1.87793          -3.047
LJ          -5.12698        -6.33898       -0.460203
LJ           3.02578        -3.21345         4.74101
LJ          -2.17753         1.11186       -0.436725
LJ           2.63187         1.31753         2.19835
LJ           5.54744        -6.12174        -5.36213
LJ           5.35377        -3.90501        -1.28364
LJ          0.666246       -0.210826         5.78379
LJ          -1.67024         3.02609        -3.42323
LJ           3.08976         3.48927        -4.20617
LJ           1.94089        -4.94315       -0.240704
LJ           4.84764        -4.49928        -3.61988
LJ          -4.21055        -4.04222        -3.25848
LJ          -2.43815        -3.33324         1.84275
LJ         -0.656758        0.357674        0.558709
LJ          -1.58154        -6.32143       -0.566914
LJ           6.00729         6.30883      -0.0254462
LJ          -3.42061        -2.49844        -4.26397
LJ          -5.45587         3.52738        -3.79312
LJ          -3.65953        -4.07482       -0.245011
LJ          -5.44787        -3.79428        -4.58724
LJ          0.344336         1.74545        -6.22822
LJ         0.0165954        0.376841        -3.08666
LJ           5.27076         4.64533         4.32644
LJ          -1.58024         4.47077        -3.95348
LJ           5.14321        -3.99237         1.29967
LJ           1.96759         1.00707        -3.35657
LJ           3.45764      -0.0199025        -1.19968
LJ          -5.36219        -3.40253         3.53758
LJ          -4.06471        0.223887        -4.16131
LJ          -4.29768         -1.0719        -3.41102
LJ          -6.46324         3.87273        -3.35118
LJ           -5.2563         -1.9146         5.92454
LJ          -2.68653        -4.09172        -2.15227
LJ           4.49523        -3.13601         5.12513
LJ           2.18717         5.71983         3.34942
LJ          -2.46572         3.17108         5.53129
LJ          -4.25282         2.20879        0.406589
LJ           1.45099        -3.81429         1.18331
LJ          -3.42102        -5.71816        -2.48663
LJ         -0.793342         4.10445        -4.31735
LJ           3.73578        -5.34833         1.40474
LJ         -0.692186       -0.664276         4.72214
LJ          -4.94746        0.711901        -1.14669
LJ           1.23079          4.2656         4.18016
LJ           5.14938        -2.28805         4.70331
LJ           5.06322         2.84518         -5.1842
