108
#Comment!
LJ           1.94778        -5.44094         5.33715
LJ            -5.881         2.10705        -6.16103
LJ          -1.77664         2.23598         5.72398
LJ           4.28956        -5.08601         3.13454
LJ          0.743559         1.06758        0.657576
LJ           2.73393        -4.05139         4.97968
LJ          -1.75477        -2.30335         4.83295
LJ          -3.58989        -3.71904        0.494238
LJ           4.86719        -3.70335        -6.40471
LJ         -0.322007         6.42418         1.04617
LJ          -5.23072         5.19589        -3.27036
LJ          -2.04137       -0.396619         2.06181
LJ          -5.28086         5.99194        -5.89003
LJ          -4.72578        0.965447         4.37642
LJ           2.31832        -4.66473        -2.47623
LJ          -1.23465        -1.16639        -4.88549
LJ          -2.83335        -1.58327        -5.57107
LJ           5.87165        -5.75453         6.45491
LJ           -6.2354         -6.3764        -5.16241
LJ          -2.37534        -2.19717         3.91861
LJ          -3.43203       -0.231327        -3.10825
LJ          -3.07398        -2.83205        0.581251
LJ          -1.63061         2.50997        0.689901
LJ          -2.56554        -2.65608         5.51578
LJ          -5.94353        -2.00817         6.43909
LJ          -2.57643        -5.29272         2.58822
LJ         0.0980752        -3.17831        -5.82229
LJ         -0.318124         2.52063        -4.58427
LJ          -2.93306         1.49316         1.79557
LJ           1.04534        -2.02244         3.78134
LJ           4.63381        -3.89884         2.95695
LJ          -2.69426         2.16322         2.83022
LJ           2.51371        -2.74968        -3.22514
LJ            5.2251         3.54185       -0.605987
LJ           3.01946        -5.24157        -3.05508
LJ          0.603271         2.01891        0.456704
LJ          -1.79625         3.83731         4.71719
LJ          -3.16064        0.872133        -5.94386
LJ          -6.30135          5.1104          1.8188
LJ          0.749437         5.66357        -1.23613
LJ           5.79386        -5.01535        -3.42457
LJ          -1.38566         6.22501         2.02899
LJ          0.670587          4.5793         4.83922
LJ          -4.82446        -5.46364         2.21037
LJ         -0.523925       -0.949345         2.34726
LJ          -4.76657         3.38278       0.0492375
LJ          -1.72593        -2.19449       -0.713144
LJ           4.80347       -0.539269         2.85632
LJ          -0.47553        -3.74338        -3.24194
LJ           -4.5915       -0.267065         2.51028
LJ          -4.15092        -1.40471        0.902059
LJ           -5.6628         2.71621         1.88283
LJ           6.22381        -3.90508          2.7609
LJ          -2.26741         6.22283        0.425507
LJ          -3.91265         5.31341         4.32734
LJ           3.83383        -4.65729         5.42845
LJ           1.16844        -3.17118         1.06263
LJ           3.81498         3.63583         -3.5551
LJ           0.59216          0.5574         2.93092
LJ         -0.633874         2.85228         5.75369
LJ          -6.19779        -4.19984       -0.602863
LJ           6.34564        -3.55143         1.62757
LJ          -2.49694        -1.04257       -0.987154
LJ          -4.86457        -2.71683         4.89922
LJ         -0.773653        -3.02673          6.3136
LJ          0.186779         2.04893         4.54738
LJ          -1.64468         4.72294         3.34231
LJ           2.22903        -6.13301         4.05384
LJ          -6.32559         2.15199        -2.80347
LJ           2.52643         2.68837         5.96253
LJ           -5.5058         1.16159        -4.78663
LJ           5.47666        -6.11972        -2.26187
LJ           1.72052         3.22174        -2.44501
LJ          -1.63846        -6.22351         3.22409
LJ          -6.05867         4.29141         2.59423
LJ         0.0491764         2.03297         5.76924
LJ            2.3504        0.974757         4.96664
LJ           2.57381         2.94124        0.666186
LJ          -5.52983       -0.413695          3.1152
LJ          -1.70506        -4.54473         -3.8189
LJ           4.87132        -4.85199       -0.529629
LJ          -3.40545       -0.191654         1.92186
LJ          -5.75474        0.933705        -2.33476
LJ           5.64551         0.52107        -4.96317
LJ           5.89572        -5.44807         2.45222
LJ          -3.25629         1.94592        -3.15178
LJ           6.05527         5.61404         2.83894
LJ          -6.31015        -2.27042         -4.9649
LJ          -1.67076        -1.78433        0.285626
LJ           3.76169        -5.24176         0.92295
LJ          0.352621         3.86989        -3.19607
LJ          -3.25517         -2.9451        -6.01558
LJ           6.00024        -5.75967          5.0346
LJ          -5.67102       -0.529141       -0.770612
LJ         -0.435409         2.78653         1.76595
LJ          -1.86904        0.147267        -4.05116
LJ           3.45405        0.710821        -1.73157
LJ           1.77764         4.46186         3.87426
LJ          0.288843        -4.84333         5.54128
LJ           5.74895         3.41746        -6.15147
LJ         -0.385418        -1.99402         1.36751
LJ           3.09507          -1.014        -1.03177
LJ           3.57903        -2.36325         5.13005
LJ          -2.28456        -1.22588        -2.51895
LJ           4.94979        -5.22255         -5.4546
LJ           4.91268        -4.50306         3.78042
LJ           4.45439         2.68186        -4.03329
LJ          -2.97455          1.7884          6.0726
