108
#Comment!
LJ          -3.63855         -5.7924         4.97132
LJ         -0.247266        -4.04384        -6.39591
LJ          -4.53216         2.66812        -1.73613
LJ           5.22325        0.319134         0.67441
LJ           0.44943        -4.90389         5.60173
LJ           -6.3681        -3.12764        -3.27554
LJ          -1.66811        -6.05927         4.43369
LJ             0.312        -6.36907          4.6937
LJ           6.12033         1.82777        -4.62685
LJ          -6.09005        0.433977         3.22317
LJ          -5.73393          1.5894        0.260591
LJ          -1.95576         2.55895        -3.23843
LJ          -4.99444        -4.60216        -5.72548
LJ          -6.10428         6.42569         2.46613
LJ        -0.0762741         4.61924         5.74257
LJ           2.42786         3.90153        -1.17031
LJ          -5.97129        -2.89836       -0.637015
LJ          0.356143         2.86534        0.852854
LJ           2.07651        -1.40449         3.63618
LJ          -2.68541        -3.86495        -6.20743
LJ           4.46721        -2.91263         1.48954
LJ          -3.14022          4.6071        -3.68218
LJ         -0.439263        -4.54162         4.81061
LJ          -3.19163         3.77587        -5.84775
LJ          -5.19507        -4.47889           2.966
LJ           2.92943        -2.61481        0.837194
LJ          -5.20106         5.63318        0.171942
LJ          -4.05156        -1.80516        -5.73809
LJ           6.37202        -1.88939        -2.55073
LJ          -2.99373        -4.81735       -0.827787
LJ           3.85027        -5.68927         2.57457
LJ          -2.97804         3.20698        -2.34189
LJ           5.18462         -1.7799        -5.65565
LJ            2.9017        -1.07634        -2.81054
LJ           6.25899         6.00259         1.42907
LJ          -2.63684          2.5736         1.14342
LJ          -5.43489        -2.42955        -2.64655
LJ          -5.46844         -3.3168        0.364833
LJ          -4.04225         5.27603         -6.1211
LJ           3.11519        -2.61065        -3.02947
LJ          -0.29618        -6.13156         3.93529
LJ          -1.88428         1.03251         2.65901
LJ           5.84311        -6.01472         2.14689
LJ           2.90325        -1.03462         2.80079
LJ           3.28641        -0.21577        -3.46737
LJ         0.0716992        -1.22693       -0.871346
LJ           4.52989        -3.54308       0.0155793
LJ          -3.80363        -3.50165         1.75503
LJ          -1.17324       -0.469139         -2.3325
LJ          -4.68191        -3.97514         4.47101
LJ           3.70639         2.29616       -0.924316
LJ            1.1017         5.27008         1.94616
LJ          0.722704         2.16692         5.14673
LJ         -0.720048        -5.83599         2.48287
LJ          -4.48841      -0.0173067       -0.827363
LJ           1.39016         1.86045        0.206211
LJ          -2.60932         5.26663         6.21201
LJ          -1.92649          1.7367        -5.66659
LJ           6.45321        -2.84015        -5.62373
LJ           2.16847        -6.05808        -4.12482
LJ           2.11385       -0.411653         2.42155
LJ          -1.74992        -5.19059        -2.91271
LJ           1.82472        -4.98278         4.85858
LJ           1.83646         6.19545         1.98842
LJ           3.73175        -3.57653       -0.849898
LJ          -4.96746         1.69826         3.87986
LJ          -2.42099         1.39367        -4.34413
LJ           1.37595         2.62762        -2.24486
LJ           3.78908         2.40459         2.89878
LJ           6.25757         6.20453         -2.6904
LJ            5.7343         2.74259        -2.68554
LJ          -4.03382        -3.02035        -4.22098
LJ          -1.87003         1.61287        -2.13772
LJ           4.53065         5.06943         4.31206
LJ          -6.11867         6.27121       0.0804094
LJ           -1.7654        -2.25812          5.7173
LJ          -5.09063        -3.44533          1.5415
LJ          0.942697         5.77118        -1.08483
LJ          0.258919           -5.94        -6.41723
LJ            3.2797        0.530034         2.13663
LJ           0.67063       -0.532508         2.56499
LJ           4.25514        -4.05129        -5.15945
LJ          -5.05884        -2.17955        -5.50196
LJ          -4.09873         2.76706        -5.99483
LJ          -6.26706        0.767523         -4.4906
LJ           5.18429        -2.26368        -3.20591
LJ           2.64569        -1.27122       0.0552555
LJ           5.66622         2.70753        0.534049
LJ         -0.494085         5.91332        -3.45145
LJ         -0.711369          3.1077         4.37811
LJ            2.3616         5.04761        -3.62109
LJ           1.38237        -1.22221         2.88388
LJ           1.37769         3.16296        0.415423
LJ           5.12524        0.280226         1.87399
LJ          -5.75958        0.181193         2.00298
LJ           1.07699        -1.17639        -2.31633
LJ           4.09635        0.397278         3.92061
LJ         -0.990303        0.884217        -3.05244
LJ          -1.67273      -0.0914591         1.77175
LJ          -1.11255         3.40819        -3.13145
LJ          0.024293         1.16792        -4.93959
LJ           0.88647        -2.23966        -5.48974
LJ           4.36391        -4.83595         -2.5444
LJ           1.92732        -5.88009        -2.30456
LJ          -1.34213        0.378886        -5.16045
LJ          -1.66951         6.30706        -5.67718
LJ          0.478518         5.57765       -0.127193
LJ         -0.730996         3.04364         5.79611
