108
#Comment!
LJ           -2.3765       -0.401108       -0.532254
LJ          -1.86374         2.31886        -3.11833
LJ           5.50024        -5.21758         4.59444
LJ           6.19809        0.478019        0.559142
LJ          -4.38161         4.93815        -1.03822
LJ          -4.27784        -5.70089       -0.496337
LJ           2.20964        -2.51498      -0.0247647
LJ          -5.91666      -0.0646812        0.210299
LJ          0.701906         5.55193         4.48431
LJ           1.56974         5.60889       -0.335904
LJ          -4.37579        0.212216        -1.45202
LJ           5.77665         5.83088         5.11358
LJ          -1.98703         3.43316        0.440992
LJ          -3.12643        0.757993        -4.22287
LJ          -2.80858        -1.75174        -4.72095
LJ           -2.4355        -2.85932        -6.12719
LJ          -2.55862      -0.0418796         4.41075
LJ          -2.56583         4.26355       -0.221038
LJ          -3.59144       -0.251567          5.0108
LJ           -6.3263        0.292656         1.65227
LJ           4.28366        -3.88158         2.47863
LJ          -1.33722         -3.9968        -4.08607
LJ          -1.28287         4.26138         1.04027
LJ          -5.36441        -3.28939        -4.93969
LJ          -5.79658         1.35628         1.74211
LJ          0.609546        -4.95995         2.74551
LJ          -2.25371        0.647602        -6.02754
LJ          -4.72788         6.43884         4.13017
LJ          -5.47194        0.629113         2.61684
LJ          0.655215         4.08216        -2.42048
LJ          -1.88777        -2.06448         6.34768
LJ          -4.21859         1.88818         3.48734
LJ          -5.71709        -2.95181       0.0154603
LJ          -4.79807         1.19895         5.77885
LJ          -3.43031        -5.10443        -3.23361
LJ           -4.3698         2.73998         1.56149
LJ          0.199083        -2.48147        0.286492
LJ          -1.76982         2.28583         4.27849
LJ          -3.18832         3.31723       -0.111275
LJ           1.57023         6.21632        -6.35146
LJ           2.94603         4.69562         5.47479
LJ          -1.36244        -1.00672         2.51816
LJ           3.03221        -3.67461        -5.14046
LJ           5.41625        -6.22386        -1.69691
LJ          -3.35121         4.20186         -1.4796
LJ         -0.207941         5.24008        -3.06068
LJ           2.88747        -1.50249        -2.57672
LJ           2.74283         4.48558        -6.25946
LJ           5.06374         3.26796        -1.25329
LJ          -1.20418        -4.66518        -3.05829
LJ           4.73949        -2.44916        -4.57365
LJ           3.31245         4.70798        -2.08949
LJ          -3.55457        -1.81008        -4.10561
LJ           1.35222      -0.0377174        -4.15535
LJ         -0.579482        -6.42507         4.65222
LJ          0.315767         3.48257         3.70222
LJ           1.18147        -1.25751        -1.39585
LJ           1.63817        -3.62712        -1.26789
LJ           1.36174         4.41845         4.41953
LJ            2.5812        -3.13775        -1.10002
LJ           4.19174         2.94832        -6.12932
LJ        0.00855134       -0.645083        -5.31591
LJ           1.25736         1.50903         3.41954
LJ           5.33517         4.66389         1.44267
LJ           0.30996        -1.48445        -6.23299
LJ          -6.12303        -5.01017         1.95896
LJ           4.72685       -0.309154        -4.37812
LJ          0.584727        -3.22547         1.79185
LJ           1.91864          4.2435        -3.49691
LJ            4.2612        -5.42819         2.64609
LJ          0.248497         -3.7926         5.80606
LJ           5.80483        -0.50347        0.363143
LJ          -3.56667        -3.70111         3.90804
LJ          -4.29367        -4.30054        -3.96598
LJ           -2.7941       -0.186751        -1.52105
LJ           1.59575        -3.44621        -5.20676
LJ          -5.78715        -5.26274         3.11093
LJ          -2.35083        0.708715        0.462438
LJ           4.57605        -5.84726         4.62715
LJ            -2.406         3.61326         2.79874
LJ          -3.46561         1.70507        0.663153
LJ         -0.879646         3.03598        -6.34353
LJ          -5.44109        -6.17305         4.87609
LJ          -1.58274         1.11613        -3.21526
LJ          -6.33389        -3.17905          5.7949
LJ           6.10553         5.72392         6.26094
LJ          -3.25676         6.04779         3.21193
LJ           -3.0223         2.38071        -1.18325
LJ           5.89416         6.21735          1.9602
LJ           6.06461         3.71089         1.74828
LJ          -5.89176       -0.238579         2.73201
LJ           3.80791         2.21919         3.49617
LJ          -2.07131        -5.95726         3.99694
LJ          -5.45283        -1.61498        -4.30208
LJ           3.34641         3.27545        0.681689
LJ          -5.32093        -4.48958        -3.41166
LJ          -6.24104        -1.87032       -0.278394
LJ            2.2974         5.24216        -2.21466
LJ           2.24577        -2.82441         4.08306
LJ           5.97161        -2.52506        -4.16072
LJ           -4.2791         5.84252        -3.04607
LJ          -4.59851       -0.585017         3.57694
LJ          -5.97341         3.34627         5.41459
LJ          -4.28623        -2.01394        -4.83779
LJ          -4.02793         1.87825        -3.77938
LJ          -6.31232        -4.51754         5.51985
LJ         -0.712499         -5.2717          2.7182
LJ           4.98004        -4.92209         5.79626
