108
#Comment!
LJ          -3.50772        -4.44491          2.4734
LJ          -2.05337         3.70438         -5.3087
LJ          -5.64792        -5.09354         3.63949
LJ             6.216        -2.82107        0.529438
LJ           4.68816        -3.60438        0.137749
LJ           4.68936        -4.09909       -0.872538
LJ           2.04475        0.204985        0.374045
LJ          -5.71485        -5.98695        -3.75592
LJ          -1.46129         3.49552         4.23157
LJ           2.83711         1.55455         1.31556
LJ          -1.85493        -1.69987       -0.134285
LJ          -2.83952         1.63904         5.38472
LJ          -1.04662         4.35676         3.22594
LJ           5.23283         3.64798        -5.12026
LJ         -0.931753        -4.17675         4.62313
LJ          -1.71814        -6.09857        -6.23009
LJ            -3.028        0.225515         1.41324
LJ          -4.18322         4.04044         1.52102
LJ         -0.875943         1.38949          -6.117
LJ           4.88075        -1.01855       -0.272422
LJ           5.71637        -3.12947         1.47003
LJ           -2.9459        -4.81581        -3.74076
LJ          -2.88428         1.23095         1.57942
LJ          -5.25207        -4.03707         4.05465
LJ           5.47577         4.64238         3.53506
LJ           1.91368         3.48965         1.30012
LJ          -1.54754         3.22468         6.10268
LJ           -5.7569         3.45736         1.47021
LJ           -3.1466         1.02319        0.549416
LJ           -4.3499         4.29015        -1.36594
LJ           -4.1167       -0.751693         5.18164
LJ           -5.0511         1.95139         5.76133
LJ           1.99202        -5.30816         2.08044
LJ          -4.21451      -0.0276768         1.34363
LJ         -0.952709         3.96101        0.428912
LJ          -5.81819         -5.5574       -0.981332
LJ           -3.0356        -2.61508       -0.190349
LJ          -2.53026         3.44113         1.90648
LJ          -3.21823         4.86798         0.67731
LJ           4.53373         3.00754         2.37525
LJ           2.85473         5.76451         -3.5346
LJ           2.04682         1.12495         2.24955
LJ           5.31352        -6.26812        -4.67384
LJ          -5.24048         0.23334        -4.79382
LJ        -0.0885772         2.74369        -2.00437
LJ           1.33434        -2.74486         5.20754
LJ           2.56378        -2.00828         1.40407
LJ           2.15622        -5.63403        -3.70918
LJ           2.07268         4.18713        -2.44891
LJ          -3.04343         3.50419        0.538107
LJ          -5.48679          2.0606        -4.27743
LJ           3.49247        0.338491         -4.4901
LJ           5.18888        -2.44993        -5.21058
LJ          0.837165        0.772589         4.23767
LJ           1.42233        -5.69417        -2.89711
LJ          -6.36707        0.265727         1.88143
LJ            2.8969        -1.39456         2.51497
LJ           4.59694        -1.73723         5.38343
LJ           3.32387          4.7664         5.72126
LJ           2.23801        -2.46314       -0.509437
LJ          0.587364       -0.127853        -5.14238
LJ          0.153778         3.33441         5.55691
LJ           3.95718         5.19286         1.52011
LJ           5.98581         5.24671         2.89191
LJ           5.19993        -3.60017        -3.95401
LJ           3.34296         3.57758         2.60738
LJ           3.02083         5.91562        -4.83531
LJ           1.86241         5.28828       -0.748406
LJ           5.30948         5.44866         -3.9863
LJ          -5.61169         6.26339       -0.484758
LJ         -0.242724        0.707504         1.86714
LJ           4.78936        -4.43317        -2.16422
LJ          -5.74999        -4.18383          2.8882
LJ          -4.38791        -5.12938          -1.279
LJ          -3.67727        -4.65272         1.00104
LJ           -1.7008         5.08284        -6.07266
LJ           2.18121          1.9675        0.502095
LJ          -4.04557         2.27473         -3.8335
LJ          -4.95295        -4.63473         5.15545
LJ           6.19362        -6.16336         1.89523
LJ          -5.00227         2.50017        0.343828
LJ           2.46501         5.47596         3.83688
LJ          -6.23438         4.16883         2.38708
LJ           5.96887          2.9993        -5.81287
LJ          -6.34437         -3.1589         2.60254
LJ           5.95788        -2.85992        -2.05603
LJ         -0.155705         4.68742        0.612406
LJ           -4.7301         3.01503         1.62546
LJ           6.06391         3.57315         1.80524
LJ           4.67473         5.80973          2.3757
LJ           5.46837        -5.08002         3.04189
LJ         -0.427024         5.47999         6.17801
LJ           3.32819        -2.55244        -6.01858
LJ           6.10453         2.34992       -0.721078
LJ          -6.04301        -1.27267        -2.64248
LJ           5.17205        -6.19305         1.86243
LJ          -1.95914        -4.23202         5.40498
LJ          -5.58262         6.32752        -5.87426
LJ           1.01865         2.01686         6.41432
LJ           5.12042          1.4592       -0.654231
LJ           3.45211         4.17443       -0.447919
LJ          0.951204          1.6136         3.67681
LJ          -6.18433        -3.84951        -4.77855
LJ          -2.89854        -2.36668          6.0724
LJ           5.45937         2.41306        -4.40047
LJ          -5.60344        -5.67523        -6.45391
LJ           3.00304         -1.7229         4.21475
LJ           5.01912        -3.54977        -5.31101
