108
#Comment!
LJ           1.97373         3.88669         2.12101
LJ           1.61977         1.17322         2.22506
LJ          -5.13236        -0.75904        -3.74571
LJ           4.34062        -2.69281          1.6736
LJ          -2.11232         6.35495        0.639518
LJ          -6.07354        -3.73821         5.77383
LJ           -5.8448         1.32164        -4.37768
LJ           4.92051        -4.13784        -3.86471
LJ           5.18881         5.67276         3.84078
LJ           3.75828        -2.67734         3.55728
LJ          -1.48664         2.46255         0.34814
LJ          -3.06682        -2.70666         4.82518
LJ          0.882705       -0.762362       -0.790623
LJ           1.91151        -2.18232        -5.52696
LJ         -0.964839        -1.80049         6.11843
LJ          -3.86589        -3.60205         6.08383
LJ          -2.44359        -4.80522         1.82618
LJ          -6.06003         2.61948         1.95554
LJ           3.74232        -3.84643         -4.9892
LJ         -0.829978        0.949743        -1.92643
LJ          -2.77983        -4.07853        -4.72751
LJ           2.28073         2.64567        -2.32494
LJ           -6.2296        -4.66358         4.38887
LJ          -5.14643         2.43349        -3.42031
LJ           4.13582         2.86827         3.48542
LJ         -0.811575         3.00094       -0.303686
LJ          -5.54639        -2.44403         5.27656
LJ           -4.6389         3.20537        -4.50208
LJ          -4.19551        -4.59473         6.28243
LJ          -1.36354         3.81274        0.387778
LJ           -2.2567         1.29057        -4.07991
LJ          -3.50232         -5.7295        -6.09755
LJ           1.33171        -2.26946         1.81782
LJ           4.24605       -0.148111        -2.05092
LJ           4.70737         1.84993         -4.6434
LJ           5.02393         1.98463         1.67946
LJ           5.54228       -0.291869         2.62522
LJ           3.37768       -0.469196        -2.55516
LJ          -1.91631       -0.949335        0.642116
LJ           5.78107         4.54158        -2.69528
LJ           4.82299        -3.94837        -6.33835
LJ          -5.17202         1.50373         1.08806
LJ          -2.14284       -0.135229        -2.40508
LJ          -1.80292         2.82321         1.58618
LJ           0.18065        -1.68018        0.109158
LJ          -6.17852        0.453344        -5.38311
LJ           4.10649         6.03986         4.84056
LJ          -5.34255         2.88074        -1.96604
LJ           3.48933         4.24956        -5.26574
LJ          0.961919         2.68116         4.70045
LJ           3.40355        -2.09464        -5.62062
LJ            3.8308        -4.62187          2.0451
LJ           2.43895          4.6286        -3.96343
LJ           5.91115         5.44393        -5.68272
LJ           6.20425         3.26083        -5.24209
LJ           3.65062        -3.02631        -1.43948
LJ           4.40442        -5.38993       0.0453692
LJ           4.20055        0.856427         4.57418
LJ          -1.66459         2.61288        -5.58299
LJ           3.26403         4.24737         2.21264
LJ         -0.329592      -0.0844369        -2.20364
LJ          -2.76076         2.10924         -2.5986
LJ          -4.73759         5.56063        -1.14949
LJ             3.428        -2.99074         5.31974
LJ          -1.02478         1.89661       -0.797254
LJ           2.01838       -0.107452         2.99084
LJ           4.12978         6.38498        -6.46147
LJ           4.55254        -3.18323        -2.06649
LJ         -0.362915        -1.73994         4.92169
LJ          -1.81134         3.65431        -3.52156
LJ           2.51623         3.49796        -4.58831
LJ           1.33355         -5.8484       -0.258805
LJ           5.40295         -4.5817        -2.83721
LJ          -4.57376         -3.7773        -2.86249
LJ          -2.80768        -1.99084         1.63271
LJ          -2.37686        0.610064       -0.105678
LJ          -1.37347         -5.1734        0.112592
LJ           5.74085        -5.86867        0.166944
LJ          -4.11639        -2.66493        -4.84843
LJ          -5.94661         3.22087        -3.68472
LJ          -3.90015        -3.80279        0.796289
LJ          -4.68837        -3.48774         -5.0707
LJ          0.638236         1.05625         5.97145
LJ          0.078698        0.100248        -4.26549
LJ           4.59703         4.02639         5.06875
LJ          -2.56939        -6.27174        -3.27947
LJ           5.06861        -4.60087        0.931129
LJ           1.59877         0.27827        -4.83265
LJ           3.32463        -1.27757       -0.634411
LJ          -5.74475        -3.05562         4.63628
LJ          -3.97522       -0.823087         -3.2475
LJ          -4.57049        -1.51458        -4.03472
LJ          -6.22057         3.60863        -2.32979
LJ          -5.21094        -1.12196         4.97776
LJ          -2.05555        -3.12682        -2.58741
LJ           4.03189        -2.07896         5.73354
LJ           3.09804         5.44116         3.16601
LJ          -1.53109         3.20583         4.66049
LJ          -4.19686         2.14518         -0.3469
LJ           1.82447        -2.76889        0.365743
LJ          -3.86718        -5.06283        -3.16438
LJ         0.0010305         1.81787        -3.37325
LJ           4.01383        -4.92661         1.02903
LJ           -0.7071       -0.879112         4.21415
LJ          -5.15504         1.11841        -1.79785
LJ          0.245384         6.08925         3.71442
LJ           5.62288        -1.42474          5.1166
LJ           6.28546         1.97596        -4.62138
