108
#Comment!
LJ          -2.28386         1.76639        -2.83996
LJ         -0.166595         1.59492        -1.22568
LJ           6.44913        -5.31093         3.50274
LJ            4.3733         2.14897        0.493407
LJ          -4.04097          4.0547       -0.306551
LJ          -3.02895         6.29696       -0.367869
LJ           3.05004        -3.90143        -1.37246
LJ          -6.07841         1.04151         2.03009
LJ          0.636491        -5.22629         4.68848
LJ           1.17402        -5.72764         -3.4117
LJ          -3.67238        0.684455        -2.08515
LJ           4.03597         3.13793         2.22507
LJ          -2.24766         4.59004        0.763083
LJ          -2.07196        -1.44599        -4.08062
LJ          -1.16762         -1.2424        -6.13702
LJ          -2.69681       -0.960919         6.31471
LJ          -3.42451        0.850802        -5.70495
LJ          -2.35421         3.72621       -0.519582
LJ          -4.47346       -0.893898         3.53963
LJ          -5.17315      -0.0508007         2.18423
LJ           4.47315        -4.19807         3.80026
LJ         -0.465843        -4.05329        -3.10869
LJ          -2.05923         5.83451       0.0966416
LJ           6.45557        -2.40178        -4.01306
LJ          -5.00547         2.41293        0.776729
LJ         -0.522075        -2.28499         3.35984
LJ          -3.01976       -0.281159        -5.95615
LJ          -3.31972        -4.71065         4.59347
LJ           6.40537         3.05237         1.74859
LJ          -1.33126         1.73408        -3.12856
LJ         -0.123647        -1.22937         -4.9909
LJ          -4.83519     -0.00216741         3.11545
LJ          -3.31673       -0.463314       -0.958622
LJ          -5.00558         1.25702        -5.20047
LJ          -2.13011        -4.45527        -5.75419
LJ          -2.26413        0.360143         4.11047
LJ          0.924006        -1.14401       -0.787485
LJ          -1.23542         1.65343         5.42836
LJ          -1.48197         3.03131        0.236689
LJ           2.36672        -5.55363        -4.93201
LJ           3.91768         4.08958         3.66131
LJ          -3.23098        -2.12695         2.75595
LJ           3.80407        -1.97172        -2.95966
LJ            4.7403         3.43102      -0.0559581
LJ           -2.8776         4.69305        -3.89442
LJ          -2.54971         5.61846        -1.20271
LJ           2.72474        -1.36595        -4.93196
LJ            2.6562         2.80309         5.73651
LJ          -6.18039         3.47192         -2.5728
LJ          -0.64833          4.6968        -5.54591
LJ           4.68167        -2.85835        -5.78215
LJ           2.05801         -5.4193       -0.303247
LJ          -3.90662        -1.43581        -1.76351
LJ           1.56161       -0.812994        -1.75609
LJ          -2.42265        -5.57742         2.15615
LJ          -2.99129          4.1781        -5.73882
LJ         -0.393767        -1.88041        -2.89411
LJ          0.543949        -4.39842         1.90442
LJ       -0.00277155         1.85626         3.16119
LJ           1.15749        -3.29236        -1.90263
LJ            5.7886         3.10783         5.11214
LJ         -0.739528        0.651356        -5.83493
LJ           2.52399          0.2036         5.14317
LJ           6.06744         3.91728         1.50509
LJ         -0.429775        -2.66853        0.775674
LJ          -4.12716        -3.66744         1.55681
LJ           5.77041         2.74843        -3.64168
LJ          0.584802        -2.62162         4.38118
LJ         0.0575671         5.55796        -1.22391
LJ           2.77016        -5.88736         4.66859
LJ          0.343312        -5.38739        -4.85847
LJ           6.00517        0.378969         2.39175
LJ          -2.39242        -3.90324         2.78908
LJ          -2.95451        -2.31418        -6.28331
LJ          -3.45429         1.07919        -3.13184
LJ         -0.192957        -2.77547        -4.94283
LJ           5.52347        -2.48904          4.4364
LJ          -1.88589         1.24512         3.16135
LJ           1.87864        -3.10554          4.8652
LJ          0.410426         4.06898         2.15771
LJ          -3.44626        0.440286        0.523519
LJ          -3.07676         1.68716        -5.20356
LJ          -4.99798        -5.19908         5.89648
LJ          0.643413          1.2145        -1.89691
LJ          -5.96398         -4.9892         6.33126
LJ           -5.7586         4.16807        -5.94607
LJ          -5.01898         6.46249         4.05722
LJ          -3.65294         2.06855        -3.32173
LJ           5.34741        -6.31911         2.78446
LJ          -3.12767         5.15278        0.543976
LJ          -5.18463        -0.78898         4.76272
LJ           5.82492        0.600674         3.82048
LJ          -2.54611         4.47006         1.81019
LJ           5.91463         -2.7789        -5.24534
LJ           5.38647         3.38075          2.6539
LJ           5.96504        -4.26339        -5.05811
LJ           4.53099        -1.19849        -2.89229
LJ          0.160219          4.2596       -0.902916
LJ           2.55668        -5.11638         2.62227
LJ           4.71224        -4.90313        -5.80798
LJ          -1.68891         6.31767        -4.54921
LJ          -6.30748        -2.36864         4.63877
LJ          -1.96385         4.09082         5.43914
LJ          -3.87855       -0.408023        -2.06898
LJ           -2.1249         1.74851        -3.83931
LJ          -6.28907        -4.38901         4.81182
LJ          -1.69867           4.944         1.53299
LJ           1.36736          6.1882         4.35163
