108
#Comment!
LJ           2.48482        -5.30158          5.6933
LJ          -5.59951        0.992217        -4.94891
LJ          -1.97383         1.54878         6.41233
LJ           2.15973        -5.58274         1.98845
LJ          0.491504        0.294322        0.915003
LJ           2.46909        -4.83104         4.09041
LJ          -1.60182        -3.17677         4.34187
LJ          -3.85943        -4.58293         0.28132
LJ           4.00715        -3.45835         6.30148
LJ         -0.318996        -6.45277        0.904151
LJ          -4.56334         5.43182        -3.57899
LJ          -2.54015        -1.39453         3.06355
LJ          -4.96458         6.04889         6.15156
LJ          -4.27851         1.66732         5.09183
LJ           1.79769        -5.29693        -2.56169
LJ          -1.20692        -1.03392        -5.56313
LJ          -2.76878        -1.80406        -5.44727
LJ           5.56585        -6.42355        -5.98833
LJ          -6.29373        -6.20193        -5.79507
LJ          -2.34965        -4.02387         3.50856
LJ          -3.40959       -0.413436         -2.9929
LJ          -3.13826        -1.73544       -0.552228
LJ           -1.7389         2.65693        0.792365
LJ           -1.4897         -2.1113         6.06434
LJ          -5.87916         -1.4615         5.86166
LJ          -2.91012        -5.35571         2.17103
LJ          0.871433        -2.42192        -5.51901
LJ          -1.32764         2.42236        -3.75865
LJ          -2.64941        0.767288         1.74705
LJ           1.12349         -2.4333         3.86241
LJ           4.42292        -3.56313         3.98131
LJ          -2.62747         2.42463         3.25415
LJ           2.29144        -2.80094        -3.69425
LJ            5.6595          3.2561        0.321085
LJ           3.46324        -4.78663        -3.09358
LJ          0.679566         1.85928       -0.627198
LJ          -1.78978         3.43798         4.52933
LJ           -4.0916         1.73553         6.08966
LJ           6.22474         4.88191          1.4199
LJ          0.525323         4.60271        -1.14067
LJ           5.42849        -4.37445        -3.06245
LJ          -1.18726         5.82116        0.953668
LJ          -1.06137         4.91378         4.93837
LJ          -5.79263        -4.85808          1.9592
LJ         0.0984436       -0.474515         2.81086
LJ          -4.32855          3.5601         1.02987
LJ          -2.32697        -2.97709       -0.659131
LJ           4.42022       -0.480752         2.63637
LJ         -0.966895        -2.76182         -3.2466
LJ          -5.23497        0.829423         2.20508
LJ          -3.94271        -1.40545         1.90584
LJ          -5.46932         2.10714         1.00407
LJ           6.34974        -3.94024         1.57195
LJ          -2.13962        -5.86879        -0.43735
LJ          -3.44102         4.88108          4.0812
LJ           4.53645        -3.80251         5.18318
LJ         -0.197752        -2.70068         1.02166
LJ           4.30538         4.27742        -3.28288
LJ          0.973619       0.0194888           3.609
LJ         -0.407319         1.81595         6.30242
LJ          -6.31767        -4.69302        -1.04845
LJ          -5.86104        -3.55909        0.756488
LJ          -1.67064        -1.31714       -0.951232
LJ          -5.82365        -2.53922         5.67457
LJ          0.105722        -3.01368        -6.11969
LJ          0.184249         2.80169         5.62509
LJ           -2.3909         5.48416         1.97392
LJ           2.57349        -6.12719         4.67432
LJ           6.09555         3.38214        -2.80984
LJ           2.61524          3.1092        -5.54388
LJ           -4.7678        0.892605        -3.84673
LJ           6.07439        -5.15312        -1.85649
LJ           1.67353         3.50083        -2.40446
LJ          -1.42559         6.31422         3.46553
LJ          -4.56701         5.25452         1.71526
LJ         -0.271754        0.216463         5.70495
LJ           2.35662        0.719868         4.80092
LJ           2.49401         2.23546        0.292611
LJ           -5.1587       -0.315395         4.12216
LJ          -1.57559        -4.34778        -4.09522
LJ           4.97074        -5.49454        -1.54838
LJ          -3.12023       -0.579547         1.70718
LJ            -6.042         -0.2524        -2.33475
LJ           5.46774        0.637079        -5.45151
LJ           5.92005        -4.84477         2.59623
LJ          -3.32251         2.75426        -3.14335
LJ           6.01887         5.73389          2.2075
LJ          -5.74112        -1.52109        -4.80859
LJ          -2.70277        -1.42106        0.609379
LJ           3.51913        -6.19202         2.10423
LJ          0.414889         3.39904         -3.4802
LJ          -3.58452        -2.20712           6.112
LJ           5.82259        -5.54775         5.77753
LJ          -5.09645        -1.11498        -1.55608
LJ          -0.82895         3.28822         1.53845
LJ          -1.02717       -0.106977        -3.73745
LJ           2.73396        0.462599        -1.64251
LJ          0.480368         4.92153         3.88688
LJ           1.51737        -5.49771         6.19212
LJ           6.32088          3.8555        -5.03717
LJ         -0.919415        -1.05787         1.76915
LJ           2.84952        -1.59125        -2.12581
LJ           4.86762        -2.81932         5.88096
LJ          -2.37088       -0.892908        -2.65973
LJ           5.59056        -4.91206        -5.46164
LJ           5.90237        -4.30509         4.38544
LJ           4.68772         3.29128        -3.45678
LJ          -3.00661         2.57554         5.00617
