108
#Comment!
LJ            4.2518       -0.263666       -0.912884
LJ           2.69535      0.00550058        0.241888
LJ           -4.2042        0.925222        0.884679
LJ          -4.74822        -6.02899       -0.988716
LJ          -1.07716        -5.62249         3.23366
LJ           2.87779        -2.84578         2.65739
LJ          -2.69405        -2.13325        -5.16725
LJ          -4.26651        -4.74078        -2.59992
LJ           1.20563       -0.295149         -2.9871
LJ          -5.76914         1.05355        -1.87672
LJ          -3.06889        0.724531        -4.34671
LJ          -5.55277          5.2501         2.40564
LJ         -0.623125         5.70925         3.65251
LJ           5.75937        -3.98113        -1.37071
LJ           2.61859         -4.3151       -0.563999
LJ         -0.290563          5.9373         1.80035
LJ          -4.88083        -1.05375        -5.84063
LJ         -0.316104         3.39102          2.1877
LJ           4.59087       -0.402051        0.887609
LJ          -1.73074       0.0238269        -5.03168
LJ           2.24135        -2.73331         6.40714
LJ           6.35004         -3.1621        -4.22469
LJ           3.94661       -0.303494        -4.13752
LJ          -2.60579        0.564987         2.66564
LJ           0.84447        -3.48492        -5.57251
LJ          0.654958         3.07278        -4.40345
LJ          -3.95835         3.77739         1.59721
LJ          -1.09164         3.81091         3.93733
LJ          -4.87819         5.23783         1.22658
LJ           5.93587        -5.85002        0.464969
LJ          -3.97519         1.57598        -4.93346
LJ          -6.22175         0.88048         4.15649
LJ          -1.85813        -3.77894        -2.00534
LJ           3.28015       -0.813489      -0.0972022
LJ          -5.71662        -2.79706        -6.23277
LJ          -6.07171         4.05238          6.3345
LJ          -1.50583         5.56024        -4.63442
LJ          -3.52844        -6.44503        -2.85364
LJ          -3.90012        -5.03257       -0.916705
LJ           -3.7466         4.52096        -1.83727
LJ           4.26456         3.28213         3.50295
LJ             3.265         4.11679        0.778156
LJ          -4.70136       -0.680801         5.91759
LJ           3.74469        -2.41145        -3.28126
LJ           3.14635        -1.62464         5.03345
LJ          -3.51014         2.38059        -1.87663
LJ            4.7952        -3.17185        -4.51096
LJ           2.63333         0.72299         1.65832
LJ           1.12797        -5.51225         4.46571
LJ          -4.07356         3.65707        -6.01304
LJ        -0.0657323        0.636137        -2.85877
LJ          -5.28928         1.04589        -0.33728
LJ          -5.65725        0.995828        -4.78351
LJ           -2.4653         5.04323        0.914935
LJ           4.83405        -2.08075        -1.75217
LJ          0.106995         1.39827         2.73869
LJ           1.92454         5.62905        -1.19171
LJ          -4.70021       -0.948459        -0.45088
LJ           3.00727       -0.131616        -3.50656
LJ           5.31651         5.04785         5.17555
LJ          0.498294         1.76791         1.72486
LJ          -3.02664         6.11926       -0.798468
LJ          -4.75851         3.72556        -4.65698
LJ          -4.75968        0.418775        -5.90991
LJ          -6.20439         6.46271         -2.3515
LJ           6.45799        -5.93205        -4.35146
LJ          -2.20577         4.60393        -1.90038
LJ          -1.13476         1.91294        0.842213
LJ           6.22768         2.74021         1.07526
LJ          -0.54972        -3.22031        -4.75234
LJ         -0.251163          2.8743        -3.26118
LJ           1.34261         5.99498         1.00487
LJ          -4.39294          5.4623         5.84864
LJ          0.725092        -5.46077        -4.02575
LJ         -0.794752         4.27978         2.39341
LJ          -4.16743         4.05356       -0.549225
LJ          -1.72413        0.645146      0.00860409
LJ            1.0193        -3.13712       -0.936331
LJ           -2.1106        -3.97487        0.860723
LJ           5.09636         1.33924        -1.25357
LJ          -4.13369        -2.90213        -5.52003
LJ          -5.27656         6.45542         4.00432
LJ           3.43058        -5.76559         1.76903
LJ         -0.389797        -1.99625         6.37133
LJ           1.02853       -0.315455        -5.99727
LJ          -2.13488         5.38871        -3.69808
LJ           6.34195       0.0413468         4.41309
LJ           1.06188        -2.85273         3.71484
LJ           1.44468         4.64973        -2.05089
LJ           1.41118         -6.1565        -1.75511
LJ          -5.36339        -6.14806        -2.90958
LJ          -2.11061        -1.86601        0.110793
LJ          -2.86062         1.04529        -1.91715
LJ          -4.96707         3.06094         1.68207
LJ          -1.76493        0.668948        -6.42967
LJ           1.27901          2.2009        -3.22573
LJ           5.25197         3.25784        -1.56564
LJ           1.80498         1.90395         6.00827
LJ          0.933474        -2.98957         2.33959
LJ           1.86586        -5.24961        -2.18334
LJ           -5.6205        -0.48531        -3.81118
LJ           1.46949         4.98319        -6.05549
LJ          0.349814         5.60367        -1.78488
LJ          -3.10367        0.776444        0.456697
LJ          -3.75237         1.25188        -2.48039
LJ          -5.68359          4.5417         1.73161
LJ          -6.32166         4.91168        -4.41822
LJ          -3.71238       -0.368634         -4.1987
