108
#Comment!
LJ         0.0279095        -2.75615          5.4764
LJ         -0.182848        -3.43462         4.43703
LJ           3.44165        -6.42059         5.30571
LJ           4.25308          4.1096         1.84229
LJ          0.175747        -1.11217        -3.27711
LJ           6.27097         2.69985        -2.60312
LJ           -3.9794         2.47402        -4.12109
LJ          -5.88388         -6.1816       -0.807012
LJ            -2.439        -4.84074         3.94699
LJ         -0.306329         4.51266          2.8529
LJ           2.53265         3.57234        -1.69802
LJ          -2.32263       -0.455987         5.97457
LJ          -4.37966         4.67502        -2.42404
LJ          -3.64415         0.29132         5.55328
LJ            4.4013        -3.02278        -2.23725
LJ          -1.72043        0.403753        -2.25409
LJ          -2.35538        0.710949         5.96285
LJ          -5.30683         5.79818        -6.27198
LJ           6.33866         3.06122         5.83896
LJ          -2.20945        -4.21058        -5.42586
LJ            5.5144        -5.91198        -1.32834
LJ           4.21078        -1.03056        -4.87849
LJ          -4.87527         5.05394        -1.44404
LJ          -6.19765        -4.27645         3.46207
LJ           5.68698        -6.28618        -3.09906
LJ         -0.324828        -6.04981         3.35213
LJ           5.90103        -5.15041         2.20273
LJ           6.42863         5.19529         2.38884
LJ          -3.27356         4.87192        -3.35689
LJ          -3.91247       -0.735383         3.80374
LJ           5.23299         2.95575        -1.12305
LJ          -1.93134         1.81196         3.56524
LJ           4.18325        0.539901        -1.26395
LJ           2.06271         2.94935        -3.54417
LJ           2.14415         4.77948         -3.4103
LJ         -0.692603        -4.59009       -0.323271
LJ            3.0554         5.15262        -4.78147
LJ           1.65228        -3.66809        -2.15119
LJ          -4.25298         3.21967        -5.02106
LJ           2.20572        0.303145        -1.00523
LJ           6.16186        -5.31105       0.0769344
LJ         -0.105325         4.39821          4.5966
LJ          -1.30866         3.53914          5.6507
LJ           3.58741         2.53293         4.17037
LJ          -1.58677        -1.89269          2.4965
LJ           5.10151         1.75207        -6.29295
LJ           3.89575        0.226646        -5.19706
LJ          -3.75309        0.110906         2.82936
LJ          -6.34383         5.64477        -1.04449
LJ          0.707232        -4.66478         1.77205
LJ           6.14186        -3.73238         -5.1876
LJ           -1.9195         4.84851         3.19222
LJ           1.60694        -2.70248        -4.60222
LJ          -2.15472         2.26152         -5.5277
LJ          -6.16456         6.35499        -5.51228
LJ           -3.3753         4.86544         5.57345
LJ           6.14881         5.46322         1.53623
LJ           1.71471        -2.32974        -6.10533
LJ          0.744774         3.77147        -4.39486
LJ           1.02881         -5.5505         -4.7811
LJ          -5.47904        -1.14275        -3.65647
LJ           1.45066        -3.35517        -3.17222
LJ          -3.70237       -0.597369        -2.20911
LJ           5.85182        -0.94565         2.13267
LJ           6.13067        -5.75839         3.16098
LJ           3.34231         3.43821         0.33401
LJ           3.26016         2.02416          5.2137
LJ          -1.01276         3.38473        0.374228
LJ           3.50898         1.25429        -5.73585
LJ           3.23263         2.11751         2.97986
LJ            2.6659        0.757261         5.53149
LJ           3.41324         4.37179         3.69732
LJ           1.09529          1.7624        -3.01142
LJ         -0.903928        -6.29376        -4.17525
LJ          -1.09187         4.90256         1.23546
LJ           1.18905        -4.01068        -4.12448
LJ           2.55481          2.6917         4.10141
LJ           2.59304        -5.18289          3.5699
LJ           6.25897       -0.011596        -4.16471
LJ           6.44624         3.03065         -4.0181
LJ           2.36654       -0.475917        -2.31859
LJ          -5.09947          1.6898         4.72248
LJ          0.944613         4.27693         3.62734
LJ          -5.93753        -2.88392        -1.21003
LJ          -3.98431         1.93849        0.335824
LJ         -0.773099       -0.102416        -3.47974
LJ           6.40898        -4.50349         4.64702
LJ           2.64863        -3.00584        -4.27016
LJ           5.62562         -4.7907         1.13998
LJ         -0.924794        0.660188        0.060185
LJ           1.13894           6.341        -1.02272
LJ         -0.415244        -6.41084       -0.969577
LJ          -4.17677        -6.33057        -1.33076
LJ           6.42647          2.2502          3.8241
LJ           4.39197         1.23253         2.29402
LJ           6.33889         4.28487       -0.385977
LJ          -6.38316        0.403646        -2.05662
LJ           4.22002        -5.81924        0.946141
LJ           4.75899        -1.37347         4.45106
LJ          -5.30289         3.56189        0.720489
LJ           2.79343         -2.4852       -0.856258
LJ           4.83191         4.11259          4.1466
LJ           -1.8559        -3.21834         2.93637
LJ          -3.33654        -1.83073        -2.70815
LJ           2.01218         5.35615         5.97263
LJ          -5.91465         3.69761        -1.07529
LJ           1.51766       -0.243741        -6.20209
LJ          -1.22214        -4.43582        -4.29281
