108
#Comment!
LJ          -5.46626         1.65227         2.05352
LJ           2.88276        -1.90884         3.64692
LJ          -4.17361         2.09588        0.159388
LJ           5.42046        -1.56518      -0.0835865
LJ         -0.657438         -5.6742         4.23768
LJ           5.15369        -3.21247        -6.08295
LJ          -2.40618        -4.98816         5.82899
LJ           -1.0761         2.14074        -5.01797
LJ           -3.3698        0.208177         2.56662
LJ           3.88319        -2.55438       -0.884455
LJ          -5.73517        0.775006       -0.402446
LJ          -2.58307         4.50381      -0.0505361
LJ          -1.60277         -4.0826         5.78702
LJ          -5.51553        -5.31399         5.95495
LJ          -5.02957         5.19473         3.19335
LJ          0.676927         5.51133       -0.641404
LJ           -5.0899        -3.17764         3.89342
LJ           1.87755          2.8815         1.71644
LJ           2.46568       -0.868039         2.65545
LJ          -2.14801        -1.93298         6.43465
LJ          0.763365        -1.60737        -2.80896
LJ          -4.88321         1.82222        -6.00735
LJ           1.46786        -2.71775        -6.31712
LJ          -1.80029         1.88166         4.32633
LJ          -4.15818        -3.28187         4.27743
LJ           1.52451         1.09183         4.45766
LJ          -3.38988        -5.15052         1.13977
LJ          -1.63248          6.2357        -6.31066
LJ          -6.32511         2.63483        -2.50114
LJ          -1.80119        -3.41335        -1.37031
LJ         -0.485502          3.4596       -0.532824
LJ          -5.27039         2.57123      -0.0743617
LJ          0.173575        -3.60647        -3.90722
LJ           3.42929        -2.47152        -3.27704
LJ           1.92869        -4.30312         3.20916
LJ          -3.59635         3.35101        -3.15588
LJ           -3.7302        -4.08752          2.3303
LJ          -4.65279        -5.17061       -0.278207
LJ          -5.15951         6.38923         2.90419
LJ         -0.960705        -4.26328        -1.38103
LJ           2.45596        -6.32764         2.59895
LJ           1.34895         4.65136         1.97751
LJ          -6.21103        -3.55782         3.92429
LJ            4.1846         5.41564        0.792371
LJ           6.10479        -6.26587        -3.45137
LJ          -1.77391       -0.840559        -1.46583
LJ           5.68016        -4.14036        -1.90454
LJ          -1.47109         -1.2791         1.81423
LJ          -1.56707       -0.814869         -3.7215
LJ          -4.04812         6.36571         4.35593
LJ           1.84697         2.84076        -2.29029
LJ           2.72159        -3.45846        0.365313
LJ          -1.65607      -0.0884347        -4.54264
LJ          -1.71872         5.91336         1.91281
LJ           5.13277        -4.11386        0.826778
LJ          0.628803         2.71718         1.22411
LJ          -1.55169         3.35725         -4.0809
LJ          -2.52733        -2.27725        -2.85367
LJ            4.8567        -1.19425        -3.64188
LJ           4.52258        -6.27429        -3.98402
LJ           1.27956        0.898377         1.86195
LJ         -0.076172         4.56005        -2.07859
LJ            4.6818         5.24375        -4.90969
LJ           6.45826         4.55232         6.42613
LJ          -6.41475        -5.92561        -2.33299
LJ         -0.609149         4.24898        0.409868
LJ          -2.48899         3.19784        -3.88196
LJ         -0.750811         2.44506        0.688052
LJ           4.21873        0.705938        0.898923
LJ           4.01514         1.54553        -1.95405
LJ           2.97349         3.34429         -1.9051
LJ           4.52205        -5.23022         5.50526
LJ          -2.28269         3.18615         1.37921
LJ          -5.40264          5.5599        -6.33468
LJ           2.82428         5.35863        0.338807
LJ           -1.5854        -4.37703        -4.53363
LJ          -4.03365         5.13274        0.419764
LJ           1.61293        -3.86021         -1.0696
LJ          -1.30632        -3.56399        -3.67202
LJ           3.52572         1.11386       -0.351018
LJ           -2.6502        -2.07322       -0.987965
LJ           5.89497        -5.95739         5.50497
LJ             5.895         1.29331        -2.01699
LJ          -3.32679       -0.135262        -5.87269
LJ          -2.87904        -2.15153        -4.26517
LJ           -3.4634        -3.32146        -3.18381
LJ            4.6822        -2.30146        -4.18636
LJ           2.27953        -6.07472        -3.30758
LJ          0.737224          4.8026        -3.21271
LJ         -0.782633         4.88543        -6.40116
LJ            5.7332         5.13488        -3.94616
LJ        -0.0452858        -1.37228         3.38124
LJ          0.673949        -2.42165        -2.11466
LJ            -6.369         2.55797          1.7837
LJ          -4.59887        0.107649         3.96469
LJ         -0.340394         2.17852        -2.81402
LJ           4.59592         1.65853        -5.69651
LJ           1.08581          3.6794        -3.18265
LJ          -2.09346        -3.91623         1.39785
LJ          -5.60869         6.20093        -3.03756
LJ           -2.9287        0.547763        -5.08701
LJ          0.909768       -0.281373         5.23194
LJ          -3.91697         6.25764        -2.78352
LJ           5.35845         4.34557         -1.3598
LJ          -1.14579         1.24993        -3.63396
LJ           1.93331         4.25007        -3.22456
LJ          -4.08084        -5.60312        -2.14802
LJ           -1.3977         1.57237        -5.88266
