108
#Comment!
LJ           5.29979        -0.12908        -0.88785
LJ           3.82691       -0.431801         1.49165
LJ          -4.47486         2.19438        0.958556
LJ           6.30724         -3.6599       -0.780106
LJ         -0.820611        -5.77199         3.49886
LJ           4.21808        -2.99168         5.54399
LJ          -2.41752        -3.57215        -6.30318
LJ          -2.48901        -1.06309        -3.12244
LJ          -2.04003       -0.964511       -0.569998
LJ           5.79954        -1.19434        -1.46008
LJ          -4.94767        0.669162        -1.65517
LJ          -3.67462         5.16128         1.66443
LJ         -0.963672        -5.18212         4.91312
LJ          -5.98664        -4.67049        -4.64798
LJ           5.42661        -6.14335         1.48816
LJ         -0.376182         5.74543       0.0808194
LJ          -4.91861        -2.20154         5.40251
LJ           1.31285         3.62556         2.14613
LJ           2.89048       -0.684372         2.27806
LJ          -1.77061       -0.761092        -6.02147
LJ         -0.563056       -0.354117        -6.24199
LJ          -5.43476       -0.260118        -5.08344
LJ           2.57069        -1.63611          -5.395
LJ         -0.988721        0.568609         4.27778
LJ          -1.89355        -3.14603         5.82469
LJ          0.666996         2.27842        -6.42012
LJ          -3.25669        -6.34914         0.81032
LJ         -0.982879         4.74281         4.86995
LJ           -6.2393          4.3781        -1.68232
LJ          -4.02483        -4.20805       -0.761072
LJ          -1.98604         3.55425        -2.45576
LJ          -5.94782         1.54169         1.74862
LJ         -0.424475        -3.61551        -2.81249
LJ           2.97799        -2.12318        -2.67946
LJ          -1.48603        -3.92747         4.64746
LJ          -4.98623         4.35861        -4.50417
LJ          -2.83036        -5.57115         4.94916
LJ           -5.0506        -5.61575        -2.18271
LJ          -5.09806         6.18866         1.04302
LJ          -1.46129         6.30471         -1.1228
LJ           3.78782         5.92538         2.40252
LJ           3.02366         5.99528         1.14606
LJ          -5.66287        -2.30684         4.64583
LJ           4.31751        -3.78899       -0.796297
LJ           4.08559        -3.30959        -5.07672
LJ          -2.64216        0.692642        -1.48084
LJ           5.79739          -4.405        -3.24131
LJ          0.377056       -0.397238         1.75211
LJ          -5.44742        -2.70792        -5.20059
LJ          -4.03303         5.14702         5.52459
LJ           1.71038         1.93394         -2.7979
LJ           4.24433        -1.16988       0.0778145
LJ          -2.91506        0.350208        -4.98663
LJ          -2.11696         5.33147         1.46498
LJ           3.69176        -5.65362        0.917842
LJ          0.309932         3.34157         2.01626
LJ        -0.0977107         4.68196        -2.08347
LJ          -2.27224        -1.62617        -1.74067
LJ           3.86753        -1.23972        -2.59693
LJ           5.96167        -6.26923        -4.37977
LJ           1.00303         1.54581         1.82146
LJ         -0.506124         5.19244        -1.21116
LJ           6.42509         4.09357        -3.42995
LJ          -4.41652         3.18114        -5.09549
LJ          -6.33509        -6.38323        -2.12696
LJ           2.40262         5.48543         -1.8492
LJ          -3.67978         3.57406        -4.30898
LJ          -1.16253         1.65311         2.22031
LJ           4.42286        0.357054        0.819656
LJ            2.3041         -1.1438        -2.80537
LJ           1.20144         3.76291         -1.9969
LJ           2.51674         5.91879         3.46813
LJ          -3.19861         4.15034          3.3694
LJ          -2.62028        -6.43896        -4.88131
LJ           1.01587         4.82961         1.14016
LJ          -2.69111        -6.11531        -1.97216
LJ          -3.05296         3.02863       -0.113339
LJ           1.65711        -2.95685        -1.66168
LJ          -1.89375        -3.45651        -1.72682
LJ           4.30168         1.08599       -0.700708
LJ          -3.79869         -2.3749        -3.01506
LJ          -6.18778         -6.4178         4.48315
LJ           4.91533         3.87337      -0.0990071
LJ          -2.49541        -1.75971        -5.81401
LJ         -0.825977        -1.97964        -4.94963
LJ          -2.52422        -4.73301        -3.68505
LJ           5.40644        -1.23569         -6.1256
LJ           1.66021        -4.38755        -5.60462
LJ           1.47035         3.77947        -3.20866
LJ         -0.102663         5.10486          -4.234
LJ          -5.41363         5.16024        -4.07724
LJ          -1.03179        -1.63059         1.96714
LJ          -1.73588       -0.794562         -2.1392
LJ          -5.25563         2.98615         1.44134
LJ          -3.39047        0.389132         5.04552
LJ         0.0654235         2.59023         -3.1312
LJ           4.87172         2.35552        -3.88265
LJ           1.76548         2.65428        -4.84301
LJ          -1.07485        -3.85978         1.70972
LJ          -2.60843        -6.20256        -3.19213
LJ          -4.50458      -0.0225318         -4.5641
LJ           1.39822         1.80761          5.5421
LJ          -1.84351         4.53365         -2.5248
LJ          -5.74246          2.6941       -0.693702
LJ          -1.95978         1.62673        -3.22239
LJ           4.92195         4.69191        -1.31391
LJ          -6.21766        -5.87638        -3.37876
LJ          -1.83818       0.0544041        -5.27672
