108
#Comment!
LJ            1.4702        -6.43722         2.18575
LJ          0.866365         1.45557         3.75394
LJ           5.81577         1.53877        -2.78206
LJ           2.68197         -2.2617         4.85394
LJ          -2.96623         5.03299        0.415384
LJ           5.90937        -3.42945         3.19792
LJ          -5.13989         1.35664        -3.85273
LJ           3.93355        -4.20302        -6.36239
LJ           4.19842        -5.32205        -1.45667
LJ           2.74776         1.70316         5.79613
LJ          -3.97993         3.14862        -1.45749
LJ         -0.377925        -1.28261          2.7543
LJ          0.854322        -4.43971        -1.45121
LJ          -1.73103        -2.09318        -3.17095
LJ           1.25297        -3.14743         3.78124
LJ          -4.24409        -3.30586        -4.90386
LJ          -1.00863        -5.72555         6.09157
LJ           4.80086         2.26064         1.03481
LJ           2.91581         6.06556         5.98873
LJ        -0.0154968         1.22132        0.626984
LJ         -0.982684         -4.2638          -3.707
LJ           0.18067       -0.109959        -1.84232
LJ          -5.78873        -3.72995         3.68238
LJ           5.40476         2.39057         -2.4227
LJ           4.61863        0.132136         1.70752
LJ         -0.475333         2.21326        -3.46986
LJ          -4.93573        0.191148        -2.62853
LJ          -5.13059         3.98594        -6.02231
LJ          -4.06835        -2.91734         6.23471
LJ          -2.86519          1.9784        -1.99451
LJ         -0.867136         0.50854        -5.59541
LJ          -1.87706        -5.15047        -4.39482
LJ           3.58172        0.440027        -1.96345
LJ           5.86996       -0.705786        -2.74405
LJ           3.73519         2.56242         5.56889
LJ           5.21854      -0.0388552        -1.58191
LJ          -4.98261        -3.14508         5.79297
LJ           3.72237        -2.59007        -3.89824
LJ           -1.8092        -2.14531         -2.2335
LJ           1.87886        -5.54916        -3.84177
LJ           3.50559         6.38486         -4.4088
LJ          -2.62584        0.926369         2.72553
LJ           -1.7896       -0.620589       -0.414738
LJ          -4.50492        -2.17391        0.707243
LJ           -0.7759        -2.80647          -2.124
LJ           5.60596       -0.543328        -5.51646
LJ           2.84716         3.19618         4.33929
LJ           6.27479          2.2936        -3.19485
LJ         -0.637604        -6.33651        -5.03263
LJ           5.40784         6.34434        -5.67286
LJ           4.68814        -2.83905         6.40507
LJ           -5.5666        -1.71347         2.15375
LJ           1.04289        -6.41079         -3.3653
LJ           6.26237         5.79885        -5.02355
LJ          -6.43378         4.44034        -6.31766
LJ           -5.3592        -2.73862        -2.42699
LJ          -5.28053         5.89046         1.05396
LJ           3.56447         1.73704        -6.00184
LJ          -5.02167           5.139        -5.34009
LJ           1.75944         5.20469         3.14084
LJ         -0.865632         1.15601        -2.40957
LJ          -3.19411          1.1083        -3.88986
LJ          -5.87258        -5.00544        0.645857
LJ           2.87471        -3.25001         3.85613
LJ          -3.39053       -0.422621       -0.249085
LJ           3.38654         3.31008         1.17081
LJ          -6.22208        -5.17996        -3.93078
LJ           6.13539        -3.85209        0.377666
LJ           1.87606         1.83399        -6.08811
LJ          -1.48666         2.32372        -2.71886
LJ           3.81555         3.30078        -3.51986
LJ           2.76179        -3.62568       -0.148336
LJ           4.29837        -5.15631        -5.10504
LJ          -3.60743        -4.43152        -3.84273
LJ          -1.91903        -5.22242         2.12661
LJ            1.6284        0.245188         1.25465
LJ          -1.59758         5.48533        -1.87514
LJ            6.4327         5.86818        0.329879
LJ          -3.74236         -2.4511        -3.43843
LJ          -5.64195         3.99577        -3.90956
LJ          -3.36311        -4.20862        -1.46472
LJ          -6.22034        -3.59036        -3.77393
LJ        -0.0587272         2.66496        -5.21729
LJ         -0.613659         1.13944        -1.38593
LJ          -6.11245         5.02075          3.3238
LJ          -3.11269         2.64823         -3.8814
LJ           5.31398        -2.87948         2.18691
LJ           2.58877         1.99167        -1.24258
LJ           3.52831         1.67641        -2.01526
LJ          -4.82841        -3.72564         1.98851
LJ          -4.44332         1.20637         -5.3519
LJ          -3.30025       -0.321687        -2.48059
LJ          -6.30526         3.98045        -4.96121
LJ          -6.46069        -1.80832         6.27125
LJ           -3.7866        -5.62527        -1.95769
LJ           4.34094        -5.05804         4.53424
LJ           1.17812         5.75229         3.95544
LJ          -3.81126         3.15176        -6.09947
LJ          -3.99962         2.72051         0.58433
LJ            1.0028         -5.5925         2.05833
LJ          -2.59336         6.29572        -1.47661
LJ           1.33447         6.33627         5.65056
LJ           3.83905        -6.02051         1.77287
LJ         -0.582349         0.42147         5.12253
LJ          -4.59047        0.167527       -0.232132
LJ           2.81102          1.8252         4.74929
LJ           4.75715         -2.6375         3.81005
LJ           3.51651         4.14694        -6.03871
