108
#Comment!
LJ          -4.46209         5.34068         3.51608
LJ          -1.23145         3.53163        -4.52049
LJ          -3.34051         4.84822         3.90452
LJ           5.34281        -4.22534       -0.331593
LJ            3.3169         -1.0515         1.20823
LJ           1.26555        -4.23079        0.710934
LJ           3.25864       -0.283355        0.417776
LJ           5.17803         3.73875        -4.94101
LJ          -1.76894         2.95677         3.79547
LJ            5.9943       -0.332253         1.54913
LJ       -0.00431471         -2.4727        0.576299
LJ          -2.03058         4.55115         4.54583
LJ          -1.34463         5.30499         5.01235
LJ           2.54399         4.10187        -5.51985
LJ          -1.39499        -5.46151         2.75422
LJ          -1.69722         5.35569        -5.99567
LJ          -2.61151       -0.188005       -0.513784
LJ          -5.87113         3.84209         1.70007
LJ          0.611742         2.40599        -5.42973
LJ           5.08214       -0.952456        -1.88465
LJ           4.54946        -3.50991       -0.827539
LJ          -3.76083        -5.22563        -3.38337
LJ          -5.08454         3.06282          1.1431
LJ          -4.18581        -3.34085         2.17265
LJ           5.54272         5.73666         5.34703
LJ           2.95028         2.90943         1.35543
LJ           1.18046         5.90311         5.35668
LJ           5.53402          3.8798         2.91359
LJ          -2.21738        0.809767       -0.095222
LJ         -0.114787         4.72187       -0.552217
LJ          -4.20379         1.33594         5.62929
LJ          -5.94331         1.61024        -5.96587
LJ         -0.361293           6.246         3.12218
LJ          -4.48653       -0.655123        -1.21415
LJ          0.621877         3.38741         2.91851
LJ           4.50395        -4.50535       -0.970589
LJ          -4.76893        -2.07742        0.290964
LJ          -2.84617         3.89617        0.695873
LJ          -2.56016        -4.87672       0.0441963
LJ          -6.24809         1.84357        0.587046
LJ           3.66701        -3.90109        -5.44134
LJ           1.96614          1.0826         3.87532
LJ           5.61941        -6.11941        -4.28165
LJ          -3.45456         3.70863         6.39677
LJ           2.99791        0.670632        -2.23034
LJ           2.68527        0.453186         2.78008
LJ           2.57777        -2.06475         3.34962
LJ           1.53184        -4.77359        -1.92748
LJ          0.912414         1.96196        -1.78762
LJ          -5.32149         3.37114         3.14366
LJ          -5.84016         5.69657        -5.99181
LJ           3.61553        -1.82111        -5.54087
LJ          -5.97229       -0.717143         -2.3555
LJ          0.900269        0.573248         2.62581
LJ           2.40526        -4.45671        -1.37138
LJ          -3.34446        -2.13567         2.87986
LJ           2.89522        -2.05666         4.34034
LJ           5.29945         -1.0127         2.30997
LJ           3.10738          5.0789         5.84472
LJ          0.618655        -1.64576       -0.761413
LJ          -1.45657        -2.50212         -4.3793
LJ          0.828633         4.12143        -1.62156
LJ           6.38847         5.91071       -0.530674
LJ          -6.35277        -5.94493          1.8848
LJ          -4.48086        -4.52256        -4.03379
LJ           2.66792         1.13111         1.99037
LJ           1.84799         2.69727        -3.81988
LJ            2.4073         2.02136        -1.53503
LJ          -5.14007         5.55924        -3.13216
LJ           -3.8275        -5.82207         -2.4482
LJ         -0.672232         2.31458       -0.575916
LJ           5.64121        -6.44666       -0.952382
LJ          -5.28016        -4.88644         2.20088
LJ          -5.26363        -2.58619         -1.7831
LJ          -4.10809         5.72781         1.88255
LJ          -4.60639          3.6913        -4.42231
LJ           4.30733        0.439706        -2.33715
LJ           -3.3954         2.10088        -5.09078
LJ           2.57035        -3.07997         5.08827
LJ            4.6989        -4.55703         1.95135
LJ           -5.1551         2.35984        0.420491
LJ           3.77907         6.34833         1.98134
LJ           6.23616         4.79292         1.54446
LJ           2.98761          3.1068        -5.85033
LJ          -6.41072         -2.8537          2.6659
LJ           5.75754        0.138313        -1.47336
LJ          0.230451           3.633       -0.865921
LJ          -6.33627         2.53296         1.37818
LJ           6.10561         1.28197         1.56082
LJ           4.56803         4.93993         4.95031
LJ           4.93439        -5.76218         4.13703
LJ         -0.345584        -5.74591        -5.57271
LJ           4.95311         -2.8805         5.28719
LJ           5.73737         3.82203        0.932719
LJ           3.01397        -4.50581        -2.68527
LJ           3.92446         6.45332        0.974864
LJ          0.736546        -5.72504        -4.75044
LJ          -4.61828         5.69721        -6.36604
LJ         0.0767545         4.74157         6.33105
LJ           3.64193         2.36668        0.117778
LJ          0.714574         3.07048        0.467924
LJ           4.38517         2.75481         2.97215
LJ           5.35251         5.54864        -2.97363
LJ          -2.94136        -1.21416         6.23836
LJ           4.47031         3.72624        -5.61174
LJ           6.34012         -3.6513         4.71679
LJ           5.70475       -0.569875         4.19643
LJ           5.28438        -4.96495        -5.11217
