108
#Comment!
LJ           1.24319        -5.30453         4.77395
LJ           6.25889         4.24212         4.55016
LJ         -0.695121         4.07139         4.37818
LJ           4.71846        -6.46275         2.26124
LJ           1.38576        0.938106        0.701135
LJ           3.59266        -2.00778        -6.16475
LJ          -2.20198       -0.546365         5.81511
LJ          -4.49589        -3.99034        0.463849
LJ           6.40834        -3.86243        -6.39518
LJ         -0.723486         6.21191         1.49995
LJ           6.35276         4.76103        -2.69621
LJ          -1.21494         1.09372       0.0797076
LJ          -5.45975         5.59029        -4.42293
LJ          -5.56164       -0.479231         2.88431
LJ           2.84876        -3.70053        -1.83162
LJ          -1.53995         -1.3059        -3.52873
LJ          -2.88658        -1.38861         -5.9479
LJ          -6.43844        -5.29807         6.40398
LJ           6.43024         5.87972        -4.82791
LJ          -2.37597         1.14766         4.97029
LJ          -3.94448       -0.839668        -3.35495
LJ          -1.10079         -2.6195         3.16397
LJ          -2.02525         2.42874        0.193217
LJ          -4.28766         -3.8331         5.17975
LJ          -6.05674         -3.0768        -5.22402
LJ           -2.8193        -4.17541         2.69393
LJ          -2.04384        -4.43178         5.82813
LJ           1.66448         2.81215        -6.30643
LJ          -3.79586         2.32119         0.90397
LJ           0.51118       -0.932486         3.41091
LJ           5.09399        -4.76281         1.19067
LJ          -2.45388         2.01232         2.94564
LJ           2.99036         -2.2446        -2.47528
LJ            4.3825          4.1179        -2.44208
LJ            2.6041        -6.27914        -3.24404
LJ          0.311723         4.14093          1.9704
LJ          -3.53246         4.41816         5.46164
LJ          -1.33517       -0.445492        -4.83307
LJ          -5.28526         5.28749         3.36959
LJ           1.19504         -5.1704        -1.44415
LJ           6.09436        -5.73455        -2.99576
LJ          -1.17458         6.34369         2.72973
LJ           3.81737          3.9529          4.9636
LJ          -2.43003          5.7684         2.84596
LJ          -2.09437        -2.09536           1.713
LJ          -5.66419         2.98861        -1.83662
LJ         -0.303265        -1.43278        -2.19257
LJ           5.58496       -0.660759         3.28613
LJ           1.52189        -4.48926        -2.49592
LJ          -3.14842        -1.95219         2.97928
LJ          -4.72424        -1.62866       -0.997943
LJ          -6.18051         4.19144         3.70033
LJ           5.20191        -3.05292         4.62655
LJ          -2.38061         4.67689         2.31519
LJ          -4.82533         6.15766         4.77637
LJ           2.09245        -5.87919         5.81865
LJ           3.84218        -4.07191         1.09725
LJ           3.02202         2.04992        -4.20231
LJ         -0.330238          1.3921        0.747517
LJ         -0.603075         4.76425          6.0999
LJ          -5.99771        -3.31023         0.24307
LJ           4.71756        -3.73816         3.61391
LJ          -3.67433       -0.963606        -1.12939
LJ          -3.34575        -3.16036         2.78238
LJ          -2.03295        -3.30058         5.65391
LJ          0.154659        0.814041         2.94702
LJ          0.553176         3.75075         4.16141
LJ           1.57191         5.82725         2.68846
LJ           5.99219         1.52933        -4.28142
LJ           2.30155         1.71632         3.14884
LJ           5.76502          1.7222         6.19195
LJ           4.54568         5.14794        -3.28137
LJ           1.64951          2.7731        -2.63992
LJ           -1.6697         -5.8735         4.58986
LJ            4.3304         2.17927          3.9251
LJ          0.823238         4.51968         6.45033
LJ           2.32463         1.69029         5.28544
LJ           2.67576         4.30365         1.39757
LJ          -5.80665       -0.500164        0.963059
LJ          -2.96011        -6.09327        -4.01079
LJ            6.0739        -3.02756        0.818999
LJ           -3.8584        0.486916         2.68566
LJ           -3.5947         1.56229       -0.884192
LJ           6.17019        0.277908        -4.03232
LJ          -6.02484         5.47057         1.76343
LJ          -2.77808         1.01412        -3.18775
LJ           6.33991         5.11769         3.68449
LJ           5.31094        -3.52436        -5.13775
LJ          0.661723        -2.00097         0.98803
LJ           2.85371        -3.56453        -0.84933
LJ          0.399355         4.66483         -2.5644
LJ           -2.3309        -4.00834        -4.51587
LJ           6.37489        -5.92997         2.90987
LJ           6.15947        0.637534        0.763655
LJ          0.769687         2.19756         2.55776
LJ          -3.76453        0.786361        -3.83451
LJ           4.85525         1.13044        -1.87994
LJ           4.00688         3.98746         3.45906
LJ          -2.26919        -3.46619         4.60745
LJ           5.03435         2.51297          4.7796
LJ           0.25398        -3.11833        0.724723
LJ           3.58815        0.197078          1.0822
LJ           1.44859        -2.04378          3.9298
LJ          -2.61307        -1.70072        -2.35762
LJ           4.02948        -5.90574        -5.80676
LJ           5.78591        -2.01171         6.38468
LJ           3.85118         1.79102        -5.02692
LJ          -2.90835       -0.171853         -5.1346
