108
#Comment!
LJ           2.04481         3.13197         2.00164
LJ           1.92321         1.01796         1.79692
LJ           -4.5547       -0.742267         -3.8021
LJ           4.83965        -3.01034        0.797734
LJ          -2.05025        -6.37679        0.920816
LJ           -5.5503        -3.83765         6.10818
LJ          -5.25666        0.736115        -4.15343
LJ           5.12788        -4.16195        -3.26905
LJ            5.3738         5.20043          5.4916
LJ           4.05394        -4.03946         2.90884
LJ          -1.62073          2.2424         1.22522
LJ          -4.13393        -3.15296         5.39521
LJ          0.748616        0.252955       -0.506052
LJ           2.45166        -2.30579         6.44625
LJ          -1.22862        -1.77983        -5.88451
LJ          -3.13742        -4.15154         5.65574
LJ           -2.8686        -4.52134        0.520965
LJ          -5.38009          2.7577         2.07529
LJ           4.28019        -2.92142         -4.4164
LJ          -1.24213        0.774329        -2.41814
LJ          -3.44546        -4.00338        -5.04291
LJ           2.77899          3.4571        -2.50019
LJ          -6.44371        -5.19943         4.97387
LJ          -4.53269         2.73207          -3.213
LJ           3.73275         3.77347         4.69286
LJ          -0.23767         4.08625       -0.351546
LJ          -5.61218        -1.46398         5.15915
LJ          -4.26514         3.13871        -4.74718
LJ          -4.58667        -4.74676         6.19184
LJ         -0.714685         3.77545          1.3416
LJ          -2.49004         1.30536        -4.38192
LJ          -3.93885        -6.15812        -6.35166
LJ          0.633613        -2.61572         3.15077
LJ             4.156       0.0237643        -1.46635
LJ           5.17903         1.62377        -3.84399
LJ           5.18096         2.42691         2.11774
LJ           4.75994        0.520422         1.73947
LJ           2.77921       0.0238228        -2.42841
LJ          -1.94948       -0.523361         1.50886
LJ          -6.20725         3.95923        -2.62609
LJ           5.06958        -3.06328         6.16881
LJ          -5.95014         1.49189        0.962215
LJ          -2.11869        0.091013        -2.94432
LJ          -1.22612         4.22194         2.39157
LJ          0.550146         -1.2466        0.691482
LJ          -5.82012        0.888976         -5.2523
LJ           4.20647        -5.92737         5.23738
LJ          -5.00156         2.34164        -1.41387
LJ           5.03462         3.88391        -5.51384
LJ          -0.35966         1.59476         3.93871
LJ           3.98079        -1.82557         -5.2089
LJ           2.82382         -5.5222         1.79127
LJ           2.99291         3.97332         -4.3653
LJ           5.90725         5.16482        -5.79515
LJ           5.90326         3.01823        -5.07311
LJ           2.69175        -3.32073        -1.18304
LJ           3.41849        -5.39522       -0.425398
LJ           4.45267        0.688211         3.93006
LJ         -0.686656         1.85323         -5.6189
LJ           3.58395         4.26068         1.93189
LJ          0.242769       -0.770695        -1.82313
LJ          -3.02877         2.43961        -2.08199
LJ          -4.46725         4.82197        -1.64473
LJ           3.63435        -2.86995         5.67863
LJ        -0.0655916         2.42922        -1.06571
LJ           1.55544        -1.05229         3.50894
LJ           3.14246         6.18304         5.56369
LJ           3.68075        -2.12182        -1.94689
LJ          -1.18345        -2.80877         4.35382
LJ          -2.07492         4.03198        -3.51603
LJ            1.9578         3.18024        -4.55169
LJ          0.901388         6.43689       -0.266793
LJ           5.88984         -5.0733        -2.98644
LJ           -4.7288        -3.73431        -2.66915
LJ          -2.99194       -0.970239         1.42602
LJ           -3.5984        0.867693       -0.632238
LJ          -1.16725        -4.27379        0.509059
LJ            5.3138        -5.34267        0.186153
LJ          -4.12264        -2.69912        -5.59801
LJ          -6.13815         2.82461        -3.52517
LJ          -4.03239        -3.62347         1.54914
LJ          -4.40231        -3.87566        -5.61043
LJ          0.848991        0.570701         5.44808
LJ          0.175393      -0.0509935        -5.05986
LJ           4.29475         3.46945         5.54459
LJ          -3.36481        -4.65603        -2.82273
LJ           5.40002        -4.46925         1.11115
LJ           1.21306       -0.248687        -5.83577
LJ           3.20938        -2.22474       -0.289368
LJ             6.407         -3.9358         4.08466
LJ          -4.28783        -1.71701        -2.87852
LJ          -4.37147        -1.72182        -4.03176
LJ          -5.91272         3.15438        -1.70824
LJ          -5.20794       -0.767126         4.39623
LJ          -1.62369        -2.44443        -2.91246
LJ           3.77053        -1.31478         6.30113
LJ           3.77128         5.05971         2.91791
LJ         -0.850527         3.22034         4.04143
LJ          -4.15978         2.16261        -1.05392
LJ           2.14293        -2.32904       -0.440817
LJ          -4.17763        -4.47118        -3.59867
LJ           0.65818        0.158202        -2.74194
LJ           3.89809        -4.80903        0.572102
LJ         -0.720786       -0.934222         3.85168
LJ          -5.28981         1.53244         -2.2592
LJ         -0.443769         -5.5362         3.37435
LJ           6.01189       -0.791902         5.38575
LJ           6.24279         1.89564        -4.24637
