108
#Comment!
LJ          -4.47826         5.23533         3.55215
LJ           -1.2055         3.51944        -4.49677
LJ          -3.26685         4.84992         3.94653
LJ           5.28738        -4.26778       -0.360454
LJ           3.28498       -0.983213         1.23669
LJ           1.17444        -4.23262        0.752393
LJ           3.29748       -0.364417        0.408069
LJ            5.1133         3.66489        -4.90054
LJ          -1.77525         2.95133         3.78459
LJ           6.05517       -0.435356         1.55338
LJ         0.0482405        -2.49219        0.592437
LJ          -2.06392         4.57306         4.49458
LJ          -1.32073         5.34992         5.01382
LJ           2.48362         4.09955        -5.54564
LJ          -1.45412        -5.45726         2.71141
LJ          -1.78598         5.39075        -5.91404
LJ          -2.60336       -0.185805       -0.567193
LJ          -5.94696         3.87943         1.72358
LJ          0.652925         2.43701        -5.41136
LJ           5.14665        -1.00039        -1.92051
LJ           4.53734        -3.50571       -0.895655
LJ          -3.77413        -5.18328        -3.45591
LJ          -5.10434         3.09178         1.11857
LJ          -4.16528        -3.32617          2.1174
LJ           5.54267         5.71189         5.41643
LJ           2.93783         2.96629          1.4161
LJ           1.26503         5.99353         5.35017
LJ           5.50773          3.9104         2.97832
LJ          -2.19743        0.789288       -0.111276
LJ        0.00753555         4.72339       -0.533045
LJ          -4.20704         1.39332         5.64294
LJ          -5.97217         1.60118        -5.94247
LJ          -0.37884          6.1691         3.14394
LJ          -4.48799       -0.672466        -1.28075
LJ          0.669023         3.40774         2.99705
LJ            4.4342        -4.50035       -0.968651
LJ          -4.79957        -2.03564         0.33671
LJ          -2.86306          3.9113        0.662687
LJ          -2.54422        -4.78136       0.0276068
LJ          -6.15431         1.81561         0.56675
LJ           3.64875        -3.82042        -5.50141
LJ           1.94863         1.05275         3.92445
LJ           5.65741        -6.17968        -4.23861
LJ          -3.38891         3.77762         6.33061
LJ           3.08799        0.620573        -2.23306
LJ           2.75534        0.524775         2.73426
LJ            2.5789         -2.0632         3.40047
LJ           1.52372        -4.74645        -1.85466
LJ           0.91941         1.86952        -1.81328
LJ          -5.41341         3.29128         3.15957
LJ          -5.88333         5.78221        -6.04172
LJ           3.61942        -1.88055        -5.56967
LJ          -5.90681        -0.66584        -2.25338
LJ          0.886608        0.602575         2.57454
LJ            2.4295        -4.42686        -1.35717
LJ          -3.26444        -2.20516         2.90486
LJ           2.89469        -2.07821         4.40014
LJ           5.30799       -0.981752         2.23565
LJ           3.02132          5.1194         5.88688
LJ           0.57275        -1.62544       -0.764743
LJ          -1.51196        -2.56627        -4.35882
LJ          0.902206         4.18803        -1.56899
LJ          -6.43011         5.88903       -0.556606
LJ          -6.33861        -5.89636         1.85784
LJ          -4.39058        -4.55743        -4.03415
LJ            2.6598         1.08567         1.95615
LJ           1.81856         2.61216        -3.79432
LJ            2.4006         1.92033        -1.55051
LJ          -5.07091         5.55944        -3.11602
LJ          -3.79534        -5.84709        -2.42361
LJ         -0.682948         2.32819       -0.657176
LJ           5.62369        -6.44645       -0.942554
LJ          -5.26598        -4.90067         2.18672
LJ          -5.30443        -2.54217        -1.82955
LJ          -4.12157         5.65632         1.90588
LJ          -4.64434         3.70648        -4.35206
LJ           4.32476        0.459098        -2.41911
LJ           -3.3424         2.03173        -5.11646
LJ           2.43144        -3.02759         5.08721
LJ           4.65314        -4.52395         1.95685
LJ          -5.16515         2.33434        0.428393
LJ           3.82124         6.37124         1.94895
LJ           6.23428         4.84393         1.56752
LJ           2.90624         3.08383          -5.817
LJ          -6.41002        -2.84952         2.66743
LJ            5.7265          0.2119        -1.46691
LJ          0.136775         3.59842       -0.778932
LJ          -6.40511          2.5155         1.35837
LJ           6.13661         1.29706         1.53833
LJ           4.64026         4.94053         4.96052
LJ           4.91206         -5.7275         4.14781
LJ         -0.331769        -5.68933        -5.53062
LJ           4.97332        -2.90138         5.21985
LJ           5.70411         3.79578        0.936154
LJ           2.90249        -4.56181        -2.62606
LJ           3.89711         6.44452        0.915531
LJ          0.794603        -5.78215        -4.68984
LJ          -4.59917         5.73036        -6.40686
LJ          0.149443         4.75699         6.32166
LJ           3.62576         2.37305       0.0846587
LJ          0.662497         3.03585        0.510993
LJ           4.47515         2.77414         2.93249
LJ           5.31191         5.45758        -2.93275
LJ          -2.94268        -1.18261         6.24277
LJ           4.40376          3.7558        -5.66904
LJ           6.30966        -3.59384         4.66726
LJ           5.78826       -0.548375         4.17827
LJ           5.31494        -4.95837        -5.17683
