108
#Comment!
LJ           -4.3224        -4.60378        -6.20529
LJ          -2.18248        -6.26477        -4.59746
LJ          -5.91518        -5.40442         6.37226
LJ         -0.327514        -5.98833        -3.80973
LJ           1.02263         4.53435        -6.36335
LJ            4.9944        -3.90309         4.81649
LJ           -5.2193        -5.43257        -2.89928
LJ          0.375971        -5.59134        -2.95208
LJ          -5.92005         5.57318         5.98095
LJ           0.65479        -3.72796        -3.80362
LJ           2.04867          3.1288         6.03949
LJ           2.32594         5.46426        -4.36898
LJ           3.83224        -2.68431        -4.27499
LJ          -2.37201         1.51935         6.23658
LJ          -5.56173         3.94852        -1.77672
LJ          -5.27636        -3.81637        -2.35854
LJ          -1.53882        0.657995         -5.1174
LJ           1.68958        -4.03981         5.20315
LJ           -1.8109         2.76966        -5.03063
LJ           1.91234        -2.20482        -3.67515
LJ           3.55347         -2.2623        -5.60276
LJ           2.51023          3.8477        -4.10637
LJ           4.01217        -3.50051        -1.25124
LJ          -4.76679        -2.23344        -2.48993
LJ           5.51902          2.2304        -4.97356
LJ           5.61138         4.93331         5.52732
LJ          -5.48614         1.78948        -4.85649
LJ          -4.55311         3.81137        -4.13826
LJ          -2.70064        0.118503        -3.98323
LJ          -4.45967         3.73602         5.87776
LJ          -4.18437         5.68256        -5.62855
LJ          -4.00598         2.16116        -4.43786
LJ           2.66598         1.28572        -1.47038
LJ           1.14548         1.63487        -5.90194
LJ           0.74936         3.76337        -4.69128
LJ           1.37265         6.41902        -2.61653
LJ          -3.94645         3.80681       -0.427814
LJ          -4.58263         6.18209        -2.37063
LJ          -5.20306         3.90567       -0.375303
LJ           -5.1844        -4.02205        0.931615
LJ         -0.395293         -5.2989        0.389585
LJ          0.486018        -2.17514        -4.57759
LJ          -4.24112         0.93944        -1.74134
LJ          -1.18779        -5.88032        -1.95876
LJ          -2.10245         -5.2705         -2.9923
LJ          -2.64309        -2.21227       -0.940113
LJ           2.62299        -4.05951         -2.3113
LJ           2.90212        -5.42699        0.272623
LJ           3.97657         4.00026        -1.99143
LJ          -2.68096         1.79168         -5.1125
LJ           4.34575        -1.87312        -2.13207
LJ           6.41163       -0.400114        -4.40833
LJ         -0.216435        -3.50015         3.21804
LJ           -1.2877         3.14109        -2.35817
LJ         -0.231669         -1.5508       -0.416458
LJ          0.363775        -4.22923          2.5976
LJ           2.30993        -4.43321        -3.91963
LJ           4.97518         1.51631        -3.54479
LJ          -1.01307        -1.91682        -1.65483
LJ           2.13504        -1.03238       -0.530071
LJ           -6.4174         5.60437        -2.16381
LJ          -3.52781         3.63452        -3.29289
LJ           1.63973         4.47618      -0.0733824
LJ          -4.77681       -0.716982        0.267903
LJ          -2.78995        0.121456         1.61292
LJ         -0.410739         2.51663        -4.32971
LJ          -1.04384        0.632063        -1.48745
LJ           1.58625         4.77624        -3.00776
LJ          0.343193         3.80286        -3.78721
LJ           1.10749         4.32334        -1.06494
LJ         0.0958162         3.57257         1.60417
LJ           2.85842         4.88072         1.74877
LJ          -5.56428          -6.088          1.9832
LJ          -5.04026        -3.57643         4.87179
LJ          -5.84686        -1.48332         3.66349
LJ          -5.17932         4.50629         2.26611
LJ          0.984141         4.10835         4.64707
LJ         -0.412301        -4.84854         4.03247
LJ           1.93773        0.916744          4.6631
LJ           1.36801        -4.89423         3.59011
LJ         -0.662308          4.9089        0.673243
LJ            5.1184        -5.19129         1.16658
LJ           4.05273        -5.42144         3.46548
LJ           3.61548         5.24396         5.61768
LJ           5.81405        -3.22692         2.29167
LJ           5.46129       -0.512966          1.5738
LJ          -4.93555         1.55851         4.43286
LJ           5.96007        0.461785         1.64098
LJ          -5.73454         1.22569         1.31035
LJ           -2.3921        -4.77411         3.69402
LJ           1.25008        -2.00672         3.43845
LJ           1.46966        -2.64876        -4.46106
LJ           3.67689        -3.68628        0.644763
LJ           4.00555         1.26612         2.16095
LJ          -6.32351          2.7305         3.30045
LJ           4.54199        -1.99732         1.71972
LJ           5.76155         2.12809        0.488504
LJ           -4.8102         6.28883         2.69732
LJ          -4.08533          2.7124         5.10949
LJ         -0.752897         2.14754         1.31889
LJ          -1.68361         1.34755         2.13624
LJ         0.0175306         4.57317         1.66112
LJ         -0.636951         3.80444        -6.11479
LJ          -1.37384         1.64097        -5.14906
LJ           3.19473          4.0183         2.83832
LJ           5.84201         1.81582         2.06831
LJ          0.302958         1.71642         3.62414
LJ            5.5357        0.111555         5.80938
