108
#Comment!
LJ           2.12209         2.64397         1.92297
LJ           2.12327        0.919354         1.51848
LJ          -4.18046        -0.49422        -3.70082
LJ           5.17243        -3.28399         0.23584
LJ          -2.00873        -6.23022         1.10447
LJ          -5.49528        -3.69878         -6.4558
LJ           -4.7761        0.316457        -3.91564
LJ           5.30484        -4.22952        -2.88847
LJ           5.32681         4.87766         6.35941
LJ           4.25273        -4.93979         2.47035
LJ          -1.68169         2.15633         1.80873
LJ           -4.6508        -3.52296         5.78027
LJ          0.638149        0.887103       -0.337687
LJ           2.58893        -2.43954         5.70911
LJ           -1.3988        -1.76458        -5.28303
LJ          -2.78189        -4.46516         5.36876
LJ          -3.13236        -4.32297       -0.337094
LJ          -4.94183         2.81613         2.12665
LJ           4.62722        -2.25842        -4.07132
LJ          -1.39604        0.701567        -2.66745
LJ          -3.73885        -3.92164        -5.06333
LJ           3.10652         3.99381        -2.63652
LJ            6.2977        -5.93607         5.47837
LJ          -4.31789         2.78647        -2.78736
LJ           3.44861         4.40433         5.45893
LJ          0.113321         4.76081       -0.339847
LJ          -5.76385       -0.889836         5.20276
LJ          -3.96458         3.21029        -5.12844
LJ           -4.7255        -4.74971         6.00334
LJ         -0.225183          3.7249         1.78176
LJ          -2.63715         1.30852        -4.56171
LJ           -4.0915         6.26694        -6.42427
LJ          0.177736        -2.81939         4.03258
LJ            4.1009         0.14335        -1.08089
LJ           5.39701         1.47219        -3.25875
LJ           5.28702         2.70733         2.40463
LJ           4.24671         1.06901         1.16341
LJ           2.36756        0.326184        -2.34323
LJ          -2.05292       -0.288596          2.0911
LJ          -5.67097         3.57048        -2.65546
LJ           5.15659        -2.46298         5.87723
LJ          -6.46115         1.51745         0.90325
LJ          -2.19032        0.197971        -3.38881
LJ         -0.899648         5.09623         3.04309
LJ          0.806457       -0.943513         1.05451
LJ          -5.61747         1.16881        -5.17455
LJ           4.20761        -5.37148         5.56222
LJ          -5.33502         1.88257        -1.34634
LJ            5.9266         3.98512        -5.91603
LJ          -1.23961        0.899114         3.44364
LJ           4.70278        -1.65024        -4.90054
LJ           2.20706        -6.09401         1.56613
LJ           3.32246         3.54307        -4.60848
LJ           6.01666         4.95142        -5.62059
LJ           5.78953         2.85275        -4.88469
LJ           2.10783        -3.33311       -0.944735
LJ           2.86239         -5.2979       -0.559324
LJ           4.62088        0.577674         3.49996
LJ        -0.0426815         1.33861        -5.63554
LJ           3.76858         4.32177          1.8246
LJ          0.568827        -1.20727        -1.45888
LJ          -3.20009         2.73389        -1.83246
LJ           -4.3004         4.31778         -1.9778
LJ           3.79045        -2.70276         5.99535
LJ           0.55803         2.81304         -1.2239
LJ             1.232        -1.68807         3.84522
LJ           2.58511         6.10206         4.89751
LJ           3.03625        -1.45764         -1.7944
LJ           -1.7191        -3.47519         3.96861
LJ          -2.25429         4.27241        -3.50938
LJ           1.63817         2.96532        -4.53638
LJ          0.615476         6.01022       -0.270865
LJ           6.15619        -5.32545        -3.08815
LJ          -4.93285         -3.7921        -2.67235
LJ          -3.02905       -0.251231         1.27662
LJ          -4.42432         1.13549        -1.01568
LJ            -1.073        -3.69253         0.78176
LJ           5.00208        -5.24206      -0.0283932
LJ            -4.041        -3.11658        -6.34809
LJ          -6.23449         2.53474        -3.40292
LJ          -4.09142        -3.52387         2.03448
LJ          -4.43862        -4.06756        -6.24721
LJ          0.985597        0.244017         5.11729
LJ          0.333543       -0.149002        -5.64216
LJ           4.12668         3.09311         5.88941
LJ          -3.80131        -3.55272        -2.59194
LJ           5.54763        -4.04929         1.43512
LJ          0.856489       -0.576796        -6.45094
LJ           3.17727        -2.92661       -0.105188
LJ           5.94587        -4.14016         3.63224
LJ          -4.57566        -2.26789        -2.76703
LJ          -4.25611        -1.85978        -3.80446
LJ          -5.81205         2.92516        -1.43512
LJ          -5.17017       -0.421465         3.94023
LJ          -1.34308        -1.99189        -3.12793
LJ           3.56453       -0.926412         -6.2025
LJ            4.2136         4.73162         2.68788
LJ         -0.390858         3.20864          3.6196
LJ          -3.37018         1.84091        -1.10615
LJ           2.33647        -2.10146        -1.06517
LJ          -4.34782        -3.99435        -3.74718
LJ           1.12662        -0.91403        -2.40188
LJ           3.76293        -4.86051        0.166957
LJ         -0.722854         -1.0082         3.62741
LJ          -5.35007         1.95716        -2.55913
LJ          -0.89834        -4.67745         3.15005
LJ           6.34384       -0.415168         5.54748
LJ           6.42344         1.64958        -3.85922
