108
#Comment!
LJ          -1.02499       -0.991623         5.11644
LJ          -3.31286       -0.288798         5.52463
LJ           5.63607         6.46248          6.2323
LJ           4.71599         2.88665         1.63342
LJ          -1.02899        -2.16246        -5.67037
LJ          -3.84041         2.25939        -4.82394
LJ          -4.25759         2.14719       -0.943835
LJ          -3.62963        -6.25006        -1.98842
LJ         -0.332127        -5.76235           2.205
LJ         -0.810933         3.68628         3.41105
LJ          0.469498         2.85481        -1.42805
LJ           -3.7082         0.80047          2.4688
LJ          -2.84719           5.705        -2.12077
LJ          -2.82863         0.68408        -5.39124
LJ           5.32625        -2.36053        -1.36591
LJ        -0.0748483          2.4161        -3.38923
LJ          -1.31044         1.10034         5.38716
LJ          -6.35716         5.17571        -5.15892
LJ          -6.37355         1.69732          4.5676
LJ          -1.87652       -0.604608        -4.20324
LJ           3.96372         4.28563        0.238466
LJ          -6.13161         -1.0788        -3.11347
LJ          -4.66773         6.41918        -2.91849
LJ           5.81791        -4.65933          2.1175
LJ           5.09118         5.05683        -1.68992
LJ          0.637433        -5.76021         3.71983
LJ           3.57468        -5.71079         1.34447
LJ          -3.20382         5.47884         3.39301
LJ          -1.66654        -4.98589        -5.41991
LJ          -5.80233        -0.55937         4.73493
LJ           3.36535         2.69001         1.58565
LJ         -0.954336         1.55435         3.62084
LJ            4.3708         1.44362       -0.443312
LJ           1.29544         3.36781        -4.09771
LJ           3.76304         5.04087        -2.90922
LJ          -1.36234        -2.92372        -2.12741
LJ         -0.418499         5.07526        -3.34371
LJ           2.88169        -5.15195        -1.36397
LJ          -4.38614          4.5863        -5.05086
LJ           3.29217         2.85832        -1.10115
LJ           6.33762        -5.15875        0.801314
LJ           3.21599         3.43401          5.0258
LJ           2.67293         3.60613        -6.18678
LJ           3.43512          1.9577         4.90065
LJ          -1.00214        -2.31195         3.37884
LJ           4.45661        0.748096         4.94947
LJ           5.90484         2.32523         5.65827
LJ          -1.50499         1.64739         2.04982
LJ          -4.38363         4.35085        -3.17131
LJ           2.57433         6.25238         1.17126
LJ           5.45547        -4.96947         5.61871
LJ          -1.20894          5.0443         2.24878
LJ           1.30835       -0.183266        -3.02684
LJ           -2.1856         1.20739        -3.11219
LJ          -5.22557         5.16087        -4.47065
LJ          -6.28365         3.70339         5.44156
LJ          -6.02555         4.85795          1.0533
LJ           1.24217        -4.08313          5.8286
LJ         0.0184799         3.01673         5.82458
LJ         -0.913204        -6.16753        -5.02338
LJ          -6.28087       -0.635733        -6.30323
LJ          0.351718        -4.57333        -1.11686
LJ          -3.48423       -0.827573        -2.09159
LJ           4.81973         1.50161         3.42055
LJ           3.50206         6.31207         2.19385
LJ           3.31497         2.93082         -2.8226
LJ            2.7761         1.37934         6.16414
LJ           -1.7083         1.92467        -1.67318
LJ           1.29903        0.451916        -3.76119
LJ           4.07703         3.00772         4.93094
LJ           1.57819         1.39577         5.59753
LJ           2.54094         3.81011         1.22017
LJ         -0.133282         1.18586        -2.69937
LJ          0.399912         3.90077         -2.5032
LJ          -4.24395         0.89699         1.43544
LJ          0.765254        -5.35083       -0.399995
LJ           3.28246         3.19366         2.43154
LJ           2.54184        -3.45011         4.84534
LJ           5.81633        0.254516         -6.1301
LJ           4.80687         1.03108          -3.251
LJ         -0.579242        0.698513        -4.77238
LJ          -6.06712         2.18207         5.88538
LJ           2.98065         4.35559         4.27195
LJ           -6.2097        -4.63528       -0.827599
LJ          -3.20445       -0.038834       -0.516295
LJ          0.860243        -1.58139        -3.62665
LJ           6.35277        -2.42014         4.76033
LJ           2.58269        0.829899        -3.70956
LJ           -5.2164        -3.86319          1.5621
LJ          -3.31199         2.37519        0.835194
LJ           2.63692         6.01686       -0.717444
LJ          -0.95486         6.00364        0.710674
LJ          -3.61873         5.85607        -3.11638
LJ          -2.53155         1.78069         4.41765
LJ           5.45774          1.1711         1.20179
LJ            5.9134         5.17954         1.84908
LJ           6.26238       -0.857344        -1.74019
LJ           2.67075        -5.36563        0.803362
LJ           1.86137       -0.950264         4.85934
LJ          -4.30457         4.23631        -1.81156
LJ           4.16023        -1.79277        -2.10752
LJ           5.31906        -5.76662         2.52909
LJ          -3.57987        -3.19343         1.91502
LJ          -3.35794        -2.11065        -2.41672
LJ          0.897185         5.25855        -5.49593
LJ           5.59172         2.92386          2.8492
LJ          0.331642        -1.30911         6.35419
LJ         -0.993379        -3.75699        -3.77794
