108
#Comment!
LJ           -2.3131         5.04105       -0.338746
LJ          -5.21318         3.89337        -5.02516
LJ          -5.17877         5.57161        -6.02725
LJ           6.05622        0.567583       -0.191264
LJ         -0.353087        -2.96509         3.23655
LJ          -4.10776         2.17885        -2.81974
LJ          -6.02043         3.80666         2.18062
LJ          -1.30936        -2.40086        -3.64263
LJ          -2.11821         3.32228         1.50454
LJ          -2.17603         2.97641         2.65985
LJ          -2.37619         1.38347        -1.96465
LJ         -0.380473         3.72607         3.31558
LJ           1.14626        -5.46152         -2.9272
LJ          -3.81519         2.00333        -1.27998
LJ          -5.49919        -3.94476        -3.68342
LJ            1.5954         3.22512        -2.25837
LJ          -1.49599        0.767439         6.32504
LJ          -4.44136         3.07279        -2.18428
LJ           4.66294       -0.726403         4.31648
LJ         -0.776064         4.57389        -4.28156
LJ          -1.28877         -2.2954         3.64233
LJ          -1.85985        -4.49663        -6.45247
LJ          -1.27196         6.34196        -5.13514
LJ           4.76865         1.00064        0.180588
LJ          -5.80237         4.72608         0.99866
LJ            2.5844        -4.81572         2.76387
LJ         -0.363623         -6.1377       0.0170866
LJ           3.41626         4.56112         5.17742
LJ           2.39042        -2.58812         3.14165
LJ          -6.24385         2.72323         2.18374
LJ          -2.07327        0.697076       -0.987142
LJ          -4.97811        0.423837      0.00395692
LJ           2.17875         2.19633         2.65462
LJ           1.91826        -5.79008         5.24635
LJ          -5.85282         4.57315       -0.161017
LJ          -2.39727       -0.626497        -6.05534
LJ           6.32533          1.9066        0.888142
LJ            4.1879         3.11437       -0.226184
LJ          -4.24534        -4.76029        -4.94586
LJ           3.81675         1.82828         -2.2071
LJ          -6.24004        -6.38131         3.55464
LJ           4.36458        -5.77996         4.23738
LJ          -1.65695         4.10678        -3.95133
LJ           2.72651          4.9133        -1.34736
LJ         0.0442203        -4.56494         6.30335
LJ           2.33898       -0.949389         3.35182
LJ           6.18184        -5.61832         5.69176
LJ            3.0429         5.04358         1.48872
LJ          -2.00014        -5.78739         3.34374
LJ          -6.12744         2.56976         -3.6408
LJ           4.25884        -4.72455         2.18346
LJ          0.821609         3.08945         2.79848
LJ           1.64817         1.84903          1.7339
LJ          -1.27339         -2.7793        -0.86455
LJ          -4.64761         3.72883         -3.2302
LJ           4.19451        -5.43469        -4.07212
LJ          -5.82529         5.48163         3.37323
LJ         -0.213477         6.11267         4.75108
LJ           -1.2268       -0.158364          4.0496
LJ           -2.4642          6.4175        -6.01365
LJ           5.05552       -0.694875          5.6103
LJ          -1.66855         3.05711         5.02709
LJ          -2.56608        -1.54905        -1.28549
LJ            1.7872         3.70366         3.76471
LJ           5.28947         5.97686          4.4368
LJ            1.0879         2.21667        0.301525
LJ         -0.513463       -0.201997         5.13311
LJ          -2.86254        -5.36448        -2.45818
LJ         0.0800349         4.18695        -4.87686
LJ          -4.88159        -0.26181        -2.31078
LJ          -1.84766         1.71193        -4.98792
LJ           1.70197        0.695419        -1.62786
LJ          -2.97373       -0.342531         -2.8935
LJ           1.76052        -2.51085      0.00624063
LJ          0.831892        -4.44495         0.43823
LJ         -0.458111        -2.64561         2.20534
LJ           6.29679         3.24995          3.4746
LJ           2.02587        0.172044        -5.14955
LJ           4.59398        0.998963         4.04114
LJ           2.34675        -3.75532        -1.67273
LJ          -4.82746        0.249161         5.96055
LJ           4.89341         5.81924        -5.70071
LJ          -5.28688         4.58147         3.08048
LJ          -6.33149         6.05752        -4.07081
LJ         -0.551044          6.3932        -3.20206
LJ           5.53504        -4.04434        -3.97556
LJ          -3.76793       -0.404634         4.10501
LJ          -1.63534         2.04718        0.455376
LJ          -3.96946        -4.92686        -6.22591
LJ           2.81762         3.11586         3.05117
LJ           1.97707        -4.86523        -1.81793
LJ         -0.895466        -5.27548         1.83462
LJ          -4.36273         3.91083         4.69321
LJ          0.957897       0.0643035         5.75662
LJ           5.51219         1.47543        0.466145
LJ          -2.95509        -5.34378          5.7815
LJ           5.75947       -0.609734         3.61285
LJ          0.736457        -3.06612         4.48065
LJ          -1.23262        -3.19274         4.12195
LJ          -2.83065         4.13796        -6.13877
LJ           3.64111       -0.371749        -3.43929
LJ           3.37729        -4.71652        0.678664
LJ          -4.28659         -1.1797        -1.62967
LJ          -3.29291        -1.17096        -2.45272
LJ          -1.38496         4.24503        0.773301
LJ            5.5568         -2.7793        -4.32049
LJ          -4.78042        0.926289         4.44896
LJ          -1.28205       -0.822397        -3.03383
