108
#Comment!
LJ           2.32514        0.932069         1.77029
LJ           2.87454        0.638507        0.356825
LJ          -2.55473       -0.987066        -2.68434
LJ           6.16961        -4.31978        -1.05626
LJ          -1.86606        -5.71462         1.74359
LJ            5.4567        -3.07996        -3.60964
LJ          -4.20758        0.221753        -3.61517
LJ           6.44447         -5.0155        -2.30813
LJ           4.01007         3.30966        -5.81641
LJ           4.99586         4.96957        0.930882
LJ          -1.90857          1.7254          3.8883
LJ          -5.11255        -4.82768           4.709
LJ          0.301347         3.00436        0.282055
LJ           3.60406        -2.94509          3.3972
LJ          -1.37341        -1.92579        -3.25304
LJ          -1.69338        -5.40955          4.2746
LJ          -4.12379        -3.55752        -3.29274
LJ          -3.46293          2.9839         2.28056
LJ            5.8549       -0.393461        -2.50682
LJ          -1.59376        0.696927        -3.33264
LJ          -4.90717        -3.52065         -4.9343
LJ           4.21594          5.7959        -3.14593
LJ           5.66971         4.47055         -5.7257
LJ           -4.2767         1.76028        -1.03204
LJ           2.65586         6.37113        -4.79521
LJ          0.249197         3.52043       -0.627027
LJ          -5.12134        0.640698          4.4369
LJ          -2.96335         3.42768        -6.37013
LJ          -4.77276        -5.74387         4.38272
LJ           1.73725         4.46411         1.89401
LJ          -3.19343         1.44522        -5.06639
LJ          -4.69848         4.57232         6.17827
LJ          -1.05431        -3.25174        -6.13871
LJ            3.8854        0.589716        0.243319
LJ           5.18044         0.27105        -3.07931
LJ           5.66818         3.45653         3.55178
LJ           2.42395         2.83262       -0.722254
LJ          0.794855         1.83368        -2.39436
LJ          -4.14834        -1.81821        0.810782
LJ           -5.0656         3.45047         -2.2477
LJ           4.93375       -0.543329         5.03601
LJ           4.69803         1.61482        0.692507
LJ          -2.95613      -0.0508225        -5.03803
LJ          0.245757        -4.93379         5.19418
LJ            1.7407        0.185187         2.24058
LJ          -5.02509         2.06596        -4.42109
LJ           4.20767        -3.48282        -6.26898
LJ           5.67073         2.06883       -0.386184
LJ          -4.70294         4.53135         4.98436
LJ          -2.70565         1.07577         4.56591
LJ          -5.86742       -0.619663        -4.33929
LJ           0.11089         4.90718        0.726566
LJ           4.53705         2.11066        -5.19903
LJ          -5.10201         5.05978        -2.52785
LJ           6.05949         1.31057        -3.46136
LJ           1.07478        -3.97755       0.0830058
LJ           1.76354        -4.79536       -0.619949
LJ           5.19662        0.225488         2.01519
LJ           2.28797       -0.340369        -5.57928
LJ           4.44491         4.24656         1.30627
LJ          0.820995        -1.71463         0.57347
LJ           -3.0059         3.96723         -1.4339
LJ          -3.57446         4.25109         -3.3974
LJ           4.30326        -1.84581        -6.11967
LJ           2.64023         4.10962        -1.69878
LJ         -0.259995        -4.01544          5.2248
LJ          0.734422         5.81554         2.64649
LJ          0.981937        0.501799        -1.16329
LJ          -3.42052        -5.80244         2.74489
LJ          -2.54435         5.35271        -3.58922
LJ          0.677507         2.27052         -4.4834
LJ          0.826698        -4.90506       0.0218646
LJ          -6.20892        -5.59606          -3.242
LJ           5.60585        -4.12575         -3.3182
LJ          -2.78977         2.09691         1.14883
LJ          -5.48723        0.975765        -2.00299
LJ         -0.803699         -1.7341         1.79649
LJ           3.86432        -4.67397       -0.668234
LJ           -3.0113        -3.64222         4.72429
LJ           6.02119         2.43143        -2.77995
LJ          -4.25864        -3.20699         3.69697
LJ          -4.76399        -4.86589         5.98776
LJ           1.25455         -1.1275         4.42741
LJ           0.61624       -0.648169          5.1197
LJ           3.35867         2.09939        -6.13223
LJ          -3.25871      -0.0985326        -2.44235
LJ           5.86212        -2.65162         2.38039
LJ        -0.0242308         -1.4165         4.00133
LJ           2.71423        -5.56308      0.00688147
LJ           4.39223        -4.77411         1.96783
LJ          -5.31679        -3.74001         -2.8411
LJ          -3.71514        -2.16287        -2.63877
LJ          -4.82496         2.57159        -1.66026
LJ          -5.23828        0.579109         2.94617
LJ         -0.609846       -0.497462        -4.06929
LJ           2.84284        0.245399        -4.78273
LJ           5.59772         4.05991         1.87488
LJ          0.793036         2.30757         3.55781
LJ          -1.47183       -0.100641       -0.495916
LJ            4.3722        -2.84492        -1.26021
LJ          -5.14735        -2.16809        -3.64456
LJ           1.66436        -3.39226        -3.35641
LJ           2.75417        -5.07301        -1.53588
LJ         -0.720429        -1.25943         2.86347
LJ          -4.61802          1.0523        -3.01231
LJ          -2.48878        -1.68606         2.42141
LJ          -6.43893         1.41477        -6.44988
LJ          -5.72863        0.770816        -2.92766
