108
#Comment!
LJ          -3.02824        -2.38171         1.56097
LJ          -2.26971         3.04329        -4.81063
LJ           5.75204        -4.88184         4.71474
LJ           6.30355         -1.4238        0.501037
LJ           6.29755        -5.71471       -0.704151
LJ          -6.12134        -4.30517        -1.17385
LJ           1.41709       -0.927544        0.271461
LJ           -5.3621         -3.5131        -2.34835
LJ         -0.776166         4.24604         4.32705
LJ           2.45345         2.88494         1.99317
LJ          -3.29878         -1.0393       -0.678077
LJ          -4.91258        -1.66302         5.38273
LJ          -1.34919         3.21003         1.66154
LJ          -5.67006         2.65894        -4.55074
LJ           -1.5048        -3.00659         6.31491
LJ          -2.00617        -4.82379          -5.716
LJ          -2.83716        -0.83285         1.99458
LJ          -2.92556         3.75969        0.866698
LJ          -1.90973        0.941814         6.23868
LJ           5.19141         -1.6334         1.03001
LJ           5.00594        -2.55795         1.29418
LJ          -2.35674        -4.45538        -4.12153
LJ          -1.31974         1.81319          2.1554
LJ          -5.58832        -3.69488         5.91542
LJ           5.67191         2.89759         2.87531
LJ           1.29574         5.42098         1.89732
LJ          -1.92543         2.09395        -6.36105
LJ           -5.7884         4.57749         2.82906
LJ          -3.98201        0.713324         1.35968
LJ           5.43636         3.99288        -1.85092
LJ          -4.01173        -2.19742         4.93531
LJ          -4.57558         2.12074         4.65046
LJ           4.05298        -4.56625         1.28582
LJ          -4.41996        0.749065           3.219
LJ          -1.78814         5.66395       -0.914147
LJ           -5.0044         5.74466       -0.299469
LJ          -1.49549        -2.70832       0.0984828
LJ          -2.57486         3.17386         2.76961
LJ           -3.6877         4.64871        0.778921
LJ           2.93084         4.04213         4.26717
LJ           2.02862          5.4683         -4.8201
LJ          0.848702         0.36977         2.26885
LJ           5.12077        -5.49692        -5.46106
LJ          -6.21047        -2.29367        -3.45793
LJ          -2.32596         4.45803        -1.76028
LJ          0.947321        -5.00707        -5.83577
LJ           2.72156        -1.88086        0.100052
LJ           2.64162         6.31938        -4.50013
LJ           3.12048          3.6443        -1.01329
LJ          -2.12826        0.312482       -0.916119
LJ           6.16207       -0.344847        -3.52949
LJ           3.41674         1.92104        -3.72555
LJ          -6.20846         -2.3039        -4.86847
LJ          0.704082         0.61713         5.88928
LJ           1.21701         6.19709        -4.85324
LJ           4.36563         2.03207         1.08081
LJ           2.76199       -0.975296         1.05857
LJ           3.49083        -2.17876        -5.04636
LJ           2.85552         5.39852         5.27074
LJ           3.41395         -2.8919       -0.038597
LJ           2.05106         1.66732        -5.29096
LJ         -0.178989         2.17559         1.09394
LJ            1.5229          3.6906         1.70954
LJ           6.00496         4.44911         2.19682
LJ           2.91954        -3.18813        -4.77674
LJ           4.24701         5.56584         2.56074
LJ           3.77632        -4.45653         -4.8605
LJ           1.26234        -5.76732       0.0851748
LJ           4.05075           4.356        -4.22147
LJ           6.01184         6.37051        0.682394
LJ         0.0328028        -1.40257         3.25567
LJ           5.01838        -2.55878        -2.23957
LJ          -4.83558        -3.36339         4.03824
LJ          -3.16581         5.57452        -1.80633
LJ          -3.23073        -2.64598        0.561278
LJ         -0.356537        -5.80778        -6.06823
LJ         -0.919509         4.32775        0.987243
LJ          -3.39675         1.45167        -2.59771
LJ         -0.911718        -5.64517         4.96767
LJ          -4.76695         5.32038         2.30886
LJ          -3.53933         2.14006        0.453888
LJ           1.61097         4.69651         5.17889
LJ          -5.87027         5.18075          3.6699
LJ          -4.83744         2.09082         -4.8485
LJ          -5.83835         -3.1282         3.56298
LJ           5.72992        -4.69823        -3.91219
LJ          -1.17453         5.51738         2.01672
LJ          -3.97018         3.27013        0.555542
LJ           5.87943         5.02239         1.02957
LJ           5.34289         5.07998          2.9216
LJ           5.94603        -2.89614         2.47307
LJ           1.05026         4.17973         4.02511
LJ         -0.307233         -3.3727         5.92868
LJ          -6.16754         1.28357        -2.46977
LJ          -3.31788         1.62197        -1.29405
LJ           5.66804        -5.18527        0.141155
LJ          -3.54485        -3.33038         3.10034
LJ           5.50402         5.92646        -4.44568
LJ           1.85714      -0.0886494         5.92109
LJ           5.51995        0.171911        -1.73447
LJ           5.46864         5.07621        -1.24822
LJ          -1.48683         1.15828         3.04474
LJ          -5.96553       -0.911707        -5.98263
LJ          -2.83677        -3.23938         5.85973
LJ          -6.15834         1.97143        -3.92651
LJ          -4.66014        -4.81275            6.07
LJ            1.4114        -2.80848         3.78937
LJ           5.28869        -3.75803         -6.1149
