108
#Comment!
LJ          -2.90501          -1.896         1.48584
LJ          -2.34234         2.93689        -4.61654
LJ           5.53335        -4.90751         5.03033
LJ           6.38123        -1.11827        0.415845
LJ          -6.30267        -6.08839       -0.814046
LJ          -5.77171        -4.46037        -1.06938
LJ           1.36205        -1.19898        0.286258
LJ          -5.33384        -2.99953        -2.03535
LJ         -0.581958         4.40127         4.32734
LJ           2.33401         3.26053         2.07869
LJ          -3.57379       -0.897362       -0.778686
LJ          -5.34359        -2.39591         5.37062
LJ          -1.58457         3.10136         1.28245
LJ          -5.26299         2.53522        -4.44682
LJ          -1.65571        -2.79798        -6.29543
LJ          -2.05256        -4.56063        -5.59869
LJ          -2.79645         -1.0323          2.0863
LJ          -2.82988         3.78472        0.636378
LJ          -2.14048        0.872258         6.10682
LJ           5.29557        -1.38923         1.23589
LJ           4.54953        -2.68366         1.05981
LJ          -2.22743        -4.38716        -4.23125
LJ          -1.00898         2.11143         2.04386
LJ          -5.60603         -3.6443         6.29026
LJ           5.84728         2.64645         2.72168
LJ           1.21596         5.76039         2.00722
LJ          -1.95904         1.80269        -6.34656
LJ          -5.65557         4.77451         2.98721
LJ          -4.14043        0.668643         1.56471
LJ           4.76131         4.00845        -1.90275
LJ          -3.99803        -2.50558         4.88953
LJ          -4.47275         2.14692         4.41226
LJ           4.49345         -4.4063         1.11291
LJ          -4.46137         0.91777           3.576
LJ          -1.98644         5.98563        -1.21191
LJ          -4.94184         5.37105      -0.0974847
LJ          -1.22921        -2.73171         0.17143
LJ          -2.46246         3.06018         2.99449
LJ           -3.7365         4.44156        0.799966
LJ           2.46114         4.27016         4.63637
LJ            2.0643         5.39872        -5.27854
LJ          0.556115        0.184912         2.30276
LJ           5.08429        -5.34373        -5.59503
LJ          -6.43319        -2.82997         -3.2533
LJ          -2.49806         4.39824        -1.58219
LJ          0.843704        -5.43201        -5.44163
LJ           2.79183        -1.92835        -0.21661
LJ           2.69203         6.10686        -4.66962
LJ           3.31828         3.39047       -0.551015
LJ          -1.98205       -0.354262        -1.20621
LJ           5.88493       -0.824553        -3.36633
LJ           3.39769         2.25266        -3.57136
LJ          -5.83586        -2.22643        -4.76867
LJ          0.782213        0.545545         6.28224
LJ           1.09676         6.16858        -5.28077
LJ           3.90565           2.405        0.915216
LJ           2.69852       -0.906901        0.708117
LJ           3.24364        -2.33287        -4.49312
LJ           2.80731         5.51852         5.19326
LJ           3.59873        -2.84906        0.133814
LJ           2.34736         2.02707        -5.22209
LJ         -0.153543         1.79081        0.225514
LJ           1.04376         3.34961         1.81924
LJ           5.89086         4.33433         1.97323
LJ           2.50178        -3.08915        -4.99807
LJ           4.57482         5.94946         2.57561
LJ           3.90854        -3.91229        -4.82913
LJ           1.13779        -5.38027        0.262099
LJ           3.78731         4.13742        -4.27437
LJ           5.73798         6.43011        0.887637
LJ           0.10189        -1.83152         3.54731
LJ           5.15992        -2.18823        -2.24386
LJ          -4.64017        -3.19511         4.30683
LJ          -3.10638         5.57711        -2.01539
LJ          -3.12715         -2.2388        0.363659
LJ         -0.130495        -5.34033        -6.00436
LJ          -1.60092          4.7881         1.18105
LJ          -3.26828          1.2749        -2.24792
LJ        -0.0641621        -5.83621         4.93512
LJ          -4.45555         4.93354         2.44074
LJ          -3.24251         2.20881        0.572607
LJ           1.33385         4.48007         5.35606
LJ          -5.90323         5.48159          3.9356
LJ          -4.34815          1.8413        -4.63622
LJ          -5.64116        -3.10961         3.86317
LJ           5.66571        -5.02792         -4.4477
LJ          -1.39363         5.63759         2.27285
LJ          -3.73353         3.25583        0.285566
LJ           5.90446         5.37013         1.04419
LJ           5.43278         4.87089          2.9513
LJ            6.0842        -2.53992         2.50621
LJ           1.47647         3.92932         3.57053
LJ          -1.14599        -3.59809          5.7397
LJ          -6.02104         1.07929        -2.86728
LJ          -2.73413          2.2285        -1.08255
LJ           5.86576        -5.05363       -0.319818
LJ          -3.89484         -3.1377         2.63863
LJ           5.07914         5.85577        -4.13886
LJ           1.93072       -0.468932         5.66512
LJ           5.60011       -0.107802        -1.97737
LJ           5.90807         5.18937        -1.45535
LJ          -1.96537        0.974536         3.09027
LJ          -5.97455       -0.333261        -6.18528
LJ          -2.76291        -3.41349         5.81242
LJ          -5.89938         1.80461         -3.7768
LJ          -4.49868        -4.54552         5.94833
LJ           1.07305        -3.02891         3.69847
LJ           5.34471        -3.81527        -6.24661
