108
#Comment!
LJ           1.58744         6.00724         2.23861
LJ          0.993616         1.38999          3.4352
LJ           6.06784        0.836104        -2.90653
LJ            3.0426         -2.1815         4.13092
LJ          -2.73778         5.38061        0.426375
LJ           6.00679        -3.35829         3.87055
LJ          -5.04621        0.757707        -3.84983
LJ           4.15188        -4.13942        -5.77789
LJ            4.4147         -5.7899       -0.346978
LJ           3.07065        0.803099         5.46534
LJ          -3.47134          2.9772       -0.960018
LJ         -0.766241        -1.61593         3.29687
LJ          0.918854        -3.68647         -1.3191
LJ          -1.87026        -2.23021        -3.68738
LJ           0.55464        -2.74302         4.10683
LJ          -4.41742        -3.04777        -5.49675
LJ          -1.31661        -5.52968         5.17694
LJ           5.14511          2.2422         1.30512
LJ           2.99174        -6.21302         6.34737
LJ         -0.177389         1.30778       0.0424393
LJ          -1.34284        -4.21418        -3.91465
LJ          0.809768        0.434424        -1.94933
LJ          -5.94983        -3.92353         3.75813
LJ           5.68104         2.26265        -2.58332
LJ           4.71626        0.748129         1.81403
LJ         -0.386335         2.36884         -2.7462
LJ          -4.76663       -0.122252        -3.56876
LJ          -5.21468         3.91655        -5.64833
LJ          -4.14301         -3.3008         6.21655
LJ          -2.64972         2.19633         -2.0767
LJ          -1.14193        0.686065        -4.93384
LJ          -1.65099        -5.73289         -4.9151
LJ           3.08169       -0.258617        -1.14792
LJ            5.6784       -0.436209        -2.67147
LJ           4.01506         2.51908         6.10509
LJ           5.10996        0.456163       -0.659941
LJ          -5.38264        -2.50744         5.06944
LJ           3.62987        -2.14513        -3.62287
LJ          -1.92885        -1.96027        -1.64512
LJ           2.74084        -6.12919         -3.5719
LJ           3.79783        -6.09938        -4.85947
LJ          -3.16945         1.13544          2.2915
LJ          -1.81203        -0.49782       -0.884762
LJ          -3.89911        -1.14392        0.859963
LJ         -0.540003        -2.57542        -1.64742
LJ           5.83299       -0.331957         -5.5036
LJ           3.10067         3.84837         4.16243
LJ          -6.18752         2.54643        -3.01222
LJ         -0.371178         6.43775        -4.98315
LJ           4.44207         5.56032        -6.22958
LJ           4.41329        -2.62031        -6.32935
LJ          -6.27676        -2.26336         2.16013
LJ           1.29341         6.09724        -3.43012
LJ           6.24518         5.46713        -5.35531
LJ          -6.44425         4.54461        -5.91655
LJ          -6.22203        -2.70929        -2.23273
LJ          -5.87394         6.35759         1.09733
LJ           3.54774         1.33176         6.25941
LJ           -4.2844         4.57172        -5.41982
LJ           2.35435         4.77674         3.17018
LJ          -1.18736          1.1963        -2.77065
LJ          -2.81309         1.68417        -3.24516
LJ          -5.55917        -5.44893          0.1993
LJ           2.88856         -3.3413         4.18742
LJ           -2.9702         0.17692       -0.289638
LJ           3.10006         2.58364         1.54555
LJ           6.39507        -5.15011        -4.39076
LJ           5.84419        -3.87338       -0.230704
LJ           1.41882         1.07826         6.46125
LJ          -1.64029         2.40729        -3.04634
LJ           3.54211         3.37066        -3.76192
LJ           2.46937        -4.11067       -0.183916
LJ           4.53423        -4.89208        -4.46761
LJ          -3.83371        -4.29578        -3.63498
LJ          -2.10921        -4.52957         2.02253
LJ          0.804939        0.266071         1.02068
LJ          -1.55974         5.88395        -1.40129
LJ           6.20664         5.95907        0.094945
LJ          -2.87678        -2.35966        -3.70792
LJ          -5.44657         3.85422        -3.80283
LJ           -3.4296        -4.27232        -1.16031
LJ          -6.03682        -4.03961        -4.13783
LJ         0.0867675         2.33881        -5.58731
LJ         -0.389041        0.818796        -1.95143
LJ           6.25072           4.883         3.69143
LJ          -2.47759         3.17617        -3.82641
LJ           5.21176        -3.31501         1.83055
LJ           2.30097         1.68018        -2.01034
LJ           3.57673          1.0796        -1.73594
LJ          -4.99261        -3.62742         2.52743
LJ          -4.31273        0.897213        -4.95368
LJ          -4.01443       -0.454187        -3.02975
LJ           6.43017          3.9456        -4.37623
LJ          -6.02907        -1.83446         6.20332
LJ          -3.32686        -5.12704        -1.85287
LJ           4.39353        -4.39546         4.76959
LJ           1.47285          5.7751         3.73175
LJ            -3.307         3.15049         6.34047
LJ           -4.1174         2.53341        0.543597
LJ           1.15843        -4.92516         1.73987
LJ          -3.01264        -6.11016        -1.86853
LJ           0.54567         5.54599        -6.17723
LJ           3.78088        -5.76001         1.66196
LJ         -0.626077       0.0312078         4.97922
LJ           -4.7493        0.371688        -0.57099
LJ           2.18997         2.68455         4.54716
LJ            5.0477         -2.6039          4.1232
LJ           4.09881         3.70915        -5.68436
