108
#Comment!
LJ          -5.83812       -0.837358         2.45794
LJ           6.01397        -2.32252         2.54211
LJ          -3.47449        -2.27711        -5.48363
LJ         -0.120293         5.71676        -4.64299
LJ          -2.31874        -6.00157         3.29726
LJ            1.0038        -5.41178        -2.82023
LJ          -5.79794         4.35091         1.98288
LJ          -6.13849         4.48529         3.27201
LJ           3.09979        -1.31932         4.30955
LJ          -1.70934         6.00996        -5.17227
LJ         0.0126746        -5.99572        -5.34951
LJ          -4.67476        -2.17945        -4.26072
LJ          -4.52898         5.63773         2.77827
LJ           1.08349         4.76767        -2.91781
LJ          0.542323         6.07235        0.149929
LJ          -1.95759         3.33672         3.51921
LJ           0.64704        -2.66063         4.40023
LJ           2.13922        0.788485        -1.32476
LJ          -6.39124         -4.3734         4.08126
LJ          -3.76901         5.06595        0.357859
LJ        -0.0656977         -3.0898        -3.98711
LJ          -6.17281        -4.55648        -6.17562
LJ          -6.16582         3.45541          1.9037
LJ           5.85589        -5.99588         1.92422
LJ          -5.79554         -6.2642          3.9517
LJ          -6.24215         6.39409        -3.73207
LJ           4.35196        -1.13446        -4.38041
LJ           4.87216        0.275007        0.857877
LJ          -4.36768         3.24152        -1.51174
LJ         -0.829182         -6.0499           2.426
LJ            1.3034       -0.554996        -3.94719
LJ          -0.76571        0.354171         1.91992
LJ           1.89327         5.11653      -0.0608911
LJ             1.227        -1.64091         3.04554
LJ          -4.83713        -2.42624        -3.22635
LJ            1.0585         1.37927         -4.4273
LJ          -4.03805         2.47907         3.36851
LJ           3.50363        -2.21405        -1.29252
LJ           4.98156         5.99112       -0.362281
LJ          -2.57725       -0.492193        -1.05154
LJ           4.74933        -1.67487       -0.541942
LJ           1.61754         6.25927       -0.650219
LJ           1.26653         1.84925         3.65876
LJ           6.36468        -3.32208         3.32101
LJ           2.15318         3.60406         4.44484
LJ          0.241766         4.18444        -5.69678
LJ          -3.68337        -4.72751        -1.52673
LJ           1.45415        -0.14483          1.1255
LJ         -0.306542         5.04111        -2.36774
LJ          -2.11365        0.827491         1.68734
LJ         -0.397601        -4.57483        -5.19936
LJ          -2.89371       -0.678417         -5.3591
LJ           4.34165        0.834663        -1.36917
LJ           2.21082        -3.65823        -2.15911
LJ           2.69577         4.47431         4.88756
LJ          -4.43511         2.37715         5.31521
LJ           6.13619         5.17403        -2.79523
LJ           2.09778        0.917484      -0.0142459
LJ           3.84098        -2.39736        0.596185
LJ          -1.21335        -4.90803        -4.51346
LJ          -0.43848        -2.14811         2.09763
LJ          -2.80663        -5.71418         5.54468
LJ           3.09706        -2.68572       -0.469855
LJ          -5.41547         2.55087         -3.8387
LJ           4.05533        -1.34379        -5.50147
LJ          -3.87431          1.4475         5.89509
LJ           -4.1614        -1.29031         5.67891
LJ          -6.23016        -1.41427        -3.06377
LJ         -0.536814         6.33007        -6.20744
LJ           1.76689        -5.31179         3.67829
LJ          -3.96014         1.77234       -0.903772
LJ           5.97702         2.86668        -4.16602
LJ          0.978547        -6.15773        -2.10893
LJ         -0.300961         1.06537        -5.61219
LJ           5.77981        -1.11367        -1.14848
LJ          -2.38649         5.49424        0.965749
LJ           4.20532        -3.63513         5.09409
LJ        -0.0676058        -4.45839        -3.90333
LJ         -0.329703        -1.49995        -2.58669
LJ          -3.52273         5.88901         5.16631
LJ           2.03287        -4.23266         6.22742
LJ          -5.51418        0.135405         4.51441
LJ           3.27954        -4.72441        -4.54099
LJ           4.66098         1.09514         4.64488
LJ           5.89208         4.48069         3.85557
LJ          -3.81847        -4.19789        -4.11842
LJ           4.54272         4.54722       -0.664353
LJ         -0.637011         6.45828        -0.48608
LJ           3.18412         2.74533         3.39907
LJ           2.47878         3.45546         5.44574
LJ          -1.92127       0.0950474        -3.73176
LJ          -4.62778         3.48786       -0.433434
LJ          -4.59502        -6.10101        -2.81675
LJ          -1.85172        -1.63933        -5.21263
LJ           3.43519          5.7535         1.68509
LJ           1.41104        -4.52549        -4.36761
LJ           1.29558        -4.59257        -1.34812
LJ           -3.7083         2.69125         4.59636
LJ           3.90419         4.57723        -1.76494
LJ           -5.6721        -2.80127         3.54413
LJ           1.28299         4.85839        -5.03056
LJ           4.58008        0.556286         3.29404
LJ           6.15441         5.60412         3.17429
LJ          0.684778        -0.95272        -3.19814
LJ          -1.06806         4.00576         2.65963
LJ          -5.72124        -4.26403        -1.91135
LJ           3.39121        -5.64829         -1.3454
LJ           3.02819        -5.16086        -5.79577
