108
#Comment!
LJ          -2.17554        0.563013        -1.38379
LJ          -1.16298          2.1428        -2.30484
LJ           5.87864        -5.54955         3.97593
LJ           5.42779         1.71305        0.769505
LJ          -3.75718         4.36871       -0.698338
LJ          -3.75722        -6.25689       -0.315952
LJ           2.71655        -3.11641        -0.54668
LJ           -5.9262        0.443794         1.05331
LJ          0.662965        -6.41715         4.57793
LJ            1.3459         6.42761        -1.67622
LJ          -4.05833        0.878059        -1.80174
LJ           5.67018          4.1934         4.17269
LJ          -2.22258         4.00306        0.533273
LJ          -2.57483       -0.369157        -4.33793
LJ          -2.30499        -1.16145        -5.10934
LJ          -2.67813        -2.22987        -6.40506
LJ          -2.91944        0.428862         5.56039
LJ          -2.81386         4.12928        -0.38423
LJ          -3.91983       -0.566816         4.35957
LJ          -5.80976       -0.117621         1.98556
LJ           4.43343        -4.19166         3.12117
LJ         -0.958346        -3.98706        -3.65944
LJ          -1.70277         5.01897         0.65208
LJ           -4.9852        -3.61618        -4.25723
LJ          -5.02365         2.01079         1.35733
LJ         0.0387324        -3.94738         3.05831
LJ          -2.44006       0.0915543        -5.89972
LJ          -4.02972        -5.72245          4.2724
LJ          -6.08325         1.78665         2.38641
LJ         -0.388448         3.27465        -2.70219
LJ         -0.964417        -1.74367        -5.88939
LJ          -4.50806         1.05132         3.44698
LJ          -4.66315        -1.93931       -0.481373
LJ          -4.90782         1.23069         -6.2814
LJ           -4.0985        -4.14639        -4.30682
LJ          -3.67324          1.6901         2.49432
LJ          0.503398        -1.88032       -0.152654
LJ           -1.5331          1.9912         4.77656
LJ          -2.46464          3.0365      -0.0161579
LJ           1.92945        -6.20441        -5.71797
LJ           3.36722         4.45588         4.64563
LJ          -2.18559        -1.49991         2.61625
LJ           3.10563        -2.98284        -4.21327
LJ           5.11774         5.27018       -0.976269
LJ          -3.24979         4.46311        -2.51035
LJ          -1.08852         5.15146        -2.20531
LJ           2.81551        -1.38311        -3.63247
LJ            2.6828          3.7283         6.30356
LJ           5.81171         3.35377        -1.84188
LJ         -0.940688        -6.28015        -4.15258
LJ           4.81211        -2.84892        -5.19627
LJ           2.87115         5.95088        -1.27687
LJ          -3.63012        -1.67368         -2.8674
LJ           1.45301        -0.33981        -3.10597
LJ          -1.41817        -6.11205         3.31296
LJ          -1.15119         3.80772         5.27385
LJ          0.454228        -1.54013        -2.06867
LJ           1.09392        -4.03197        0.161452
LJ           0.79719         3.28238         3.86127
LJ           1.89986        -3.18196        -1.55605
LJ           4.90385         3.00816         6.06145
LJ         -0.234065       -0.159553        -5.73419
LJ           1.81769        0.928143         4.18085
LJ           5.57622         4.52079         1.56599
LJ         -0.108676        -1.73873         4.22925
LJ           -5.2375        -4.41227         1.75841
LJ           5.18561          1.0403        -4.05558
LJ          0.710651        -2.88593         2.92614
LJ           1.07443          4.8155        -2.70391
LJ           3.75158        -5.36021         3.59408
LJ          0.274861        -4.51167        -6.13844
LJ           5.83056       -0.161245         1.45296
LJ          -3.04517        -3.78397         3.41279
LJ          -3.56542        -3.21152        -5.18837
LJ          -3.00786        0.148474        -2.45885
LJ           1.09839        -3.16872        -5.03288
LJ           5.24456        -4.17574         3.90491
LJ          -2.08188        0.892027         1.70318
LJ           4.32859        -4.40728         4.23083
LJ          -1.15589         3.80729         2.52278
LJ          -3.47949         1.13223        0.556068
LJ           -1.8413         2.46407        -5.83484
LJ          -5.22352        -5.80949         5.37709
LJ         -0.488311         1.07536         -2.6965
LJ           6.26291         -3.7608        -6.29043
LJ          -6.38289         5.03343         -6.4513
LJ          -4.10629         6.24802         3.61213
LJ          -3.46612         1.88726        -2.05314
LJ           5.75631        -6.40818         2.45394
LJ          -5.96551          4.1024        0.971471
LJ          -5.76737       -0.470488         3.26613
LJ           4.69029         1.50295         3.65254
LJ          -2.25305         5.81618         3.15263
LJ          -5.97017        -2.35361        -4.80739
LJ            5.2662         3.11736         1.23141
LJ          -5.79047        -4.24696        -4.14756
LJ            5.7248        -1.56086        -1.43868
LJ           1.35301         4.70456        -1.46952
LJ           2.36026        -3.82466         3.41915
LJ           5.67906        -3.53019        -5.36707
LJ          -3.14876         6.07097        -3.72083
LJ          -5.37175         -1.3621         4.03882
LJ          -4.85972         4.12028          5.1883
LJ          -4.29867        -1.19691         -3.6811
LJ          -3.32827         1.89572        -3.74207
LJ          -6.26602        -4.44846         5.15792
LJ          -1.11922        -6.34482         2.36088
LJ           3.32066        -5.78979         5.30708
