108
#Comment!
LJ           0.10675        -3.07243         5.42745
LJ          0.353917        -3.82944         4.37756
LJ           3.11725        -6.41585         5.16908
LJ           4.27458         4.23936         1.79445
LJ          0.324157       -0.894396        -2.90135
LJ           5.80708          2.6613        -2.27356
LJ          -3.91013         2.43216        -4.50036
LJ          -6.10304        -5.99735       -0.558343
LJ          -2.72883        -4.70268          4.2008
LJ         -0.206154          4.6109         2.81373
LJ           2.83516         3.67342        -1.75175
LJ          -2.16548       -0.480212        -6.39026
LJ          -4.68702         4.63747        -2.42507
LJ          -3.83067        0.150923         5.25224
LJ           4.27832        -3.12536        -2.34602
LJ          -1.92188       0.0861065        -2.11348
LJ          -2.40158        0.595379         5.98904
LJ          -5.18562         5.94412         -6.3225
LJ           6.35226         3.22404         6.03675
LJ          -2.20881        -4.75141        -5.57194
LJ           5.78635        -5.53311        -1.53744
LJ           3.84858        -1.02212        -5.21613
LJ          -4.85064          4.8255        -1.24045
LJ          -6.10722        -4.26466         3.70288
LJ           5.77265        -6.05633        -3.27837
LJ         -0.478535        -6.08895         3.28942
LJ           6.23612        -5.12471          2.4589
LJ           6.09227         5.01044         2.70139
LJ          -3.53476         4.41437         -3.0231
LJ          -3.61306       -0.738891         3.65834
LJ           5.48532          3.0371        -1.50825
LJ          -1.96611         1.82252         3.51363
LJ            4.1303        0.419753        -1.38353
LJ           2.14669          2.8974         -3.4533
LJ           1.91759         4.70494         -3.4345
LJ         -0.586736        -4.84235      -0.0651617
LJ           3.52503         5.15698        -5.01922
LJ           1.40984        -3.43681        -2.30383
LJ          -4.24792          3.2233        -5.16541
LJ           2.07978      -0.0815994        -1.02397
LJ           6.09702        -5.35105       0.0713616
LJ         -0.491876         4.58361         4.42008
LJ           -1.9054         3.53953         5.55495
LJ            3.7661          2.6898          3.9989
LJ          -1.70128        -1.90054         2.38965
LJ           5.28052         1.85558        -5.96255
LJ           3.64148      -0.0755363        -4.95112
LJ          -4.09455       -0.118192         2.97529
LJ           6.30993         6.04173        -1.07407
LJ          0.450085        -4.36674         1.84392
LJ            6.2418        -3.55505        -4.88154
LJ          -2.01945         4.83851         3.30983
LJ           1.63613        -2.95811        -4.88163
LJ          -2.14928         2.41355        -5.87909
LJ          -6.26066        -6.46233        -5.77709
LJ          -2.95556          5.0309         5.59731
LJ           6.03805         5.92955         1.42359
LJ           1.77765        -2.07337        -5.93435
LJ          0.858898         3.87657        -3.98393
LJ            1.3017        -5.44327        -4.72884
LJ          -5.29308        -1.29982        -3.24288
LJ           1.66548        -3.27905        -3.53366
LJ          -3.70883       -0.637729        -2.26025
LJ           6.00488         -1.3175          1.9875
LJ          -6.38088        -5.64028         3.34839
LJ           2.89254         3.24775        0.536222
LJ            3.2832         2.01676         4.94663
LJ         -0.801131         3.56052        0.492844
LJ           3.72549         1.47919        -6.06845
LJ           2.99714          2.0282          2.7636
LJ           2.78825        0.749112         5.60635
LJ           3.46147         4.44517         4.15724
LJ           1.26282         1.90838         -3.0315
LJ          -1.07458        -5.87058        -4.44526
LJ         -0.658032         5.65993         1.43035
LJ           1.24771        -3.79742        -4.58772
LJ           2.43996         2.60395         4.30014
LJ           2.59883        -5.43772         3.38652
LJ           6.30916      -0.0823432        -3.81743
LJ              -6.2         3.31958        -4.06441
LJ           2.78757       -0.689348        -1.97271
LJ          -5.01654         1.63526         4.57002
LJ          0.599145         4.10879         3.20442
LJ          -5.89005        -2.58262        -1.47142
LJ          -4.09778         2.14067         0.36215
LJ         -0.949614       0.0809519         -3.4618
LJ           6.43066        -4.81175         4.54695
LJ           2.62707        -3.58592        -4.32254
LJ           5.34124        -4.92977        0.999546
LJ         -0.658601        0.360874       0.0197676
LJ          0.828472         6.31127        -1.16308
LJ         -0.305547        -6.33248        -1.21293
LJ          -4.36314        -6.33939        -1.06408
LJ           5.73193         2.33425         3.75522
LJ           4.21165         1.28152         2.42747
LJ          -6.19645         4.23531       -0.740973
LJ          -6.34936        0.602037         -2.0523
LJ           4.52742        -5.79729         1.08855
LJ           5.18109        -1.43162         4.39216
LJ          -5.49474         3.48044         1.08158
LJ           2.57747        -2.58284       -0.700003
LJ           4.71128         3.68011         4.35025
LJ          -1.57341        -3.16292         3.08155
LJ          -3.35786        -1.71254        -2.71981
LJ           2.14265         5.46894         6.09941
LJ          -5.68259         3.40092        -1.41059
LJ           1.69448      -0.0926607        -6.15288
LJ          -1.27752        -4.53027         -4.4004
