108
#Comment!
LJ          -2.45293        -2.24473         -6.4588
LJ           -2.9785         6.00128        -5.16056
LJ          -4.36813         3.85658        -3.92038
LJ           5.70622         0.69077      -0.0580257
LJ          0.732632        -3.32279         4.34532
LJ          -4.66674         -2.0605        -3.08345
LJ          -3.89679         5.68486         4.13537
LJ          -1.05284        -2.91988        -5.58661
LJ           6.30328         4.08988        -1.19982
LJ          -3.46304       0.0640954          4.5729
LJ          -4.50348         1.61907       -0.761529
LJ          -1.38773         3.33201         5.82904
LJ           5.19608        -4.91019        -4.25002
LJ          -5.80848         4.21049        0.347439
LJ           3.75105        -6.26366        -5.98791
LJ           2.27302         3.44146        -1.18241
LJ          -3.63559        -1.09162        -4.22614
LJ          -2.16003         3.20988       -0.169955
LJ           2.37697       -0.588303         3.69382
LJ          -2.39982        -5.47865        -5.35985
LJ          -5.27714        -3.41093         2.99436
LJ          -1.11744         5.93595         1.28502
LJ         -0.472979         -6.4164         5.46504
LJ         -0.755681         3.15204        -2.64609
LJ           -5.2897        -5.98909         2.19997
LJ           3.08178        -3.90016         1.58087
LJ          -5.45689         3.99909        -2.25249
LJ           6.46003         1.55224         6.31694
LJ           4.30371        -2.37357       -0.700254
LJ          -4.64223         5.80092       0.0939806
LJ          -5.90408        -2.76234         6.16672
LJ          -1.83201         1.53853        -2.84051
LJ           -2.9376       -0.297912         5.90881
LJ           3.02871        -2.78741         1.38092
LJ           -5.3631         3.98986         1.41915
LJ          -1.82722         1.73986         4.17073
LJ          -6.05585       -0.306561         6.12061
LJ           5.85233        -1.02972        0.157407
LJ          -3.70426        -5.61406        -5.29554
LJ              3.91        -1.05457         -3.1949
LJ         -0.874513        -5.42159          3.2544
LJ          -4.77311        -1.94567         3.19348
LJ           4.02749         4.49693        -1.41442
LJ          0.395918        -5.39997         3.14484
LJ           1.71181        -3.87618        -5.37538
LJ          0.675427        -1.50287         1.35959
LJ            3.8924        -3.07321         1.77916
LJ           6.21479        -5.44952         1.52206
LJ          -1.65426          -3.122        -1.03212
LJ          -5.32131        -1.07771         -6.4617
LJ           4.50286        -1.11569        0.950787
LJ          0.488045         2.29531         2.87131
LJ           2.07677         3.81566         2.89849
LJ         -0.857859        -4.49599         1.25485
LJ          -1.70741         3.58288        -2.30057
LJ            3.0806        -1.52656       -0.815669
LJ          -4.56589        -6.02956         5.30326
LJ         -0.876324         4.54286         6.31193
LJ          -3.93903        -3.42085         5.98335
LJ        -0.0947124        -5.57519        -5.57602
LJ           3.72353       -0.100539          3.8284
LJ          -2.96077        -1.91143         -3.5069
LJ         -0.583067        -3.04413         2.10996
LJ           1.03452         -6.4561        -5.38178
LJ           4.11943         -5.5596        -3.44369
LJ           5.33104         2.70245        -3.13657
LJ          -1.79289        0.320103        -5.53139
LJ           6.06572       -0.579959        -1.95549
LJ           2.47809         4.58414         5.64731
LJ          -5.80675         5.13031        -2.75181
LJ          -4.84496         2.02095         -3.8636
LJ         -0.613655        -1.36389        -2.76084
LJ           -2.8018        0.898105        -2.94297
LJ           2.42161         5.46462         2.39923
LJ          -3.22502        -5.73799        0.487885
LJ          -2.01667       -0.561296          3.7051
LJ           -5.1915       -0.150835         2.43809
LJ           1.41918          3.0378        -2.88919
LJ           1.54605         3.97245         5.28388
LJ           2.85084        -1.09068         0.19563
LJ           3.82714        0.565304         4.64451
LJ           3.57977        -3.90109        -4.46413
LJ          -4.26889        -5.06379         4.69683
LJ          -5.46999         4.28405        -5.73328
LJ           3.35888         3.35061        -4.31477
LJ            6.0104         2.22054        -3.93491
LJ         -0.175883         1.03171         4.38896
LJ          -4.01587         1.52033           1.757
LJ          -1.99012        -6.18428        -3.96193
LJ         -0.356642         2.37563          3.6357
LJ          -0.28253         4.82535        -2.76309
LJ           1.24611        -3.52971         1.84755
LJ          -1.52908         1.06872         2.89396
LJ           3.43127        -1.49437         3.61605
LJ           6.12904        0.828613          1.3286
LJ           1.14946        -3.27971        -4.38698
LJ           5.27488        -1.18685         4.50616
LJ         -0.314176       -0.886612        -5.63749
LJ          -1.56252         3.83418         2.71493
LJ          -1.84497         3.03768        -5.98836
LJ           1.39385        0.264957        -3.94612
LJ           1.50748        -3.26492        -2.46485
LJ         0.0900589        -3.74266        -2.03084
LJ         -0.814332        -4.26561        -1.66032
LJ          -1.95255         2.29668          5.6795
LJ          -4.96215         -4.6781         5.86901
LJ           3.82651         3.75535         2.43709
LJ           -0.2585         1.07683         5.56577
