108
#Comment!
LJ          -4.37513        -5.17586        -6.10516
LJ          -2.12513        -5.85183        -4.16944
LJ          -5.97758        -5.26458        -6.40688
LJ         -0.611879        -6.02969        -3.97351
LJ          0.958479         4.78104        -6.06682
LJ           4.46019        -3.88776          5.0334
LJ          -4.87359        -5.33079        -3.01692
LJ        -0.0766587        -5.71137         -3.0778
LJ           6.37683          5.7646         6.08499
LJ           1.18962        -3.63061         -4.2679
LJ           1.80672         3.90083        -6.45803
LJ           2.65153         5.57145        -4.33303
LJ           4.04826          -2.151        -3.79284
LJ          -2.60426         1.37384         6.24668
LJ          -5.69245          3.5564        -2.01979
LJ          -5.14368        -3.61348        -2.60866
LJ          -1.57567        0.355417        -5.39146
LJ           1.47516        -3.67988         5.42239
LJ          -2.01685          2.7049        -5.05507
LJ           1.69515        -2.22109        -3.62519
LJ           3.42117        -2.26842        -5.75342
LJ           2.86481         3.46076        -4.35747
LJ           3.91532        -3.08705        -1.67092
LJ          -5.36007        -2.24025        -2.63757
LJ           5.61607         2.21102        -5.46165
LJ           6.06256         4.81735         5.60365
LJ          -5.53746         2.12048         -4.7689
LJ          -4.47335         3.73039        -4.14388
LJ          -2.71995        0.217533         -4.3259
LJ          -3.95267         3.63698           6.227
LJ          -4.15194         5.81746        -5.57049
LJ          -3.53619         2.41316        -4.22375
LJ            2.8308         0.95913        -1.82753
LJ           1.53421          1.8872        -6.03062
LJ          0.901358         4.09073        -4.98623
LJ           1.72482         6.02669        -2.74652
LJ           -4.0705          4.0469       -0.634207
LJ           -4.6932        -6.43772        -2.40666
LJ          -5.34068         4.50299       -0.356673
LJ          -5.06935        -4.35306        0.887983
LJ         -0.668616        -5.42395        0.172007
LJ          0.411552        -2.39773        -4.26746
LJ           -4.0503        0.364659        -1.54469
LJ          -1.06138        -5.79116        -2.41433
LJ          -1.72722        -5.63168        -3.13321
LJ          -3.24378        -2.44963        -1.07358
LJ           2.58663        -4.23693        -1.94231
LJ           3.13796        -5.55339        0.186328
LJ           4.27489          3.3685        -2.02703
LJ          -2.50564         1.77105         -4.7862
LJ           4.16604        -1.59622        -2.65693
LJ          -6.28337       -0.546765        -3.95639
LJ          -0.28964        -3.67863         3.83395
LJ          -1.54595         3.04575        -2.64783
LJ         -0.491367        -1.35634       -0.372685
LJ          0.252411        -4.02027         2.40033
LJ           2.35208        -4.43545        -3.63606
LJ           4.83576         1.38098        -3.48091
LJ         -0.673027        -1.82109        -1.62332
LJ           2.37719        -1.09793       -0.489988
LJ           6.35879         5.29621         -1.9991
LJ          -2.92669         3.37739        -3.12533
LJ           2.26473         4.38624       -0.204832
LJ           -4.7446       -0.409799        0.302319
LJ          -2.69273        0.417127         1.20094
LJ         -0.385565         2.84126        -4.05117
LJ          -1.17298         1.03319        -1.24492
LJ           1.37256         4.37709        -2.75863
LJ          0.495963         3.66434        -3.53665
LJ            1.4838          4.3121        -1.00392
LJ          0.332174         3.58505         1.43443
LJ           2.98819         4.33391         1.78506
LJ          -5.65133        -6.15172         2.04411
LJ          -4.95632        -3.69861         4.52072
LJ           -5.9497        -1.87739         3.75198
LJ          -5.02355         4.63353         2.58976
LJ          0.586783         4.45557         4.43215
LJ         -0.284434        -5.19647         3.75141
LJ           1.28338        0.861251         4.43133
LJ           1.13796         -5.0682         3.72623
LJ         -0.372068         5.06176        0.756559
LJ           5.00287        -5.10035         1.29105
LJ           3.87194        -5.28994         3.57354
LJ           3.66024         5.36896         5.49202
LJ           5.87578        -3.16808         2.13469
LJ            5.4314       -0.781229         1.66945
LJ          -5.05098         1.63491         4.49045
LJ           6.30747         0.14676          1.9775
LJ          -5.36761        0.908382         1.38112
LJ          -2.14411        -4.39611         3.46661
LJ          0.847208         -1.6156         3.29043
LJ           1.55529        -2.83711        -4.80804
LJ           3.51292        -3.52741        0.768794
LJ           3.86107         1.21869         2.19085
LJ           6.07544         2.39858         3.54703
LJ           4.74549        -1.77939         1.93022
LJ           5.80278         2.06922        0.568732
LJ          -4.87225         6.19396         2.49818
LJ          -4.55915         2.59396         5.00689
LJ          -1.11217         2.23931         1.63056
LJ          -1.61708         1.12855         2.17648
LJ         0.0481139         4.93743         1.98335
LJ         -0.800931         3.83726        -6.45447
LJ          -1.43516          1.6765        -5.43435
LJ           3.08047         3.69115         2.58361
LJ           5.60843         2.08562         2.09918
LJ          0.620841         1.62983         3.93628
LJ           5.49826        0.522343         5.79943
