108
#Comment!
LJ          -4.25343         4.11617         5.23631
LJ           1.25489        -2.65154         5.34007
LJ          -4.45845         2.10772       -0.648017
LJ            4.9201        0.088166        0.642551
LJ         -0.476441        -5.44894         5.09884
LJ           5.99514        -3.45186        -4.77033
LJ           -1.6731        -5.61678         4.97059
LJ          0.627154         4.70552         5.73353
LJ          -5.14988         1.15076         5.65012
LJ           4.67801        -1.62833         1.02995
LJ          -5.80157         1.14846       -0.024937
LJ          -2.17429         3.49057        -1.66457
LJ          -3.38916        -4.07584        -6.45986
LJ          -5.41199        -6.08124         3.72608
LJ          -2.41869         4.70514         4.62011
LJ           2.04683         4.34159       -0.981231
LJ           6.24714        -3.98507         1.64235
LJ           1.78609         2.32982         1.26375
LJ           2.51913         -1.4448         3.43343
LJ          -2.65632        -3.04772          6.2871
LJ           2.73182        -2.28749       -0.411082
LJ          -4.16493         3.72593        -6.45607
LJ          0.403717        -3.74122         5.69777
LJ          -2.67753          2.7245         5.68552
LJ          -4.78513        -3.71366          3.5103
LJ           2.28137       -0.817941         2.42102
LJ           -4.5244        -6.06418         2.07068
LJ          -2.90487          -4.219        -5.42792
LJ          -6.44093         0.36316        -2.45371
LJ          -2.21357        -3.47216        -1.06905
LJ           1.84388         5.28545         1.26217
LJ          -4.25088         3.31329        -1.53626
LJ           2.84526        -2.62967        -4.87524
LJ           3.09228        -1.60415        -3.10223
LJ           5.20649        -4.66721         1.77182
LJ          -3.02235         2.74486       -0.815089
LJ          -4.53591        -2.97634       -0.408091
LJ          -4.92599        -4.28577        0.260081
LJ          -4.85104         5.87582         5.20328
LJ           1.12004        -3.33173         -2.2758
LJ          0.892213        -6.19013         3.14827
LJ         -0.409716         2.73509         2.39898
LJ           6.11848        -4.83652         3.28182
LJ           3.63513         1.94278         2.29313
LJ           4.88198         2.83349        -3.52268
LJ         -0.766369        -1.51997        -1.37211
LJ           5.08642        -3.68998       -0.712485
LJ          -3.03893        -2.34507         1.90762
LJ         -0.989812       -0.224912        -2.78714
LJ          -4.44767        -5.56473         3.24375
LJ           2.76064         3.12279        -1.32344
LJ            1.5815        -5.63877        0.947987
LJ         -0.271356         1.11576        -6.27429
LJ          -1.11594        -6.40077         2.35018
LJ          -6.02631        -1.86445      -0.0374068
LJ          0.875243         2.12161        0.395577
LJ          -1.84062          3.9899        -5.81452
LJ          -2.45106       -0.246052        -4.47242
LJ           5.64551        -1.88977        -4.83799
LJ           3.39218         6.44515        -3.75319
LJ           1.61576        0.427708          1.9769
LJ          -1.02633         6.06215        -2.58319
LJ           3.12181        -6.21947         6.31323
LJ           3.30483         5.40295         4.74568
LJ           4.63348        -4.05244        -1.69511
LJ          -3.01284         2.87008         2.31453
LJ          -2.62552         2.28915        -3.95962
LJ         -0.454573         2.74588        -1.57156
LJ           4.36647         1.05907         1.36195
LJ           5.43228         4.12956        -2.45864
LJ           4.40275         2.98585        -2.14783
LJ          -6.08037        -3.86141        -5.52845
LJ          -1.57834         2.15449       -0.743637
LJ           5.78218          5.1916         5.35394
LJ           4.95302         5.85139         0.15712
LJ           -1.5677        -3.20979        -6.22076
LJ          -4.53327        -5.55237         1.00719
LJ           1.25673        -5.44507        -0.76111
LJ         -0.382002        -4.77747        -5.13564
LJ           2.59857         1.37443         1.12457
LJ         -0.699504        -1.36454         0.78351
LJ           4.97821        -5.05226        -6.26577
LJ          -6.07619       -0.768432        -3.88373
LJ          -3.73969         1.47784        -5.93566
LJ          -4.63345       -0.470534        -4.47669
LJ          -5.98783         -3.6896        -2.92048
LJ           3.98942        -2.63586        -1.92814
LJ           2.93559         5.15633        -1.06448
LJ          0.248793         5.49304        -3.22375
LJ         -0.738987           3.874         5.17141
LJ           3.75632         5.38547         -3.8614
LJ          0.650433        -1.19899         3.64667
LJ           2.56216         6.06588       -0.694197
LJ             5.925         1.43751         1.84035
LJ          -5.27391       0.0782183         2.86958
LJ         0.0311084         0.66261        -2.39321
LJ           4.33147        0.983152         5.46567
LJ         -0.358095          2.1259        -2.43761
LJ          -1.69385        -2.07799         1.62497
LJ          -2.54519         4.46423        -2.94901
LJ          -1.33795         1.18851        -5.30569
LJ          0.816496         -1.6954         5.77388
LJ          -6.19417        -4.72335        -2.78716
LJ           3.67646         5.94003         -2.2224
LJ         -0.966844        0.430858         -4.2644
LJ          0.081876         5.22192        -4.82167
LJ          -1.64325         6.40738       -0.996481
LJ          -1.17796         2.98807        -6.38448
